Mn4 O4 F8                               
   1.00000000000000     
     4.8599950194758401    0.0162639626727096   -0.0591656171394391
     0.0216077077105865    5.1248364982033587    0.0648348187522266
    -0.0907115926451397    0.1139238856803574    7.1376483055776232
   Mn   O    F 
     4     4     8
Direct
  0.4971349247410201  0.9839132772219679  0.9915525966614709
  0.0205997080334135  0.5096478671409667  0.9997281981412101
  0.5036723388680355  0.9974713738200763  0.5124760456517681
  0.9747870094638403  0.5188159524178729  0.4974057004730390
  0.3191514963427178  0.6859305694586288  0.9338842887445961
  0.8009991036431223  0.8221702495273200  0.4323793175591850
  0.6169315727952167  0.0344493726466170  0.7547243087681340
  0.3975932245199307  0.9544024665519542  0.2477052075967454
  0.7072591258796279  0.2933014477923704  0.0591480394379097
  0.1858265100787892  0.1902887713198593  0.9406431556800606
  0.8262921618908472  0.7999430611544003  0.0633315683423471
  0.3155993979526538  0.6981317309588989  0.5673136982280782
  0.6551271668045070  0.3155297413617180  0.4398673106816211
  0.1730603110502898  0.1990515348034017  0.5542555903150623
  0.1361403917263917  0.4621553023649828  0.2407153861289164
  0.8698255562095965  0.5347972814589720  0.7648695875898563
 
  0.00000000E+00  0.00000000E+00  0.00000000E+00
  0.00000000E+00  0.00000000E+00  0.00000000E+00
  0.00000000E+00  0.00000000E+00  0.00000000E+00
  0.00000000E+00  0.00000000E+00  0.00000000E+00
  0.00000000E+00  0.00000000E+00  0.00000000E+00
  0.00000000E+00  0.00000000E+00  0.00000000E+00
  0.00000000E+00  0.00000000E+00  0.00000000E+00
  0.00000000E+00  0.00000000E+00  0.00000000E+00
  0.00000000E+00  0.00000000E+00  0.00000000E+00
  0.00000000E+00  0.00000000E+00  0.00000000E+00
  0.00000000E+00  0.00000000E+00  0.00000000E+00
  0.00000000E+00  0.00000000E+00  0.00000000E+00
  0.00000000E+00  0.00000000E+00  0.00000000E+00
  0.00000000E+00  0.00000000E+00  0.00000000E+00
  0.00000000E+00  0.00000000E+00  0.00000000E+00
  0.00000000E+00  0.00000000E+00  0.00000000E+00
