V4 O4 F8                                
   1.00000000000000     
     5.1044023433627794    0.0527218670779375   -0.0004795329981809
     0.0407076423132480    5.2942238232433052    0.0004250221407627
    -0.0006485173288537    0.0008070609392896    7.4093884803248580
   V    O    F 
     4     4     8
Direct
  0.4732030089785806  0.0195885309900175  0.9957118906544702
  0.9814401411625935  0.5269611815388232  0.0043403925596557
  0.4730866147413589  0.0197171932197803  0.5041882168967211
  0.9814499445727239  0.5269959624982407  0.4956979768208977
  0.2216171423077475  0.2126455665979798  0.9618540684707151
  0.7929603081240011  0.7782864407465794  0.0370224914562177
  0.7929982275360919  0.7784428020762059  0.4630077418410804
  0.2213948991803539  0.2125680119670702  0.5381933074457997
  0.7204968543094027  0.2773285922808121  0.0604888058070643
  0.2981886320627778  0.7056267796890270  0.9422737365154659
  0.2982581790575873  0.7056276148196025  0.5577198704019650
  0.7203057193618719  0.2774951684558055  0.4394895306231514
  0.1110187118127153  0.4921277602833284  0.2500368534112712
  0.9004685313871920  0.4874758815815562  0.7500152502531146
  0.6056121305065525  0.0209740335982235  0.7499725165334014
  0.4075009548984562  0.9581384796569550  0.2499873503090017
 
  0.00000000E+00  0.00000000E+00  0.00000000E+00
  0.00000000E+00  0.00000000E+00  0.00000000E+00
  0.00000000E+00  0.00000000E+00  0.00000000E+00
  0.00000000E+00  0.00000000E+00  0.00000000E+00
  0.00000000E+00  0.00000000E+00  0.00000000E+00
  0.00000000E+00  0.00000000E+00  0.00000000E+00
  0.00000000E+00  0.00000000E+00  0.00000000E+00
  0.00000000E+00  0.00000000E+00  0.00000000E+00
  0.00000000E+00  0.00000000E+00  0.00000000E+00
  0.00000000E+00  0.00000000E+00  0.00000000E+00
  0.00000000E+00  0.00000000E+00  0.00000000E+00
  0.00000000E+00  0.00000000E+00  0.00000000E+00
  0.00000000E+00  0.00000000E+00  0.00000000E+00
  0.00000000E+00  0.00000000E+00  0.00000000E+00
  0.00000000E+00  0.00000000E+00  0.00000000E+00
  0.00000000E+00  0.00000000E+00  0.00000000E+00
