Na8 Co8 O16 F8                          
   1.00000000000000     
     7.8500664569925354   -0.0090132537118509   -0.0100465383476704
     0.0051321252372271    7.4032608455365061    0.0331776028955490
    -0.0341024000167580   -0.0122325870478132    7.3863344592301159
   Na   Co   O    F 
     8     8    16     8
Direct
  0.2489128189363477  0.2178120234068494  0.2509269358771697
  0.2345279034161334  0.2561614022739239  0.7419319833370034
  0.2523300543856918  0.7420636265634900  0.2478588777545757
  0.2526403718874255  0.7761370343013924  0.7505090501240900
  0.7500229819752353  0.2415526312190604  0.2511043140664974
  0.7565980214811138  0.2678950332740102  0.7442181444166166
  0.7315924474505706  0.7332999300610611  0.2510992235089471
  0.7485767337548125  0.7752619855548240  0.7593401145635389
 -0.0001519808472251  0.9965566706464691  0.0014408177550720
  0.9793919666155049  0.9914452755132730  0.4949069261816685
  0.9992782305650414  0.4930679870054608  0.0011704092868135
  0.0167268365629335  0.5057863496291697  0.4906546018742575
  0.4992952829399444  0.9993016422957045  0.0022954414352019
  0.5100799585575985  0.0013115620444592  0.5003824764672665
  0.4917808738218983  0.4968636232872679  0.9845521366476284
  0.4727854642037875  0.4973228594087991  0.5032966137745102
  0.2305172151252771  0.4550538071562368  0.4537692326933015
  0.7611307379470644  0.9539438964621962  0.4748633567947010
  0.8092326506214718  0.5530085318946792  0.5508180996931545
  0.9570940984820345  0.2644649383450192  0.0026168343618215
  0.0392982109832108  0.7305765908543610  0.0101967378292348
  0.5381887470843537  0.2344071539811221  0.9925908945894248
  0.5353099903941003  0.2517617801385656  0.5042724827836685
  0.4615227445620000  0.7617865143846415  0.0023522355472798
  0.4715246298357743  0.7468283315874311  0.4951991776277137
  0.0306006363623131  0.0037344595378733  0.2329099650942417
  0.9743967131839474  0.9897906361450490  0.7684007842173306
  0.9498345525595915  0.5215841454799749  0.2444605137901938
  0.0405702852871269  0.5042702739343449  0.7544717709026662
  0.4755712280881528  0.0054320824876493  0.2378765215844461
  0.5245108568018818  0.9916643397841758  0.7635718836805501
  0.4337183164446658  0.4936664601434346  0.7568465168523321
  0.2451782246210813  0.0499110161487045  0.9614766582845512
  0.2397621620254726  0.0500635546825685  0.5249892138697642
  0.2548879252705061  0.4532136651329378  0.0680824695110964
  0.7547866187589675  0.9473069582202349  0.0399958073309481
  0.7391203613609911  0.5419868074135447  0.9467084282782556
  0.9474372258645499  0.2492771715985890  0.4985123222948290
  0.0882129878437797  0.7591662775729137  0.4977153116215791
  0.5532049147848787  0.4952609704285306  0.2416147136960654
 
  0.00000000E+00  0.00000000E+00  0.00000000E+00
  0.00000000E+00  0.00000000E+00  0.00000000E+00
  0.00000000E+00  0.00000000E+00  0.00000000E+00
  0.00000000E+00  0.00000000E+00  0.00000000E+00
  0.00000000E+00  0.00000000E+00  0.00000000E+00
  0.00000000E+00  0.00000000E+00  0.00000000E+00
  0.00000000E+00  0.00000000E+00  0.00000000E+00
  0.00000000E+00  0.00000000E+00  0.00000000E+00
  0.00000000E+00  0.00000000E+00  0.00000000E+00
  0.00000000E+00  0.00000000E+00  0.00000000E+00
  0.00000000E+00  0.00000000E+00  0.00000000E+00
  0.00000000E+00  0.00000000E+00  0.00000000E+00
  0.00000000E+00  0.00000000E+00  0.00000000E+00
  0.00000000E+00  0.00000000E+00  0.00000000E+00
  0.00000000E+00  0.00000000E+00  0.00000000E+00
  0.00000000E+00  0.00000000E+00  0.00000000E+00
  0.00000000E+00  0.00000000E+00  0.00000000E+00
  0.00000000E+00  0.00000000E+00  0.00000000E+00
  0.00000000E+00  0.00000000E+00  0.00000000E+00
  0.00000000E+00  0.00000000E+00  0.00000000E+00
  0.00000000E+00  0.00000000E+00  0.00000000E+00
  0.00000000E+00  0.00000000E+00  0.00000000E+00
  0.00000000E+00  0.00000000E+00  0.00000000E+00
  0.00000000E+00  0.00000000E+00  0.00000000E+00
  0.00000000E+00  0.00000000E+00  0.00000000E+00
  0.00000000E+00  0.00000000E+00  0.00000000E+00
  0.00000000E+00  0.00000000E+00  0.00000000E+00
  0.00000000E+00  0.00000000E+00  0.00000000E+00
  0.00000000E+00  0.00000000E+00  0.00000000E+00
  0.00000000E+00  0.00000000E+00  0.00000000E+00
  0.00000000E+00  0.00000000E+00  0.00000000E+00
  0.00000000E+00  0.00000000E+00  0.00000000E+00
  0.00000000E+00  0.00000000E+00  0.00000000E+00
  0.00000000E+00  0.00000000E+00  0.00000000E+00
  0.00000000E+00  0.00000000E+00  0.00000000E+00
  0.00000000E+00  0.00000000E+00  0.00000000E+00
  0.00000000E+00  0.00000000E+00  0.00000000E+00
  0.00000000E+00  0.00000000E+00  0.00000000E+00
  0.00000000E+00  0.00000000E+00  0.00000000E+00
  0.00000000E+00  0.00000000E+00  0.00000000E+00
