Na4 Co4 O8 F4                           
   1.00000000000000     
     5.4643019915488500   -0.0918839316141308   -0.0155629696679042
    -2.8187091210861084    4.6915516371162953    0.0126564614050098
    -0.0082339070253419   -0.0548408831426987    9.1830647632244240
   Na   Co   O    F 
     4     4     8     4
Direct
  0.9349864038361454  0.9924043267731094  0.9854871310713068
  0.0316947456382264  0.9792487946588817  0.4850768145672266
  0.3894021989597193  0.6827978324245967  0.2642039709912793
  0.6031548487501537  0.3005989254321275  0.7588145645625044
  0.3578606870260995  0.6566217508196759  0.6031535472840249
  0.7279203485031490  0.3073763807802485  0.3928514682599263
  0.6154336646634636  0.3173806525093053  0.1043049979540003
  0.2635499865431885  0.6862295173810868  0.8910150794714218
  0.3907813173637780  0.0341749898535263  0.9844130953701510
  0.9298973584645832  0.5222969195909047  0.9661652706587903
  0.5993709986657413 -0.0020330529288363  0.4892075976461062
  0.0986973513733719  0.4665485503489042  0.4652393874703026
  0.8241383403089807  0.5987892597177685  0.2689232478428369
  0.2116005982186072  0.3886849095228966  0.7716515343265921
  0.3963361686414534  0.2108087946736018  0.2893660321480146
  0.5905564580193562  0.8219265892273587  0.7858832560863107
  0.4546852071801102  0.5622516717707876  0.0484546648372702
  0.6167395735946294  0.5099963539314587  0.5496235647992469
  0.8053273561282954  0.1249555310521877  0.1986422064996030
  0.1578663881209469  0.8389413024604226  0.6975225681530919
 
  0.00000000E+00  0.00000000E+00  0.00000000E+00
  0.00000000E+00  0.00000000E+00  0.00000000E+00
  0.00000000E+00  0.00000000E+00  0.00000000E+00
  0.00000000E+00  0.00000000E+00  0.00000000E+00
  0.00000000E+00  0.00000000E+00  0.00000000E+00
  0.00000000E+00  0.00000000E+00  0.00000000E+00
  0.00000000E+00  0.00000000E+00  0.00000000E+00
  0.00000000E+00  0.00000000E+00  0.00000000E+00
  0.00000000E+00  0.00000000E+00  0.00000000E+00
  0.00000000E+00  0.00000000E+00  0.00000000E+00
  0.00000000E+00  0.00000000E+00  0.00000000E+00
  0.00000000E+00  0.00000000E+00  0.00000000E+00
  0.00000000E+00  0.00000000E+00  0.00000000E+00
  0.00000000E+00  0.00000000E+00  0.00000000E+00
  0.00000000E+00  0.00000000E+00  0.00000000E+00
  0.00000000E+00  0.00000000E+00  0.00000000E+00
  0.00000000E+00  0.00000000E+00  0.00000000E+00
  0.00000000E+00  0.00000000E+00  0.00000000E+00
  0.00000000E+00  0.00000000E+00  0.00000000E+00
  0.00000000E+00  0.00000000E+00  0.00000000E+00
