Na4 Mn4 O8 F4                           
   1.00000000000000     
     5.1535831726956793    0.1043275994329553   -0.0000030530356694
     0.1009916553198380    5.2415172996343422   -0.0000019399353013
    -0.0000042191474829   -0.0000039800914896    7.4631988003591996
   Na   Mn   O    F 
     4     4     8     4
Direct
  0.9833027692305171  0.0434536619785539  0.2500003011446870
  0.0075501585472354  0.9640293841871955  0.7500032470017911
  0.4910910999229403  0.4491942336090432  0.7499996970394081
  0.5207671259116343  0.5491107731125925  0.2499997541491608
  0.4826423333281241  0.9877418273372137  0.9841990958286025
  0.0152284805025797  0.5200775969697665  0.0132852173692508
  0.4826425864505625  0.9877439377434627  0.5157993401563651
  0.0152264501369268  0.5200792797133431  0.4867143713194593
  0.2992734800169518  0.7008067928647498  0.9589124957392738
  0.2026529158650848  0.2065244133020817  0.9609148057358007
  0.7909788825117902  0.7911079299647615  0.0436894057670813
  0.2992699686895988  0.7008106748947152  0.5410879197185174
  0.7909763439261713  0.7911057842758591  0.4563116054923594
  0.2026527960595028  0.2065289106405289  0.5390855479190326
  0.0874303930595627  0.4713411018894933  0.2499998072476740
  0.5780103162548319  0.0115707723168786  0.7499997536407642
  0.7039208062903466  0.2933343960982815  0.0365609137214055
  0.7039209459571896  0.2933346502181206  0.4634379960171009
  0.9207113254422695  0.5207619147847635  0.7499992199520649
  0.4217508218961798  0.9913419640986020  0.2499995050402157
 
  0.00000000E+00  0.00000000E+00  0.00000000E+00
  0.00000000E+00  0.00000000E+00  0.00000000E+00
  0.00000000E+00  0.00000000E+00  0.00000000E+00
  0.00000000E+00  0.00000000E+00  0.00000000E+00
  0.00000000E+00  0.00000000E+00  0.00000000E+00
  0.00000000E+00  0.00000000E+00  0.00000000E+00
  0.00000000E+00  0.00000000E+00  0.00000000E+00
  0.00000000E+00  0.00000000E+00  0.00000000E+00
  0.00000000E+00  0.00000000E+00  0.00000000E+00
  0.00000000E+00  0.00000000E+00  0.00000000E+00
  0.00000000E+00  0.00000000E+00  0.00000000E+00
  0.00000000E+00  0.00000000E+00  0.00000000E+00
  0.00000000E+00  0.00000000E+00  0.00000000E+00
  0.00000000E+00  0.00000000E+00  0.00000000E+00
  0.00000000E+00  0.00000000E+00  0.00000000E+00
  0.00000000E+00  0.00000000E+00  0.00000000E+00
  0.00000000E+00  0.00000000E+00  0.00000000E+00
  0.00000000E+00  0.00000000E+00  0.00000000E+00
  0.00000000E+00  0.00000000E+00  0.00000000E+00
  0.00000000E+00  0.00000000E+00  0.00000000E+00
