Cr4 O4 F8                               
   1.00000000000000     
     4.7947196997431076    0.0002025102449812    0.0368857801281344
    -0.0002036974093578    5.1155174524414555   -0.0000420782872514
    -0.0579509716346865   -0.0001340979778055    7.2040528730502746
   Cr   O    F 
     4     4     8
Direct
  0.4765420739880573  0.9983955203433323  0.9982246705771423
  0.0310488988279829  0.4922133083100302  0.9962045327023894
  0.5309276059315243  0.0077517575016299  0.4962412856196328
  0.9764145091898067  0.5016145586417011  0.4981794293284541
  0.3058234493423493  0.6998681739868255  0.9487239547293677
  0.1882353559232607  0.2023914492421274  0.9318662517412506
  0.6881693830512440  0.2975927111006732  0.4318617862621434
  0.8056648834147733  0.8000751844407736  0.4487630901775533
  0.6908943210696622  0.3076259413908534  0.0589808900451026
  0.8085763475542521  0.8015589982435561  0.0623584709347756
  0.3083911050413872  0.6984967587911730  0.5624217121930097
  0.1908064213021654  0.1923978048809460  0.5589616993969626
  0.1277680475520086  0.4663020233773186  0.2512844721352856
  0.8714748874153961  0.5252077993000225  0.7522968132437167
  0.6277773471152691  0.0337983618929651  0.7513192877121241
  0.3714853632808608  0.9747096485560790  0.2523116532010895
 
  0.00000000E+00  0.00000000E+00  0.00000000E+00
  0.00000000E+00  0.00000000E+00  0.00000000E+00
  0.00000000E+00  0.00000000E+00  0.00000000E+00
  0.00000000E+00  0.00000000E+00  0.00000000E+00
  0.00000000E+00  0.00000000E+00  0.00000000E+00
  0.00000000E+00  0.00000000E+00  0.00000000E+00
  0.00000000E+00  0.00000000E+00  0.00000000E+00
  0.00000000E+00  0.00000000E+00  0.00000000E+00
  0.00000000E+00  0.00000000E+00  0.00000000E+00
  0.00000000E+00  0.00000000E+00  0.00000000E+00
  0.00000000E+00  0.00000000E+00  0.00000000E+00
  0.00000000E+00  0.00000000E+00  0.00000000E+00
  0.00000000E+00  0.00000000E+00  0.00000000E+00
  0.00000000E+00  0.00000000E+00  0.00000000E+00
  0.00000000E+00  0.00000000E+00  0.00000000E+00
  0.00000000E+00  0.00000000E+00  0.00000000E+00
