Na8 Ni8 O16 F8                          
   1.00000000000000     
     7.6175709219886514    0.0000065474604054   -0.0018120614061063
     0.0000061024593163    7.6184790001169285    0.0000548085053600
    -0.0003191979690154    0.0000599586488569    7.4037166808392403
   Na   Ni   O    F 
     8     8    16     8
Direct
  0.2513968225400295  0.2499495258843760  0.2488505596694137
  0.2504104095981797  0.2501796535810126  0.7471751326312828
  0.2514319001668600  0.7500523777193105  0.2488599180400454
  0.2504090528068183  0.7498240644178905  0.7471787324664746
  0.7511723158438979  0.2499736887387264  0.2490080537934821
  0.7500178865165781  0.2504305121873325  0.7469124731738668
  0.7511303750892849  0.7500270300492828  0.2489891239300844
  0.7499922272788999  0.7495687452095432  0.7469174842400711
 -0.0000676214085189 -0.0000048302398568  0.9992343597844663
 -0.0001466577460053 -0.0000013781833090  0.4992596979355005
  0.9999452766187330  0.5000061633418384  0.9992318308755493
 -0.0001236393056606  0.4999921843873965  0.4992344359773076
  0.4999748010515982  0.0000023473401911 -0.0007704356218458
  0.4998378428802701  0.0000013166928070  0.4992627832997167
  0.4999641323554574  0.4999990254521097  0.9992348873062806
  0.4998178414198414  0.4999971066978843  0.4992437145625207
  0.2499522206275881  0.0000009398226629  0.0159975365470159
  0.2499407711431427  0.5000000925105480  0.0160202253666715
  0.7498446511929227  0.0000008093001809  0.0160458421673369
  0.7498536756625269  0.5000001386159831  0.0160399450388969
  0.9998632385349929  0.2500508653657443  0.5158873419281592
  0.9998634574062730  0.7499365959012098  0.5158555976371190
  0.4998875720553712  0.2500422911770839  0.5158386632783393
  0.4998873759266021  0.7499572554874377  0.5158443524518581
  0.9997421138105131 -0.0000055784551759  0.2489665283311367
  0.9995716132864678 -0.0000017756932788  0.7489231949908718
  0.9997529445077702  0.5000057974473203  0.2489771809156703
  0.9995542828446217  0.5000100578709760  0.7489248400545477
  0.4997540968366510  0.9999993311719262  0.2490117714279369
  0.4995812399963361  0.0000021647591826  0.7488545911832797
  0.4997455046153035  0.5000016416262822  0.2490172920055510
  0.4995834738680903  0.5000009843100625  0.7488498520984526
  0.2497601172851801 -0.0000012229429253  0.4879038678420375
  0.2497677326320420  0.5000000176371290  0.4879617208611933
  0.7497458819588751 -0.0000013729883229  0.4879042166261850
  0.7497422788892574  0.5000001894046033  0.4879861533703626
  0.9998796181876646  0.2500051424367075  0.9878492001033282
  0.9998796338902738  0.7499961501308424  0.9878468007280496
  0.4998418877662241  0.2500044338041479  0.9878341779755886
  0.4998416513690673  0.7499975180231362  0.9878363550061871
 
  0.00000000E+00  0.00000000E+00  0.00000000E+00
  0.00000000E+00  0.00000000E+00  0.00000000E+00
  0.00000000E+00  0.00000000E+00  0.00000000E+00
  0.00000000E+00  0.00000000E+00  0.00000000E+00
  0.00000000E+00  0.00000000E+00  0.00000000E+00
  0.00000000E+00  0.00000000E+00  0.00000000E+00
  0.00000000E+00  0.00000000E+00  0.00000000E+00
  0.00000000E+00  0.00000000E+00  0.00000000E+00
  0.00000000E+00  0.00000000E+00  0.00000000E+00
  0.00000000E+00  0.00000000E+00  0.00000000E+00
  0.00000000E+00  0.00000000E+00  0.00000000E+00
  0.00000000E+00  0.00000000E+00  0.00000000E+00
  0.00000000E+00  0.00000000E+00  0.00000000E+00
  0.00000000E+00  0.00000000E+00  0.00000000E+00
  0.00000000E+00  0.00000000E+00  0.00000000E+00
  0.00000000E+00  0.00000000E+00  0.00000000E+00
  0.00000000E+00  0.00000000E+00  0.00000000E+00
  0.00000000E+00  0.00000000E+00  0.00000000E+00
  0.00000000E+00  0.00000000E+00  0.00000000E+00
  0.00000000E+00  0.00000000E+00  0.00000000E+00
  0.00000000E+00  0.00000000E+00  0.00000000E+00
  0.00000000E+00  0.00000000E+00  0.00000000E+00
  0.00000000E+00  0.00000000E+00  0.00000000E+00
  0.00000000E+00  0.00000000E+00  0.00000000E+00
  0.00000000E+00  0.00000000E+00  0.00000000E+00
  0.00000000E+00  0.00000000E+00  0.00000000E+00
  0.00000000E+00  0.00000000E+00  0.00000000E+00
  0.00000000E+00  0.00000000E+00  0.00000000E+00
  0.00000000E+00  0.00000000E+00  0.00000000E+00
  0.00000000E+00  0.00000000E+00  0.00000000E+00
  0.00000000E+00  0.00000000E+00  0.00000000E+00
  0.00000000E+00  0.00000000E+00  0.00000000E+00
  0.00000000E+00  0.00000000E+00  0.00000000E+00
  0.00000000E+00  0.00000000E+00  0.00000000E+00
  0.00000000E+00  0.00000000E+00  0.00000000E+00
  0.00000000E+00  0.00000000E+00  0.00000000E+00
  0.00000000E+00  0.00000000E+00  0.00000000E+00
  0.00000000E+00  0.00000000E+00  0.00000000E+00
  0.00000000E+00  0.00000000E+00  0.00000000E+00
  0.00000000E+00  0.00000000E+00  0.00000000E+00
