Na8 V8 O16 F8                           
   1.00000000000000     
     7.7827974615354210    0.0026379656422342   -0.0403474258453967
    -0.0124336574377580    7.4547151562620826   -0.0208642084072979
    -0.0223823137819466   -0.0361040563525535    7.4182334046556253
   Na   V    O    F 
     8     8    16     8
Direct
  0.2667074135474585  0.2378124058185274  0.2345665510208368
  0.2671038172079424  0.2405335864813823  0.7386985783965118
  0.2340534218684737  0.7599271744654775  0.2719395208557899
  0.2500242484876126  0.7635916012645693  0.7603254399030003
  0.7503224225909232  0.2476834267686986  0.2296907969388742
  0.7535732089020667  0.2418105675769806  0.7313447669520049
  0.7289356199185144  0.7500263814962063  0.2688491316491587
  0.7219677036902526  0.7530388611646653  0.7676131352557088
  0.0022948719600534 -0.0005256984139084  0.9959852305384710
  0.9820487990995829  0.9960711042390417  0.5007941452412205
  0.0040346126837542  0.5000890518177012  0.9993885991879325
  0.9803947636492856  0.5042761099560950  0.5048457378653010
  0.5032268326581438  0.9963155656971144  0.0048012312684893
  0.5175748254970329  0.9989411997576972  0.5037211336103173
  0.4994585248190127  0.5000949376173198  0.9866503264061010
  0.4592202659700283  0.4982530128127948  0.5052647138180842
  0.2451680273016371  0.4640572819525036  0.4508734548374982
  0.7511860886280441  0.9604274728095957  0.5429995374413498
  0.7709022060304584  0.5439212309661386  0.5386618313563628
  0.0288089226275692  0.2381447929507421  0.0318628064511444
  0.9774642946354668  0.7615247811328765  0.9614451423046908
  0.4689344371711604  0.2617334583554282  0.9948757839256448
  0.5223146796723833  0.2475802404718539  0.5243291171904212
  0.5400922145257417  0.7364727735343928  0.0218366255449564
  0.4671380814941827  0.7549277299527822  0.4766267224555760
  0.9717344250387159  0.9670422241388590  0.2605954447667728
  0.0404660177271104  0.0339507077142318  0.7339154498424142
  0.9667743916118436  0.5288533287373406  0.2378272699079831
  0.0425589100485477  0.4699455736185740  0.7570503802844629
  0.5397757759721553  0.0181879806638360  0.2430457364769551
  0.4718040116204354  0.9813189921827506  0.7648625120998415
  0.4522743683795418  0.5252323325328099  0.7465373572631302
  0.2530365687999720  0.9583994448972571  0.0434371282480259
  0.2494165138839017  0.0386955500978047  0.4583771357732287
  0.2534678494378484  0.5417557493832416  0.0497459190134857
  0.7527901809693601  0.0413691017683250  0.9579330919168796
  0.7525805908001982  0.4598883975089423  0.9466344535656295
  0.9389484581090034  0.2519661027712550  0.4656374067019354
  0.0620052062649915  0.7479076010352375  0.5289449370223223
  0.5594164266996143  0.4787578623028648  0.2574657167014634
 
  0.00000000E+00  0.00000000E+00  0.00000000E+00
  0.00000000E+00  0.00000000E+00  0.00000000E+00
  0.00000000E+00  0.00000000E+00  0.00000000E+00
  0.00000000E+00  0.00000000E+00  0.00000000E+00
  0.00000000E+00  0.00000000E+00  0.00000000E+00
  0.00000000E+00  0.00000000E+00  0.00000000E+00
  0.00000000E+00  0.00000000E+00  0.00000000E+00
  0.00000000E+00  0.00000000E+00  0.00000000E+00
  0.00000000E+00  0.00000000E+00  0.00000000E+00
  0.00000000E+00  0.00000000E+00  0.00000000E+00
  0.00000000E+00  0.00000000E+00  0.00000000E+00
  0.00000000E+00  0.00000000E+00  0.00000000E+00
  0.00000000E+00  0.00000000E+00  0.00000000E+00
  0.00000000E+00  0.00000000E+00  0.00000000E+00
  0.00000000E+00  0.00000000E+00  0.00000000E+00
  0.00000000E+00  0.00000000E+00  0.00000000E+00
  0.00000000E+00  0.00000000E+00  0.00000000E+00
  0.00000000E+00  0.00000000E+00  0.00000000E+00
  0.00000000E+00  0.00000000E+00  0.00000000E+00
  0.00000000E+00  0.00000000E+00  0.00000000E+00
  0.00000000E+00  0.00000000E+00  0.00000000E+00
  0.00000000E+00  0.00000000E+00  0.00000000E+00
  0.00000000E+00  0.00000000E+00  0.00000000E+00
  0.00000000E+00  0.00000000E+00  0.00000000E+00
  0.00000000E+00  0.00000000E+00  0.00000000E+00
  0.00000000E+00  0.00000000E+00  0.00000000E+00
  0.00000000E+00  0.00000000E+00  0.00000000E+00
  0.00000000E+00  0.00000000E+00  0.00000000E+00
  0.00000000E+00  0.00000000E+00  0.00000000E+00
  0.00000000E+00  0.00000000E+00  0.00000000E+00
  0.00000000E+00  0.00000000E+00  0.00000000E+00
  0.00000000E+00  0.00000000E+00  0.00000000E+00
  0.00000000E+00  0.00000000E+00  0.00000000E+00
  0.00000000E+00  0.00000000E+00  0.00000000E+00
  0.00000000E+00  0.00000000E+00  0.00000000E+00
  0.00000000E+00  0.00000000E+00  0.00000000E+00
  0.00000000E+00  0.00000000E+00  0.00000000E+00
  0.00000000E+00  0.00000000E+00  0.00000000E+00
  0.00000000E+00  0.00000000E+00  0.00000000E+00
  0.00000000E+00  0.00000000E+00  0.00000000E+00
