Na4 V4 O8 F4                            
   1.00000000000000     
     5.3989437775738285    0.0005724917709971    0.0140040998351993
     0.0007176151520126    5.4221889142290856    0.0042126057323440
     0.0289277478743740   -0.0049923016692005    7.3239163781293133
   Na   V    O    F 
     4     4     8     4
Direct
  0.9998033150268424  0.0391566059432676  0.2519303980231072
  0.9903279885339029  0.9799493002750845  0.7502164960124860
  0.5009005437185321  0.4599510069257985  0.7519764716264473
  0.4900935668090635  0.5199869912889952  0.2498175511200710
  0.5255539729365463  0.0167933713066192  0.0039141753820553
  0.9646615944921079  0.5232143610356161  0.0048764533509102
  0.4645729167431932  0.9767215996285137  0.5049263478167190
  0.0256320857841976  0.4832407156280199  0.5038791693353744
  0.0466011544293187  0.4888467649291147  0.2551412631406080
  0.9439284323488885  0.5154453251429842  0.7420350460038584
  0.5465398701775084  0.0115825475356193  0.7551170608647750
  0.4437988687625748  0.9845615961127584  0.2420254451015625
  0.7109547962967740  0.3010886582750003  0.0283127091465241
  0.8119030234463516  0.8032394729112040  0.0266318071976189
  0.3122778203174953  0.6964636803559736  0.5268096342492589
  0.2105459014046219  0.1986670676259189  0.5281850280788832
  0.3015749863731986  0.6959943304630680  0.9687870248653110
  0.2044575018064958  0.2174478202870473  0.9681840875906714
  0.7041590122078537  0.2831501193288407  0.4682019649374594
  0.8017126483845332  0.8044986650005422  0.4690318661562849
 
  0.00000000E+00  0.00000000E+00  0.00000000E+00
  0.00000000E+00  0.00000000E+00  0.00000000E+00
  0.00000000E+00  0.00000000E+00  0.00000000E+00
  0.00000000E+00  0.00000000E+00  0.00000000E+00
  0.00000000E+00  0.00000000E+00  0.00000000E+00
  0.00000000E+00  0.00000000E+00  0.00000000E+00
  0.00000000E+00  0.00000000E+00  0.00000000E+00
  0.00000000E+00  0.00000000E+00  0.00000000E+00
  0.00000000E+00  0.00000000E+00  0.00000000E+00
  0.00000000E+00  0.00000000E+00  0.00000000E+00
  0.00000000E+00  0.00000000E+00  0.00000000E+00
  0.00000000E+00  0.00000000E+00  0.00000000E+00
  0.00000000E+00  0.00000000E+00  0.00000000E+00
  0.00000000E+00  0.00000000E+00  0.00000000E+00
  0.00000000E+00  0.00000000E+00  0.00000000E+00
  0.00000000E+00  0.00000000E+00  0.00000000E+00
  0.00000000E+00  0.00000000E+00  0.00000000E+00
  0.00000000E+00  0.00000000E+00  0.00000000E+00
  0.00000000E+00  0.00000000E+00  0.00000000E+00
  0.00000000E+00  0.00000000E+00  0.00000000E+00
