Ni4 O4 F8                               
   1.00000000000000     
     5.4172019338383572   -0.0485260757430044   -0.0017857629965044
    -2.7450699809426307    4.6398889841154940    0.0000306339563919
     0.0106404047533907   -0.0030477860113664    9.4902226001967360
   Ni   O    F 
     4     4     8
Direct
  0.3299742730579073  0.6683348935670868  0.6123089519306081
  0.6709394496624355  0.3328036377181080  0.3876177982565761
  0.6705345602110476  0.3327758005228048  0.1122451355800536
  0.3299600366906287  0.6677941923163080  0.8877940293332640
  0.4997196096550099 -0.0003270995829160 -0.0000027493834912
  0.9996900835462682  0.4997847014517894  0.9999856448858508
  0.4991609977427878  0.9990239694446197  0.5000003761689159
  0.9990507764989156  0.4990600417952693  0.5000150908811889
  0.4999330243863633  0.4999572112491029  0.0000198835094041
  0.4994828910172850  0.4994821328563310  0.4999914889396976
  0.8266184024150712  0.6391371196680797  0.2500301719929235
  0.1739711802381286  0.3614301345234911  0.7499171552078310
  0.3652174271585793  0.1754722622674108  0.2500748003431923
  0.6354444695714297  0.8249659544873145  0.7500204657727134
  0.8250601230148483  0.1774697054615408  0.2496788384187840
  0.1752426951332943  0.8228353422536658  0.7503029181624808
 
  0.00000000E+00  0.00000000E+00  0.00000000E+00
  0.00000000E+00  0.00000000E+00  0.00000000E+00
  0.00000000E+00  0.00000000E+00  0.00000000E+00
  0.00000000E+00  0.00000000E+00  0.00000000E+00
  0.00000000E+00  0.00000000E+00  0.00000000E+00
  0.00000000E+00  0.00000000E+00  0.00000000E+00
  0.00000000E+00  0.00000000E+00  0.00000000E+00
  0.00000000E+00  0.00000000E+00  0.00000000E+00
  0.00000000E+00  0.00000000E+00  0.00000000E+00
  0.00000000E+00  0.00000000E+00  0.00000000E+00
  0.00000000E+00  0.00000000E+00  0.00000000E+00
  0.00000000E+00  0.00000000E+00  0.00000000E+00
  0.00000000E+00  0.00000000E+00  0.00000000E+00
  0.00000000E+00  0.00000000E+00  0.00000000E+00
  0.00000000E+00  0.00000000E+00  0.00000000E+00
  0.00000000E+00  0.00000000E+00  0.00000000E+00
