Na4 Fe4 O8 F4                           
   1.00000000000000     
     5.4827137253235270   -0.0777380477459841   -0.0000012382827800
    -2.8086794762301879    4.7093007404011269    0.0000012300396981
    -0.0000020708098101    0.0000011776562685    9.2578202560528027
   Na   Fe   O    F 
     4     4     8     4
Direct
  0.0000094286039360  0.0000001622141421  0.9999977140942606
  0.0000016546482993  0.0000078477281022  0.4999987055964295
  0.3275195864895528  0.6724767924845384  0.2500001689089766
  0.6724766823977999  0.3275197203316655  0.7500001436167230
  0.3191382951998291  0.6808775718273841  0.6101520766433045
  0.6808772094818768  0.3191386799366858  0.3898478966702487
  0.6808773283587687  0.3191384445628115  0.1101524410495698
  0.3191384758687210  0.6808774431103185  0.8898483421671612
  0.4999849203295196  0.9999927056155045  0.9999950565027759
  0.9999930657695785  0.4999857216465268  0.0000051066201719
  0.4999851536954658  0.9999928270149552  0.5000052707521004
  0.9999930987832170  0.4999854944962882  0.4999953564314707
  0.8420925759075758  0.6023060658674044  0.2500001639561665
  0.1578115710408945  0.3977374525752991  0.7500002013034557
  0.3977374384839108  0.1578118807778840  0.2500002021521798
  0.6023060690633036  0.8420929255343241  0.7500002062165585
  0.4999841671154508  0.4999842602719441  0.0000001243660502
  0.4999839845782392  0.4999842432495363  0.5000002634649684
  0.8600364791766577  0.1400530616074453  0.2500003698373708
  0.1400528150074032  0.8600366991472399  0.7500001896500502
 
  0.00000000E+00  0.00000000E+00  0.00000000E+00
  0.00000000E+00  0.00000000E+00  0.00000000E+00
  0.00000000E+00  0.00000000E+00  0.00000000E+00
  0.00000000E+00  0.00000000E+00  0.00000000E+00
  0.00000000E+00  0.00000000E+00  0.00000000E+00
  0.00000000E+00  0.00000000E+00  0.00000000E+00
  0.00000000E+00  0.00000000E+00  0.00000000E+00
  0.00000000E+00  0.00000000E+00  0.00000000E+00
  0.00000000E+00  0.00000000E+00  0.00000000E+00
  0.00000000E+00  0.00000000E+00  0.00000000E+00
  0.00000000E+00  0.00000000E+00  0.00000000E+00
  0.00000000E+00  0.00000000E+00  0.00000000E+00
  0.00000000E+00  0.00000000E+00  0.00000000E+00
  0.00000000E+00  0.00000000E+00  0.00000000E+00
  0.00000000E+00  0.00000000E+00  0.00000000E+00
  0.00000000E+00  0.00000000E+00  0.00000000E+00
  0.00000000E+00  0.00000000E+00  0.00000000E+00
  0.00000000E+00  0.00000000E+00  0.00000000E+00
  0.00000000E+00  0.00000000E+00  0.00000000E+00
  0.00000000E+00  0.00000000E+00  0.00000000E+00
