Cr4 O4 F8                               
   1.00000000000000     
     5.4004070124802501   -0.0324741626112153    0.0448473799791798
    -2.7288415306614087    4.6578106442601550    0.0405266591742064
     0.0455599861368919    0.0727772020274165    9.1119532218883510
   Cr   O    F 
     4     4     8
Direct
  0.3466896817992023  0.6704571619333278  0.6052742441299094
  0.6349770019268003  0.3197748062343144  0.4057608621529470
  0.6727424080275599  0.3496791903114480  0.1053370318665593
  0.3212506062556346  0.6359049057350463  0.9057493793369413
  0.0046983547124867  0.5089238108216243  0.9919086054502345
  0.5067299027119827  0.5135066230594629  0.9932095382251289
  0.5065653846836934  0.0022463386969142  0.4912081844689772
  0.5115533493476458  0.5046125601428244  0.4933181158915713
  0.4957466177815137  0.9969473283342288  0.0012199539933375
  0.9945114924405132  0.4931930896803124  0.5019302138098157
  0.8159038714363092  0.6360254707242595  0.2487157280474050
  0.1863996125262580  0.3584899732150182  0.7548596916903385
  0.3593082573558614  0.1867834844975255  0.2543765218402206
  0.6350673727225763  0.8154362659298833  0.7476653928878404
  0.8116323963792783  0.1964884676916081  0.2496360288540876
  0.1962236898926842  0.8115305229922014  0.7498305073546855
 
  0.00000000E+00  0.00000000E+00  0.00000000E+00
  0.00000000E+00  0.00000000E+00  0.00000000E+00
  0.00000000E+00  0.00000000E+00  0.00000000E+00
  0.00000000E+00  0.00000000E+00  0.00000000E+00
  0.00000000E+00  0.00000000E+00  0.00000000E+00
  0.00000000E+00  0.00000000E+00  0.00000000E+00
  0.00000000E+00  0.00000000E+00  0.00000000E+00
  0.00000000E+00  0.00000000E+00  0.00000000E+00
  0.00000000E+00  0.00000000E+00  0.00000000E+00
  0.00000000E+00  0.00000000E+00  0.00000000E+00
  0.00000000E+00  0.00000000E+00  0.00000000E+00
  0.00000000E+00  0.00000000E+00  0.00000000E+00
  0.00000000E+00  0.00000000E+00  0.00000000E+00
  0.00000000E+00  0.00000000E+00  0.00000000E+00
  0.00000000E+00  0.00000000E+00  0.00000000E+00
  0.00000000E+00  0.00000000E+00  0.00000000E+00
