Na4 Mn4 O8 F4                           
   1.00000000000000     
     5.3400857827861827    0.0592921973045943   -0.0000000459751390
    -2.6186938672352356    4.6542965358454476   -0.0000000242981176
    -0.0000000489085824    0.0000000029844277    9.1103312988801299
   Na   Mn   O    F 
     4     4     8     4
Direct
  0.9999946492388361  0.9999883578890802  0.9999793203386318
  0.9999908607407590  0.9999921494598141  0.5000007984756323
  0.3051334789418476  0.6948508090003500  0.2500010953550529
  0.6948505192424577  0.3051337767476738  0.7500010929451122
  0.3278315911874898  0.6721998411119259  0.6119110126144349
  0.6721992895632596  0.3278321728354641  0.3880907660080908
  0.6721997978538141  0.3278316591568000  0.1119112024037747
  0.3278321047400610  0.6721993311746388  0.8880909587329100
  0.5003603716567184  0.9999997414031512  0.9999971619889862
  0.9999993925885349  0.5003612131987651  0.0000041856449968
  0.5003604513878344  0.9999994655095605  0.5000047526898541
  0.9999996577326513  0.5003611460927928  0.4999977348419549
  0.8212508523456208  0.6201006394452335  0.2500011772939885
  0.1783184637081021  0.3799169417459822  0.7500011803286313
  0.3799172366415533  0.1783190666069814  0.2500011743551056
  0.6201009186930762  0.8212514363316927  0.7500011820613466
  0.4995821470877289  0.4995825686347857  0.0000011690498098
  0.4995821876024777  0.4995824953566128  0.5000014285152758
  0.8347430526319002  0.1657536399485622  0.2500013086460626
  0.1657529764152841  0.8347435483501400  0.7500012977103481
 
  0.00000000E+00  0.00000000E+00  0.00000000E+00
  0.00000000E+00  0.00000000E+00  0.00000000E+00
  0.00000000E+00  0.00000000E+00  0.00000000E+00
  0.00000000E+00  0.00000000E+00  0.00000000E+00
  0.00000000E+00  0.00000000E+00  0.00000000E+00
  0.00000000E+00  0.00000000E+00  0.00000000E+00
  0.00000000E+00  0.00000000E+00  0.00000000E+00
  0.00000000E+00  0.00000000E+00  0.00000000E+00
  0.00000000E+00  0.00000000E+00  0.00000000E+00
  0.00000000E+00  0.00000000E+00  0.00000000E+00
  0.00000000E+00  0.00000000E+00  0.00000000E+00
  0.00000000E+00  0.00000000E+00  0.00000000E+00
  0.00000000E+00  0.00000000E+00  0.00000000E+00
  0.00000000E+00  0.00000000E+00  0.00000000E+00
  0.00000000E+00  0.00000000E+00  0.00000000E+00
  0.00000000E+00  0.00000000E+00  0.00000000E+00
  0.00000000E+00  0.00000000E+00  0.00000000E+00
  0.00000000E+00  0.00000000E+00  0.00000000E+00
  0.00000000E+00  0.00000000E+00  0.00000000E+00
  0.00000000E+00  0.00000000E+00  0.00000000E+00
