Mn4 O4 F8                               
   1.00000000000000     
     4.8424914490413213    0.0000001092996727    0.0170576289208380
     0.0000001122465379    5.0998619354751078   -0.0000004533641008
     0.0150069078710340   -0.0000005077022978    6.9855493787970628
   Mn   O    F 
     4     4     8
Direct
  0.4869064801274867  0.9879477541177496  0.9875928332267462
  0.0131211268113613  0.5128422344501687  0.0128973398688224
  0.5131209936963606  0.9871574805534241  0.5128975723066775
  0.9869064266342350  0.5120519494989267  0.4875925816098857
  0.3133024890507281  0.6896021635768802  0.9346917570500793
  0.8133021943766439  0.8103978778544466  0.4346917428927821
  0.1267310649777611  0.4700733984183815  0.2520894043871443
  0.6267308170131159  0.0299274581643932  0.7520894295886009
  0.6889758056027316  0.3031838065589118  0.0591928425389249
  0.1788776729695269  0.1894825991434634  0.9395928416976377
  0.8124076368137080  0.8099293521132457  0.0636405298190865
  0.3124073564669567  0.6900704428094435  0.5636406923672965
  0.6788765395455905  0.3105179081742788  0.4395934662375581
  0.1889745909091033  0.1968152235694128  0.5591921938778227
  0.8796795049112586  0.5256789992380337  0.7503023788817007
  0.3796793000934249  0.9743213517588537  0.2503023936492415
 
  0.00000000E+00  0.00000000E+00  0.00000000E+00
  0.00000000E+00  0.00000000E+00  0.00000000E+00
  0.00000000E+00  0.00000000E+00  0.00000000E+00
  0.00000000E+00  0.00000000E+00  0.00000000E+00
  0.00000000E+00  0.00000000E+00  0.00000000E+00
  0.00000000E+00  0.00000000E+00  0.00000000E+00
  0.00000000E+00  0.00000000E+00  0.00000000E+00
  0.00000000E+00  0.00000000E+00  0.00000000E+00
  0.00000000E+00  0.00000000E+00  0.00000000E+00
  0.00000000E+00  0.00000000E+00  0.00000000E+00
  0.00000000E+00  0.00000000E+00  0.00000000E+00
  0.00000000E+00  0.00000000E+00  0.00000000E+00
  0.00000000E+00  0.00000000E+00  0.00000000E+00
  0.00000000E+00  0.00000000E+00  0.00000000E+00
  0.00000000E+00  0.00000000E+00  0.00000000E+00
  0.00000000E+00  0.00000000E+00  0.00000000E+00
