Na4 Cr4 O8 F4                           
   1.00000000000000     
     5.1371588978322249    0.0010333784397419   -0.0148098616560552
    -0.0004385461690481    5.2569030272448787    0.0080309211480802
    -0.0171274824381415   -0.0087607286449096    7.6844135302923133
   Na   Cr   O    F 
     4     4     8     4
Direct
  0.9866767728987873  0.0370854943009929  0.2524554919375592
  0.0117858199249945  0.9544722196509251  0.7424901675931723
  0.4866551768565661  0.4622151329561282  0.7502632442359877
  0.5125964520031716  0.5462739198895240  0.2412964929835745
  0.4915707168777960  0.0135850210234640  0.0119184177877692
  0.0124858000294849  0.4765397005374645  0.9720889906798262
  0.5120453531279533  0.0234512613875261  0.4721364764289286
  0.9914607663084237  0.4864807644631288  0.5119078845871203
  0.9182408763764627  0.5159659009737564  0.7535955842595119
  0.4181769227427070  0.9841457883323087  0.2536206441601603
  0.7325194864107376  0.3048595861521344  0.0407396974207509
  0.2639362516394435  0.7071588080604373  0.9772154758538665
  0.2109618132378771  0.2140973492991272  0.9405276494511721
  0.7100120074575534  0.2863622763456484  0.4410891751666802
  0.7637563479471260  0.7930483648064484  0.4772892576697607
  0.2316610128928323  0.1944710143043449  0.5406978694804304
  0.0854443632641901  0.4861788446788780  0.2613897122609638
  0.5852271429294771  0.0136475746359484  0.7611731350198994
  0.7873970196248409  0.7940030753003534  0.0492427839168351
  0.2873898974495682  0.7059579029014607  0.5488618491060312
 
  0.00000000E+00  0.00000000E+00  0.00000000E+00
  0.00000000E+00  0.00000000E+00  0.00000000E+00
  0.00000000E+00  0.00000000E+00  0.00000000E+00
  0.00000000E+00  0.00000000E+00  0.00000000E+00
  0.00000000E+00  0.00000000E+00  0.00000000E+00
  0.00000000E+00  0.00000000E+00  0.00000000E+00
  0.00000000E+00  0.00000000E+00  0.00000000E+00
  0.00000000E+00  0.00000000E+00  0.00000000E+00
  0.00000000E+00  0.00000000E+00  0.00000000E+00
  0.00000000E+00  0.00000000E+00  0.00000000E+00
  0.00000000E+00  0.00000000E+00  0.00000000E+00
  0.00000000E+00  0.00000000E+00  0.00000000E+00
  0.00000000E+00  0.00000000E+00  0.00000000E+00
  0.00000000E+00  0.00000000E+00  0.00000000E+00
  0.00000000E+00  0.00000000E+00  0.00000000E+00
  0.00000000E+00  0.00000000E+00  0.00000000E+00
  0.00000000E+00  0.00000000E+00  0.00000000E+00
  0.00000000E+00  0.00000000E+00  0.00000000E+00
  0.00000000E+00  0.00000000E+00  0.00000000E+00
  0.00000000E+00  0.00000000E+00  0.00000000E+00
