Cr4 O4 F8                               
   1.00000000000000     
     5.3987974317432554    0.0219230527902130   -0.0005277804810337
    -2.6804074193699283    4.6864518784360625   -0.0004714630374488
     0.0009249479000515    0.0017178016631057    9.1755511872183373
   Cr   O    F 
     4     4     8
Direct
  0.3458322134599405  0.6539917579539768  0.6066154006017027
  0.6596890561755318  0.3403036855685143  0.3910408312743991
  0.6539873936672790  0.3458253582697698  0.1066141402688734
  0.3402986071500866  0.6596853647154681  0.8910452942411203
  0.4954100150931876  0.5041474121288952  0.9966940291513494
  0.5041438382693936  0.4954147857168525  0.4966956405901905
  0.7902649946270972  0.2100288760360450  0.2549079153029045
  0.2100353356913303  0.7902656471470776  0.7549013492845623
  0.5007361679831709  0.9995523414855425  0.0007984080609594
  0.0006791664494588  0.5003971843174557  0.0011107397155842
  0.5003941363202452  0.0006805646985223  0.5011142772068393
  0.9995516920447873  0.5007445791412676  0.5008034470800488
  0.7959010098095628  0.6497605305540564  0.2494057197154519
  0.2033261353221765  0.3499880839722649  0.7494235520120890
  0.3499869455626635  0.2033208718017188  0.2494167298127375
  0.6497632923740889  0.7958929564925866  0.7494125256811950
 
  0.00000000E+00  0.00000000E+00  0.00000000E+00
  0.00000000E+00  0.00000000E+00  0.00000000E+00
  0.00000000E+00  0.00000000E+00  0.00000000E+00
  0.00000000E+00  0.00000000E+00  0.00000000E+00
  0.00000000E+00  0.00000000E+00  0.00000000E+00
  0.00000000E+00  0.00000000E+00  0.00000000E+00
  0.00000000E+00  0.00000000E+00  0.00000000E+00
  0.00000000E+00  0.00000000E+00  0.00000000E+00
  0.00000000E+00  0.00000000E+00  0.00000000E+00
  0.00000000E+00  0.00000000E+00  0.00000000E+00
  0.00000000E+00  0.00000000E+00  0.00000000E+00
  0.00000000E+00  0.00000000E+00  0.00000000E+00
  0.00000000E+00  0.00000000E+00  0.00000000E+00
  0.00000000E+00  0.00000000E+00  0.00000000E+00
  0.00000000E+00  0.00000000E+00  0.00000000E+00
  0.00000000E+00  0.00000000E+00  0.00000000E+00
