Na4 Mn4 O8 F4                           
   1.00000000000000     
     5.3508589350493425   -0.0438799187919885    0.0440662279490785
    -2.6671671948500659    4.6496209562736777   -0.0711152205367792
    -0.1248216388180578    0.0562158968036266    8.9460874427247443
   Na   Mn   O    F 
     4     4     8     4
Direct
  0.9753877952278864  0.0182911022881333  0.9710129951603783
  0.0170418957018688  0.9573417968226067  0.4821381670217501
  0.3007616562734479  0.6417386161415990  0.2579367950421342
  0.6972291517600805  0.3305414781661225  0.7606176565852062
  0.3486255285326174  0.6393550348822901  0.6177935629416768
  0.7073995191942233  0.2774490121296098  0.3918210261737413
  0.6510752074231023  0.3617851823040847  0.0991143474930112
  0.3297471925396671  0.6939509607788785  0.9058621115298422
  0.4347885427229367  0.0689977336076940  0.9773642506498367
  0.9585533620227416  0.5575792163762824  0.9838977178178827
  0.4950645283753187  0.5936447672948805  0.0465635393600037
  0.5040649620065361  0.9224538133191990  0.4665390006359970
  0.0431525628898668  0.3915033968316250  0.4844790226509426
  0.1907870010949322  0.3838103274483051  0.7745204471621524
  0.6195902803263597  0.8536063187118195  0.7623286939679028
  0.7987391007855092  0.1772878585188896  0.2166477440957046
  0.5706194639029850  0.4651985491959820  0.5481701010066381
  0.8527165494452675  0.6463081816108784  0.2861992631878300
  0.3652653413430875  0.2155553399284189  0.2741908364051028
  0.1393903584315653  0.8036013136427006  0.6928027211122597
 
  0.00000000E+00  0.00000000E+00  0.00000000E+00
  0.00000000E+00  0.00000000E+00  0.00000000E+00
  0.00000000E+00  0.00000000E+00  0.00000000E+00
  0.00000000E+00  0.00000000E+00  0.00000000E+00
  0.00000000E+00  0.00000000E+00  0.00000000E+00
  0.00000000E+00  0.00000000E+00  0.00000000E+00
  0.00000000E+00  0.00000000E+00  0.00000000E+00
  0.00000000E+00  0.00000000E+00  0.00000000E+00
  0.00000000E+00  0.00000000E+00  0.00000000E+00
  0.00000000E+00  0.00000000E+00  0.00000000E+00
  0.00000000E+00  0.00000000E+00  0.00000000E+00
  0.00000000E+00  0.00000000E+00  0.00000000E+00
  0.00000000E+00  0.00000000E+00  0.00000000E+00
  0.00000000E+00  0.00000000E+00  0.00000000E+00
  0.00000000E+00  0.00000000E+00  0.00000000E+00
  0.00000000E+00  0.00000000E+00  0.00000000E+00
  0.00000000E+00  0.00000000E+00  0.00000000E+00
  0.00000000E+00  0.00000000E+00  0.00000000E+00
  0.00000000E+00  0.00000000E+00  0.00000000E+00
  0.00000000E+00  0.00000000E+00  0.00000000E+00
