Na8 Mn8 O16 F8                          
   1.00000000000000     
     7.6898343146446848   -0.0000002929114347    0.0000025430914329
    -0.0000000173629712    7.4625861940990905    0.0000000984316617
     0.0000024820056446    0.0000000729026838    7.3482954860597172
   Na   Mn   O    F 
     8     8    16     8
Direct
  0.2477078937682302  0.2500000218585911  0.2469013389329208
  0.2477082658213776  0.2500000313697002  0.7530990265812614
  0.2504926065997014  0.7499996946185854  0.2476944360992869
  0.2504822579794716  0.7499995214186722  0.7523074285110543
  0.7559475985152168  0.2500000479233345  0.2561934709687960
  0.7559479415663913  0.2500000613111998  0.7438064473078965
  0.7445136361837307  0.7499999936988350  0.2559712716178109
  0.7445126272507163  0.7499999971613310  0.7440278602232264
  0.9855285110585579  0.9883124044022392  0.0000000667609280
 -0.0000144739126812  0.9990161441352644  0.5000000089387944
  0.9855284320997357  0.5116876130986200  0.0000002438536384
 -0.0000142973325174  0.5009837103008420  0.4999999168510934
  0.5143781650621372  0.0117292432943374  0.0000000589039004
  0.5000331087532591  0.0013505764698166  0.5000000900141000
  0.5143780955486424  0.4882706946304594 -0.0000001023707818
  0.5000331352418347  0.4986493881279108  0.5000001446172273
  0.7498962609716794  0.0005053474301949  0.9999999199130042
  0.7498961177878146  0.4994947097646754  0.9999998873538168
  0.9952804451585702  0.2499997083958131  0.4999999333711426
  0.0167815847461309  0.7500001047197867  0.0000002035164427
  0.9949845791710864  0.7500002936627870  0.5000000408635393
  0.4825819213701059  0.2499999316858134  0.9999999037104145
  0.5055780238522628  0.2500000856245972  0.5000000014068111
  0.5051372265639169  0.7499999669341421  0.4999995132972470
  0.0066063333308580  0.0084305725841913  0.2480109214164153
  0.0066062493468941  0.0084302319221655  0.7519891208027929
  0.0066064811637646  0.4915696236608392  0.2480107553556946
  0.0066064366959097  0.4915699699090189  0.7519893239841908
  0.4935721218651370  0.9913025431287046  0.2485124457983180
  0.4935722139298064  0.9913025728001291  0.7514875909660135
  0.4935720646492178  0.5086975290995639  0.2485124350162388
  0.4935721516935878  0.5086974942372064  0.7514875726057750
  0.2503864947187066  0.9996719007824835  0.9999998047878506
  0.2523549750408122  0.0001923655126529  0.5000000309102273
  0.2503865562577149  0.5003282358413369  0.9999998342544886
  0.2523561986358155  0.4998076304672973  0.5000000235770694
  0.7477374909463246  0.0001939737815776  0.4999995945473740
  0.7477363804350676  0.4998060513667136  0.4999995844236041
  0.0064253163752506  0.2499999822241388  0.9999997759607782
  0.4946028710897677  0.7500000306444385  0.0000000743495975
 
  0.00000000E+00  0.00000000E+00  0.00000000E+00
  0.00000000E+00  0.00000000E+00  0.00000000E+00
  0.00000000E+00  0.00000000E+00  0.00000000E+00
  0.00000000E+00  0.00000000E+00  0.00000000E+00
  0.00000000E+00  0.00000000E+00  0.00000000E+00
  0.00000000E+00  0.00000000E+00  0.00000000E+00
  0.00000000E+00  0.00000000E+00  0.00000000E+00
  0.00000000E+00  0.00000000E+00  0.00000000E+00
  0.00000000E+00  0.00000000E+00  0.00000000E+00
  0.00000000E+00  0.00000000E+00  0.00000000E+00
  0.00000000E+00  0.00000000E+00  0.00000000E+00
  0.00000000E+00  0.00000000E+00  0.00000000E+00
  0.00000000E+00  0.00000000E+00  0.00000000E+00
  0.00000000E+00  0.00000000E+00  0.00000000E+00
  0.00000000E+00  0.00000000E+00  0.00000000E+00
  0.00000000E+00  0.00000000E+00  0.00000000E+00
  0.00000000E+00  0.00000000E+00  0.00000000E+00
  0.00000000E+00  0.00000000E+00  0.00000000E+00
  0.00000000E+00  0.00000000E+00  0.00000000E+00
  0.00000000E+00  0.00000000E+00  0.00000000E+00
  0.00000000E+00  0.00000000E+00  0.00000000E+00
  0.00000000E+00  0.00000000E+00  0.00000000E+00
  0.00000000E+00  0.00000000E+00  0.00000000E+00
  0.00000000E+00  0.00000000E+00  0.00000000E+00
  0.00000000E+00  0.00000000E+00  0.00000000E+00
  0.00000000E+00  0.00000000E+00  0.00000000E+00
  0.00000000E+00  0.00000000E+00  0.00000000E+00
  0.00000000E+00  0.00000000E+00  0.00000000E+00
  0.00000000E+00  0.00000000E+00  0.00000000E+00
  0.00000000E+00  0.00000000E+00  0.00000000E+00
  0.00000000E+00  0.00000000E+00  0.00000000E+00
  0.00000000E+00  0.00000000E+00  0.00000000E+00
  0.00000000E+00  0.00000000E+00  0.00000000E+00
  0.00000000E+00  0.00000000E+00  0.00000000E+00
  0.00000000E+00  0.00000000E+00  0.00000000E+00
  0.00000000E+00  0.00000000E+00  0.00000000E+00
  0.00000000E+00  0.00000000E+00  0.00000000E+00
  0.00000000E+00  0.00000000E+00  0.00000000E+00
  0.00000000E+00  0.00000000E+00  0.00000000E+00
  0.00000000E+00  0.00000000E+00  0.00000000E+00
