Ti8 O8 F16                              
   1.00000000000000     
     7.7210340047466328    0.0000449817948966   -0.0001389083088166
     0.0000446195620623    7.6674914193529737   -0.0000462906166170
    -0.0005071279871378   -0.0000459544228822    7.7209787024996741
   Ti   O    F 
     8     8    16
Direct
  0.9969099809442241  0.0000033229072542  0.9708272190725253
  0.9960761253087682  0.0000010383492679  0.4729397915317932
  0.0188846592074370  0.5000036347721704  0.0040622545494955
  0.0270253988152831  0.5000010907800245  0.5039503840122990
  0.4976425912593285  0.9998452766934207  0.0039614687287539
  0.4959545409193140  0.0000040360575824  0.4811196771214199
  0.4960633432434065  0.4998440739319818  0.0023037991804316
  0.5291104471180148  0.5000035926209208  0.5030657292394807
  0.9981716448731532  0.0000013532821299  0.2500894435166288
  0.9981436987850856  0.0000006405196018  0.7476739465605533
  0.4972808235405921  0.0000106693385575  0.2572432246782199
  0.2427467260479403  0.5000105433362236  0.0027744575109452
  0.2499226000953811  0.5000006254963267  0.5018697347248207
  0.7523445020248190  0.5000006498956964  0.5018941312714347
  0.4991315820452513  0.2500757377406515  0.0008491153083341
  0.4991289222820612  0.7500712528097679  0.0008476605464338
  0.9946754989814366  0.5000009993917374  0.2525553075562570
  0.9950451066216530  0.5000008575426236  0.7546274398745965
  0.4977182279015508  0.0000152156463429  0.7449515443014079
  0.5010055477529960  0.5000171265550932  0.2557243760994012
  0.5004999961897667  0.5000178332739367  0.7496306266783108
  0.2442652069176319  0.0000170554938492  0.9989913628011351
  0.2474859370374105  0.0000009908280134  0.5053042777629102
  0.7503454180803644  0.0000189915667477  0.9994602231514449
  0.7454099776515477  0.0000008904400772  0.5049826512936235
  0.7550294230467784  0.5000152573554288  0.0023071758312554
  0.9917594801148795  0.2513823192000615  0.0023630964038830
  0.9975632830444781  0.2499999686193206  0.5024069659980483
  0.9917594290202842  0.7486252001377167  0.0023616643498485
  0.9975631091310007  0.7500024542445800  0.5024067867999449
  0.4976689476961056  0.2486211227823958  0.5082280011784874
  0.4976678243020558  0.7513861783904972  0.5082264623658759
 
  0.00000000E+00  0.00000000E+00  0.00000000E+00
  0.00000000E+00  0.00000000E+00  0.00000000E+00
  0.00000000E+00  0.00000000E+00  0.00000000E+00
  0.00000000E+00  0.00000000E+00  0.00000000E+00
  0.00000000E+00  0.00000000E+00  0.00000000E+00
  0.00000000E+00  0.00000000E+00  0.00000000E+00
  0.00000000E+00  0.00000000E+00  0.00000000E+00
  0.00000000E+00  0.00000000E+00  0.00000000E+00
  0.00000000E+00  0.00000000E+00  0.00000000E+00
  0.00000000E+00  0.00000000E+00  0.00000000E+00
  0.00000000E+00  0.00000000E+00  0.00000000E+00
  0.00000000E+00  0.00000000E+00  0.00000000E+00
  0.00000000E+00  0.00000000E+00  0.00000000E+00
  0.00000000E+00  0.00000000E+00  0.00000000E+00
  0.00000000E+00  0.00000000E+00  0.00000000E+00
  0.00000000E+00  0.00000000E+00  0.00000000E+00
  0.00000000E+00  0.00000000E+00  0.00000000E+00
  0.00000000E+00  0.00000000E+00  0.00000000E+00
  0.00000000E+00  0.00000000E+00  0.00000000E+00
  0.00000000E+00  0.00000000E+00  0.00000000E+00
  0.00000000E+00  0.00000000E+00  0.00000000E+00
  0.00000000E+00  0.00000000E+00  0.00000000E+00
  0.00000000E+00  0.00000000E+00  0.00000000E+00
  0.00000000E+00  0.00000000E+00  0.00000000E+00
  0.00000000E+00  0.00000000E+00  0.00000000E+00
  0.00000000E+00  0.00000000E+00  0.00000000E+00
  0.00000000E+00  0.00000000E+00  0.00000000E+00
  0.00000000E+00  0.00000000E+00  0.00000000E+00
  0.00000000E+00  0.00000000E+00  0.00000000E+00
  0.00000000E+00  0.00000000E+00  0.00000000E+00
  0.00000000E+00  0.00000000E+00  0.00000000E+00
  0.00000000E+00  0.00000000E+00  0.00000000E+00
