Iron(II/III) oxide (5/7)                
   1.00000000000000     
     9.6284676858997891    0.0072019436328086    0.0287016526735794
     0.0023947097936910    2.8701021649614233   -0.0053572375847055
    -2.2991487301437310   -0.0280393863252539    8.4133989669451239
   Fe   O 
    10    14
Direct
  0.3029726116975172  0.0002258263707869  0.1862900091914788
  0.6965382835397206  0.9934352648715630  0.8160098749192833
  0.8049200231366959  0.4985501344676014  0.1903181960844964
  0.1968177282476818  0.4989478270616060  0.8138264178881173
 -0.0001879278214833  0.9971179210492490  0.9990212454453238
  0.5004489400658532  0.4987725308866389  0.0013175228229313
  0.1095636757308680  0.9978988127673469  0.4156351578312913
  0.8900860936326975  0.0050312254683896  0.5834555723575191
  0.6095337107990793  0.5042009237806664  0.4166197036405953
  0.3901834792630725  0.5045137126854633  0.5833984570811960
  0.0418292355103945  0.9992262576668330  0.7860303567914977
  0.9594412531459070  0.9987940669379677  0.2124496693451630
  0.5423714443982856  0.4956284655551427  0.7871456252653879
  0.4582102543249473  0.5001617266111328  0.2133565161445041
  0.2608190366290938  0.0052233398458984  0.6380288150398520
  0.7389028821475400  0.0018278887544628  0.3620019578071487
  0.7609412512107108  0.5080680438804531  0.6382217902589847
  0.2388397495445975  0.4969955567808230  0.3615560274183542
  0.3455203462799846  0.9977915399426748  0.9477038472903470
  0.6545498847713862 -0.0015660119833588  0.0515895347050504
  0.8446826934753978  0.4955360565659921  0.9467308745827314
  0.1543232496706436  0.4994384640122949  0.0508472535911269
  0.4996939677748627  0.0030441140098334  0.5000586124281307
 -0.0010018631754612  0.5011363120105233  0.4983870200694944
 
  0.00000000E+00  0.00000000E+00  0.00000000E+00
  0.00000000E+00  0.00000000E+00  0.00000000E+00
  0.00000000E+00  0.00000000E+00  0.00000000E+00
  0.00000000E+00  0.00000000E+00  0.00000000E+00
  0.00000000E+00  0.00000000E+00  0.00000000E+00
  0.00000000E+00  0.00000000E+00  0.00000000E+00
  0.00000000E+00  0.00000000E+00  0.00000000E+00
  0.00000000E+00  0.00000000E+00  0.00000000E+00
  0.00000000E+00  0.00000000E+00  0.00000000E+00
  0.00000000E+00  0.00000000E+00  0.00000000E+00
  0.00000000E+00  0.00000000E+00  0.00000000E+00
  0.00000000E+00  0.00000000E+00  0.00000000E+00
  0.00000000E+00  0.00000000E+00  0.00000000E+00
  0.00000000E+00  0.00000000E+00  0.00000000E+00
  0.00000000E+00  0.00000000E+00  0.00000000E+00
  0.00000000E+00  0.00000000E+00  0.00000000E+00
  0.00000000E+00  0.00000000E+00  0.00000000E+00
  0.00000000E+00  0.00000000E+00  0.00000000E+00
  0.00000000E+00  0.00000000E+00  0.00000000E+00
  0.00000000E+00  0.00000000E+00  0.00000000E+00
  0.00000000E+00  0.00000000E+00  0.00000000E+00
  0.00000000E+00  0.00000000E+00  0.00000000E+00
  0.00000000E+00  0.00000000E+00  0.00000000E+00
  0.00000000E+00  0.00000000E+00  0.00000000E+00
