Ti36 O68                                
   1.00000000000000     
     4.6866229136170858    0.0063522157566392    3.0374450933605543
    -4.5762776193743031    4.7067460617066716    2.9036601486282980
    -0.0082323927055800   -0.0395390675767969   50.8247079603059930
   Ti   O 
    36    68
Direct
  0.9977792578061968  0.9994684822077315  0.0002587198398263
  0.4971614112881335  0.4987866143119280  0.5003999477619252
  0.9914391775594392  0.9936253554305760  0.9423292281021245
  0.0188339621087222  0.0148653236616144  0.0564488719101585
  0.4853071877358063  0.4882913264247230  0.4426397140207987
  0.5102968316089047  0.5084296304834862  0.5580354113782006
  0.9616958893041713  0.9743486963189764  0.8863163012626389
  0.0442073163406448  0.0332720164365621  0.1132951398909191
  0.4562025907659303  0.4727764668454412  0.3867125345641491
  0.5393128406484274  0.5256983158443220  0.6140307586458853
  0.9392013209551414  0.9509430312710117  0.8296708601009078
  0.0612859372504590  0.0537350656565101  0.1701746656358346
  0.4389311239693015  0.4513599980663413  0.3297030233697715
  0.5583581815326836  0.5466531704194436  0.6710333642858848
  0.9054377266119219  0.9512876413974763  0.7711461947276809
  0.0909694977688842  0.0414089096607741  0.2293130021044871
  0.4030751349818438  0.4479995054099586  0.2713780892508783
  0.5879305829819427  0.5440315454891981  0.7298916481787984
  0.0075488570240786  0.5034872156262475  0.9988520920009507
  0.4948492947415421  0.9979504182507078  0.5006275140791884
  0.9786925722821062  0.4882220116327277  0.9426403294848144
  0.0319401673990828  0.5208461856105054  0.0552544511870106
  0.4747371317897631  0.9851480751283109  0.4432840295315083
  0.5191285482750833  0.0111533927054593  0.5575934744226829
  0.9560736419507369  0.4713514635254047  0.8857131920325269
  0.0462529344093710  0.5316388979536977  0.1130660724230792
  0.4574693134173735  0.9728322313297921  0.3858969310246135
  0.5323250076689581  0.0216031845680908  0.6154106485627414
  0.9459889047002604  0.4544233353720042  0.8289022346714147
  0.0588035342011074  0.5503389555946845  0.1707803384923171
  0.4440478976665692  0.9539800168366389  0.3289891259180426
  0.5532168487772854  0.0456412938861003  0.6714483622875775
  0.9001206550659940  0.4516879114365129  0.7707233630222672
  0.0989584435632265  0.5437141475871294  0.2285002177662925
  0.3982467560114872  0.9490340749718945  0.2707503061716491
  0.5972678216322141  0.0454838028732663  0.7288711545937937
  0.0025713663566566  0.3074879079953020  0.9816649452470765
  0.9892642572859275  0.6875853210398647  0.0193668188468239
  0.5033812599186973  0.8065043685565959  0.4814079367518679
  0.4989564614222166  0.1961636949732821  0.5182440828506170
  0.9924359317737635  0.2972593737057014  0.9238458845418827
  0.0018161200745943  0.6991527979013323  0.0773725271896576
  0.4937149292990434  0.7972792588038757  0.4237763566432073
  0.5088586151999386  0.2051841291924255  0.5758378177286202
  0.9945776565614767  0.2856467387907509  0.8668775139308725
  0.0073066694501830  0.7069613743558574  0.1355778644659762
  0.4869491093945706  0.7834251263522252  0.3676076093675020
  0.5207719416039107  0.2220167495790058  0.6315605478525423
  0.0788019794148292  0.3239190401227987  0.7956327357605018
  0.9362078625961197  0.6768791019551450  0.2016019027381579
  0.5780167674078719  0.8235046836087898  0.2954660849211098
  0.4277896484267557  0.1807221607781154  0.7033036712369315
  0.9850968156922082  0.6854947718078429  0.9608891716309561
  0.0054629146123493  0.3082122909061495  0.0406899772616886
  0.4882838291916354  0.1874113374075740  0.4602641192839447
  0.5138396181009718  0.8149494364835065  0.5393716808803866
  0.9560748900628352  0.6669905886795088  0.9043026516295912
  0.0397178401331787  0.3296308578355784  0.0966772460422617
  0.4606625347985977  0.1699216804094753  0.4038067155002599
  0.5434317563186496  0.8332948961698294  0.5956540369998470
  0.9420825238489517  0.6633401331374587  0.8471991807098685
  0.0621078578241599  0.3450080369887658  0.1537744097855051
  0.4374728230451074  0.1605735864306567  0.3478254488377548
  0.5707947233831938  0.8447880662483223  0.6513107303057559
  0.9735111261668530  0.6903388174041787  0.7840290883921480
  0.0274620642772013  0.3110335406999770  0.2140971325635798
  0.4746016936619162  0.1893532806877287  0.2837263605601457
  0.5308627921891876  0.8104695087658148  0.7151294852620653
  0.3970225511699436  0.1936229902620307  0.9962849203027365
  0.5974890111252531  0.8029146427635202  0.0046839463396772
  0.8882916258007736  0.6926452183835264  0.4950857825108260
  0.1140122119149807  0.3097715616619423  0.5045380815874434
  0.3832665267028781  0.1824898756429652  0.9356330516707982
  0.6098827731901463  0.8123555015133099  0.0655777774977623
  0.8729170161543972  0.6786382502886975  0.4377884278714403
  0.1293046117131468  0.3238650442790756  0.5618174280253476
  0.3572611925716936  0.1606382354812712  0.8800670171994598
  0.6263373231343329  0.8298691722515110  0.1226018886664582
  0.8555577868511174  0.6616123797425166  0.3802018866315043
  0.1472271056357102  0.3410922799716234  0.6193056880192194
  0.3346357747869346  0.1514925217180589  0.8236421332503614
  0.6624614961483334  0.8508008692473145  0.1771572258009126
  0.8320679885196560  0.6517288944450838  0.3237046420114723
  0.1679373296283272  0.3514972626643710  0.6759573727024865
  0.3717318128496944  0.1578265506829648  0.7623882369374937
  0.6300647811164325  0.8384000664665874  0.2372206956457233
  0.8715722490707968  0.6546441836744309  0.2623651413194519
  0.1324655067644406  0.3452916237890050  0.7366457521454716
  0.5909975979968208  0.7929891941858181  0.9481761335008780
  0.3976098624213145  0.1972203435233239  0.0537180412003928
  0.0932605631885905  0.2945772528216324  0.4481428373768789
  0.9082337858439025  0.7079830771657916  0.5515722558440465
  0.5791650070685893  0.7988510917181729  0.8888577365949584
  0.4156101165058435  0.2028589752638962  0.1116813173034835
  0.0780074732879785  0.2987477944831838  0.3888290611864766
  0.9238599426327976  0.7034394530533412  0.6108198279128941
  0.5761409840902745  0.8005566703536752  0.8300131908497136
  0.4238533878437604  0.1972670829163154  0.1701710585140271
  0.0743074567515726  0.2980325198556240  0.3300504252856258
  0.9299668386444971  0.7036491053207630  0.6693510020364400
  0.5500471240518608  0.8076162639335518  0.7739417294689138
  0.4551099249016161  0.1958813586927838  0.2251578545268502
  0.0487140049405560  0.3055065494765806  0.2739329084039546
  0.9576285736926760  0.6976057743070549  0.7249444754359519
 
  0.00000000E+00  0.00000000E+00  0.00000000E+00
  0.00000000E+00  0.00000000E+00  0.00000000E+00
  0.00000000E+00  0.00000000E+00  0.00000000E+00
  0.00000000E+00  0.00000000E+00  0.00000000E+00
  0.00000000E+00  0.00000000E+00  0.00000000E+00
  0.00000000E+00  0.00000000E+00  0.00000000E+00
  0.00000000E+00  0.00000000E+00  0.00000000E+00
  0.00000000E+00  0.00000000E+00  0.00000000E+00
  0.00000000E+00  0.00000000E+00  0.00000000E+00
  0.00000000E+00  0.00000000E+00  0.00000000E+00
  0.00000000E+00  0.00000000E+00  0.00000000E+00
  0.00000000E+00  0.00000000E+00  0.00000000E+00
  0.00000000E+00  0.00000000E+00  0.00000000E+00
  0.00000000E+00  0.00000000E+00  0.00000000E+00
  0.00000000E+00  0.00000000E+00  0.00000000E+00
  0.00000000E+00  0.00000000E+00  0.00000000E+00
  0.00000000E+00  0.00000000E+00  0.00000000E+00
  0.00000000E+00  0.00000000E+00  0.00000000E+00
  0.00000000E+00  0.00000000E+00  0.00000000E+00
  0.00000000E+00  0.00000000E+00  0.00000000E+00
  0.00000000E+00  0.00000000E+00  0.00000000E+00
  0.00000000E+00  0.00000000E+00  0.00000000E+00
  0.00000000E+00  0.00000000E+00  0.00000000E+00
  0.00000000E+00  0.00000000E+00  0.00000000E+00
  0.00000000E+00  0.00000000E+00  0.00000000E+00
  0.00000000E+00  0.00000000E+00  0.00000000E+00
  0.00000000E+00  0.00000000E+00  0.00000000E+00
  0.00000000E+00  0.00000000E+00  0.00000000E+00
  0.00000000E+00  0.00000000E+00  0.00000000E+00
  0.00000000E+00  0.00000000E+00  0.00000000E+00
  0.00000000E+00  0.00000000E+00  0.00000000E+00
  0.00000000E+00  0.00000000E+00  0.00000000E+00
  0.00000000E+00  0.00000000E+00  0.00000000E+00
  0.00000000E+00  0.00000000E+00  0.00000000E+00
  0.00000000E+00  0.00000000E+00  0.00000000E+00
  0.00000000E+00  0.00000000E+00  0.00000000E+00
  0.00000000E+00  0.00000000E+00  0.00000000E+00
  0.00000000E+00  0.00000000E+00  0.00000000E+00
  0.00000000E+00  0.00000000E+00  0.00000000E+00
  0.00000000E+00  0.00000000E+00  0.00000000E+00
  0.00000000E+00  0.00000000E+00  0.00000000E+00
  0.00000000E+00  0.00000000E+00  0.00000000E+00
  0.00000000E+00  0.00000000E+00  0.00000000E+00
  0.00000000E+00  0.00000000E+00  0.00000000E+00
  0.00000000E+00  0.00000000E+00  0.00000000E+00
  0.00000000E+00  0.00000000E+00  0.00000000E+00
  0.00000000E+00  0.00000000E+00  0.00000000E+00
  0.00000000E+00  0.00000000E+00  0.00000000E+00
  0.00000000E+00  0.00000000E+00  0.00000000E+00
  0.00000000E+00  0.00000000E+00  0.00000000E+00
  0.00000000E+00  0.00000000E+00  0.00000000E+00
  0.00000000E+00  0.00000000E+00  0.00000000E+00
  0.00000000E+00  0.00000000E+00  0.00000000E+00
  0.00000000E+00  0.00000000E+00  0.00000000E+00
  0.00000000E+00  0.00000000E+00  0.00000000E+00
  0.00000000E+00  0.00000000E+00  0.00000000E+00
  0.00000000E+00  0.00000000E+00  0.00000000E+00
  0.00000000E+00  0.00000000E+00  0.00000000E+00
  0.00000000E+00  0.00000000E+00  0.00000000E+00
  0.00000000E+00  0.00000000E+00  0.00000000E+00
  0.00000000E+00  0.00000000E+00  0.00000000E+00
  0.00000000E+00  0.00000000E+00  0.00000000E+00
  0.00000000E+00  0.00000000E+00  0.00000000E+00
  0.00000000E+00  0.00000000E+00  0.00000000E+00
  0.00000000E+00  0.00000000E+00  0.00000000E+00
  0.00000000E+00  0.00000000E+00  0.00000000E+00
  0.00000000E+00  0.00000000E+00  0.00000000E+00
  0.00000000E+00  0.00000000E+00  0.00000000E+00
  0.00000000E+00  0.00000000E+00  0.00000000E+00
  0.00000000E+00  0.00000000E+00  0.00000000E+00
  0.00000000E+00  0.00000000E+00  0.00000000E+00
  0.00000000E+00  0.00000000E+00  0.00000000E+00
  0.00000000E+00  0.00000000E+00  0.00000000E+00
  0.00000000E+00  0.00000000E+00  0.00000000E+00
  0.00000000E+00  0.00000000E+00  0.00000000E+00
  0.00000000E+00  0.00000000E+00  0.00000000E+00
  0.00000000E+00  0.00000000E+00  0.00000000E+00
  0.00000000E+00  0.00000000E+00  0.00000000E+00
  0.00000000E+00  0.00000000E+00  0.00000000E+00
  0.00000000E+00  0.00000000E+00  0.00000000E+00
  0.00000000E+00  0.00000000E+00  0.00000000E+00
  0.00000000E+00  0.00000000E+00  0.00000000E+00
  0.00000000E+00  0.00000000E+00  0.00000000E+00
  0.00000000E+00  0.00000000E+00  0.00000000E+00
  0.00000000E+00  0.00000000E+00  0.00000000E+00
  0.00000000E+00  0.00000000E+00  0.00000000E+00
  0.00000000E+00  0.00000000E+00  0.00000000E+00
  0.00000000E+00  0.00000000E+00  0.00000000E+00
  0.00000000E+00  0.00000000E+00  0.00000000E+00
  0.00000000E+00  0.00000000E+00  0.00000000E+00
  0.00000000E+00  0.00000000E+00  0.00000000E+00
  0.00000000E+00  0.00000000E+00  0.00000000E+00
  0.00000000E+00  0.00000000E+00  0.00000000E+00
  0.00000000E+00  0.00000000E+00  0.00000000E+00
  0.00000000E+00  0.00000000E+00  0.00000000E+00
  0.00000000E+00  0.00000000E+00  0.00000000E+00
  0.00000000E+00  0.00000000E+00  0.00000000E+00
  0.00000000E+00  0.00000000E+00  0.00000000E+00
  0.00000000E+00  0.00000000E+00  0.00000000E+00
  0.00000000E+00  0.00000000E+00  0.00000000E+00
  0.00000000E+00  0.00000000E+00  0.00000000E+00
  0.00000000E+00  0.00000000E+00  0.00000000E+00
  0.00000000E+00  0.00000000E+00  0.00000000E+00
  0.00000000E+00  0.00000000E+00  0.00000000E+00
