Iron(II,III) oxide                      
   1.00000000000000     
     2.8591948919628498    0.0085428980105773    0.0111031454250245
     0.0020394304079958    9.5776656292582132    0.0259917818788853
     0.1564055859343471   -0.0556773700234304   23.9256470763045250
   Fe   O 
    28    40
Direct
  0.4891413804313383  0.1233533845582835  0.1126240581557747
  0.4963029261867608  0.8802875037435504  0.8870595758260940
  0.5216934595629562  0.8765751562191296  0.6108362308853242
  0.4912744096214965  0.1205884732451211  0.3884359979136648
  0.9894633373079688  0.6234380509896881  0.1125962208008152
  0.9972221108697024  0.3806000055051182  0.8871366693416470
  0.0231308428923064  0.3772434989157215  0.6122597115678821
 -0.0088132671724399  0.6204194794421374  0.3884199957641544
  0.9937278599004697  0.1301901829140242  0.2512979935620767
  0.0052935767724210  0.8704081388947564  0.7486923142016708
  0.4938213683237399  0.6301843178482905  0.2512574223155969
  0.5035690695945226  0.3677492074795501  0.7517975934229969
  0.5003575545891118  0.3718205197127299  0.0292557903745479
  0.5027259700147165  0.6319408595819590  0.9707440055979514
  0.4926063274323908  0.6274089005715880  0.5289990105199038
  0.5012897862309810  0.3688961621125034  0.4710254436967677
  0.0002158250645386  0.8721093584047661  0.0292680941762187
  0.0038156383788437  0.1313499485428362  0.9700569687328194
  0.9921590486728074  0.1282055080163803  0.5291970907049030
  0.0013783469198466  0.8694173513801973  0.4709410813998877
  0.4874999685742029  0.3783347258212332  0.1767289331854938
  0.4974161609596761  0.6243834252134873  0.8233143909872421
  0.5197860304949009  0.6192430029766619  0.6770143122221817
  0.4987748486550245  0.3758415487457687  0.3240707875577744
  0.9872184714057857  0.8783790781151837  0.1767791535865208
  0.0010804237428343  0.1230775915954327  0.8226769474390961
  0.0207489102470412  0.1238017879521009  0.6760279851848094
 -0.0009383320592000  0.8759444789997975  0.3241500513124494
  0.0008373718247523  0.2297892356367448  0.0480409946416245
  0.0076721947820391  0.7738045942878546  0.9514917160604510
 -0.0167238053711963  0.7721921933050748  0.5492116250257402
  0.0029061033889479  0.2252594376593516  0.4514779578145889
  0.5005334352521923  0.7297109558622109  0.0484465492513976
  0.5085759399318853  0.2744821891763045  0.9509105228564694
  0.4837443034287070  0.2703223692308517  0.5481605914872187
  0.5035488490983824  0.7256774586334651  0.4520052349585071
  0.4930502164884508  0.2786221981527582  0.2502576583175210
  0.5072520188659284  0.7214748906682308  0.7491985851678842
  0.9926571819825316  0.7784223948904216  0.2504002336528552
  0.0063342920494750  0.2186568533599003  0.7494327802363046
  0.4916864682956539  0.4761597349693779  0.1019976864747227
  0.4967496878258014  0.5271641593542555  0.8982747064053385
  0.5186063933818890  0.5254868240238432  0.6018244637841119
  0.4930368760602066  0.4727700504554517  0.3985880964719482
  0.9913646342528607  0.9762039831831149  0.1020010862843288
 -0.0030948778188641  0.0279759480498444  0.8976047903843513
  0.0165315860011143  0.0210291322041110  0.6013996103045866
 -0.0069667686860983  0.9726835652744970  0.3986550802868938
  0.9902023067947306  0.2395798874962836  0.1553278777853377
 -0.0034807269697045  0.7629850203491715  0.8439688420458873
  0.0221981857523868  0.7612936932965806  0.6548516702361522
 -0.0058360739076917  0.2358602732846193  0.3443399628436578
  0.4901141321137604  0.7393898049607697  0.1555557263208747
  0.4980808732330595  0.2643573869803599  0.8432893596424618
  0.5218815364263949  0.2604206365362806  0.6545523126515298
  0.4939084302619118  0.7360741435485675  0.3446852814514504
  0.4839822444122574  0.0223866188925026  0.1970739635476087
  0.5031303807668636  0.9787085277021389  0.8026399482466849
  0.5156505435389740  0.9762387810038434  0.6949765077709869
  0.4998739381603975  0.0204295219226881  0.3040704456830969
  0.9842057267360960  0.5223852522212957  0.1970888742829307
  0.0010036578423478  0.4805530282432930  0.8042256657670147
  0.0170928589517537  0.4792933619814034  0.6964069002970223
 -0.0000314139442279  0.5207127953526867  0.3040488633174114
  0.5015148852813683  0.0019917098231911  0.9998611058374127
  0.4975925643888649  0.9978835146334341  0.5005859934475888
  0.0007939116509028  0.5019123078014098  0.0001965410209470
 -0.0021421161398437  0.4984639650938327  0.5002102635008338
 
  0.00000000E+00  0.00000000E+00  0.00000000E+00
  0.00000000E+00  0.00000000E+00  0.00000000E+00
  0.00000000E+00  0.00000000E+00  0.00000000E+00
  0.00000000E+00  0.00000000E+00  0.00000000E+00
  0.00000000E+00  0.00000000E+00  0.00000000E+00
  0.00000000E+00  0.00000000E+00  0.00000000E+00
  0.00000000E+00  0.00000000E+00  0.00000000E+00
  0.00000000E+00  0.00000000E+00  0.00000000E+00
  0.00000000E+00  0.00000000E+00  0.00000000E+00
  0.00000000E+00  0.00000000E+00  0.00000000E+00
  0.00000000E+00  0.00000000E+00  0.00000000E+00
  0.00000000E+00  0.00000000E+00  0.00000000E+00
  0.00000000E+00  0.00000000E+00  0.00000000E+00
  0.00000000E+00  0.00000000E+00  0.00000000E+00
  0.00000000E+00  0.00000000E+00  0.00000000E+00
  0.00000000E+00  0.00000000E+00  0.00000000E+00
  0.00000000E+00  0.00000000E+00  0.00000000E+00
  0.00000000E+00  0.00000000E+00  0.00000000E+00
  0.00000000E+00  0.00000000E+00  0.00000000E+00
  0.00000000E+00  0.00000000E+00  0.00000000E+00
  0.00000000E+00  0.00000000E+00  0.00000000E+00
  0.00000000E+00  0.00000000E+00  0.00000000E+00
  0.00000000E+00  0.00000000E+00  0.00000000E+00
  0.00000000E+00  0.00000000E+00  0.00000000E+00
  0.00000000E+00  0.00000000E+00  0.00000000E+00
  0.00000000E+00  0.00000000E+00  0.00000000E+00
  0.00000000E+00  0.00000000E+00  0.00000000E+00
  0.00000000E+00  0.00000000E+00  0.00000000E+00
  0.00000000E+00  0.00000000E+00  0.00000000E+00
  0.00000000E+00  0.00000000E+00  0.00000000E+00
  0.00000000E+00  0.00000000E+00  0.00000000E+00
  0.00000000E+00  0.00000000E+00  0.00000000E+00
  0.00000000E+00  0.00000000E+00  0.00000000E+00
  0.00000000E+00  0.00000000E+00  0.00000000E+00
  0.00000000E+00  0.00000000E+00  0.00000000E+00
  0.00000000E+00  0.00000000E+00  0.00000000E+00
  0.00000000E+00  0.00000000E+00  0.00000000E+00
  0.00000000E+00  0.00000000E+00  0.00000000E+00
  0.00000000E+00  0.00000000E+00  0.00000000E+00
  0.00000000E+00  0.00000000E+00  0.00000000E+00
  0.00000000E+00  0.00000000E+00  0.00000000E+00
  0.00000000E+00  0.00000000E+00  0.00000000E+00
  0.00000000E+00  0.00000000E+00  0.00000000E+00
  0.00000000E+00  0.00000000E+00  0.00000000E+00
  0.00000000E+00  0.00000000E+00  0.00000000E+00
  0.00000000E+00  0.00000000E+00  0.00000000E+00
  0.00000000E+00  0.00000000E+00  0.00000000E+00
  0.00000000E+00  0.00000000E+00  0.00000000E+00
  0.00000000E+00  0.00000000E+00  0.00000000E+00
  0.00000000E+00  0.00000000E+00  0.00000000E+00
  0.00000000E+00  0.00000000E+00  0.00000000E+00
  0.00000000E+00  0.00000000E+00  0.00000000E+00
  0.00000000E+00  0.00000000E+00  0.00000000E+00
  0.00000000E+00  0.00000000E+00  0.00000000E+00
  0.00000000E+00  0.00000000E+00  0.00000000E+00
  0.00000000E+00  0.00000000E+00  0.00000000E+00
  0.00000000E+00  0.00000000E+00  0.00000000E+00
  0.00000000E+00  0.00000000E+00  0.00000000E+00
  0.00000000E+00  0.00000000E+00  0.00000000E+00
  0.00000000E+00  0.00000000E+00  0.00000000E+00
  0.00000000E+00  0.00000000E+00  0.00000000E+00
  0.00000000E+00  0.00000000E+00  0.00000000E+00
  0.00000000E+00  0.00000000E+00  0.00000000E+00
  0.00000000E+00  0.00000000E+00  0.00000000E+00
  0.00000000E+00  0.00000000E+00  0.00000000E+00
  0.00000000E+00  0.00000000E+00  0.00000000E+00
  0.00000000E+00  0.00000000E+00  0.00000000E+00
  0.00000000E+00  0.00000000E+00  0.00000000E+00
