Mn4 O4 F8                               
   1.00000000000000     
     4.8479204867264318    0.0686212854087784    0.0000014968781245
     0.0411918491827012    5.1004080390393147    0.0000032876646979
     0.0000028165143861    0.0000048928288347    6.9846519524965736
   Mn   O    F 
     4     4     8
Direct
  0.4877853017340357  0.0138973677622621  0.0110630962612907
  0.0127521852290677  0.4898019514441402  0.9857977108122867
  0.4877855287566421  0.0138976572320461  0.4889368384393666
  0.0127517877104020  0.4898023231544865  0.5142032051722896
  0.1864153402855619  0.1902711949414976  0.9332024636454425
  0.1864148430081283  0.1902706109344032  0.5667975351988567
  0.8785335081589054  0.5322124415159808  0.7499999164036460
  0.3680440332808846  0.9716610824253606  0.2500000628681586
  0.6872577705093136  0.3101571731991232  0.0633617776569833
  0.3206667984286874  0.6904481986988946  0.9403487436458488
  0.8115833736246515  0.8047432672883353  0.0596783312011962
  0.3206669061223644  0.6904469167618714  0.5596500991214490
  0.6872572865380489  0.3101579562921646  0.4366383500727694
  0.8115835762504170  0.8047436819560847  0.4403217529230815
  0.1211434277084835  0.4730130819605636  0.2500002459319740
  0.6193583326543988  0.0244750944327852  0.7499998706453750
 
  0.00000000E+00  0.00000000E+00  0.00000000E+00
  0.00000000E+00  0.00000000E+00  0.00000000E+00
  0.00000000E+00  0.00000000E+00  0.00000000E+00
  0.00000000E+00  0.00000000E+00  0.00000000E+00
  0.00000000E+00  0.00000000E+00  0.00000000E+00
  0.00000000E+00  0.00000000E+00  0.00000000E+00
  0.00000000E+00  0.00000000E+00  0.00000000E+00
  0.00000000E+00  0.00000000E+00  0.00000000E+00
  0.00000000E+00  0.00000000E+00  0.00000000E+00
  0.00000000E+00  0.00000000E+00  0.00000000E+00
  0.00000000E+00  0.00000000E+00  0.00000000E+00
  0.00000000E+00  0.00000000E+00  0.00000000E+00
  0.00000000E+00  0.00000000E+00  0.00000000E+00
  0.00000000E+00  0.00000000E+00  0.00000000E+00
  0.00000000E+00  0.00000000E+00  0.00000000E+00
  0.00000000E+00  0.00000000E+00  0.00000000E+00
