Chromium oxide (3/1)                    
   1.00000000000000     
     4.3344994158304120    0.0001703618544840   -0.0003786027889914
     0.0001690960523947    4.3334497657700570   -0.0001633700112013
    -0.0003827634151677   -0.0001629423003210    4.3345614246182835
   Cr   O 
     6     2
Direct
  0.2495719915411992  0.0000148055158070  0.4999467315058946
  0.7504027437014715  0.0000882105866228  0.4999837449370472
  0.4999475823047662  0.2501229339731496  0.0000409086195534
  0.4999390759516824  0.7498601177417488  0.0000222814862528
  0.0000847942227159  0.4999535266714427  0.2503086071872182
  0.0000593954173627  0.4999673574267219  0.7496888994317853
  0.9999742990760002  0.9999495047342619  0.0000008908568931
  0.5000201177848088  0.5000435433502455  0.5000079359753555
 
  0.00000000E+00  0.00000000E+00  0.00000000E+00
  0.00000000E+00  0.00000000E+00  0.00000000E+00
  0.00000000E+00  0.00000000E+00  0.00000000E+00
  0.00000000E+00  0.00000000E+00  0.00000000E+00
  0.00000000E+00  0.00000000E+00  0.00000000E+00
  0.00000000E+00  0.00000000E+00  0.00000000E+00
  0.00000000E+00  0.00000000E+00  0.00000000E+00
  0.00000000E+00  0.00000000E+00  0.00000000E+00
