Mn4 O4 F8                               
   1.00000000000000     
     4.8375628736286291    0.0628475306894302   -0.0079694200973515
     0.0441460021281689    5.1006310569495206    0.0224657555387811
    -0.0248619834401013    0.0414500033738233    6.9815669441828865
   Mn   O    F 
     4     4     8
Direct
  0.4868076299590967  0.0095356470927670  0.0128475409513936
  0.0119369560278586  0.4869028174964147  0.9875512915724198
  0.5134159224553166  0.9901995565416610  0.4874631808562900
  0.9876574211105275  0.5156587951301654  0.5125354018781834
  0.1861980570192061  0.1888973994961766  0.9331694195862476
  0.8244512390389379  0.8152875697430448  0.4360412694657885
  0.8678307396425347  0.5299924592099753  0.7518342094523881
  0.3698420449251373  0.9701088182088263  0.2522142952789680
  0.6878012442278645  0.3049917015294746  0.0651170954872596
  0.3191012606120178  0.6881646457816076  0.9409057687656798
  0.8110372910136993  0.8014299967563417  0.0582185755216931
  0.3191018810591271  0.6910866674054850  0.5641143448917928
  0.6855844439062881  0.3120676439715825  0.4395155970548326
  0.1936761156252063  0.2016632320355072  0.5580816128654102
  0.1181937803899199  0.4702780530615922  0.2497954957800231
  0.6173639729872616  0.0237349965393706  0.7505949005916369
 
  0.00000000E+00  0.00000000E+00  0.00000000E+00
  0.00000000E+00  0.00000000E+00  0.00000000E+00
  0.00000000E+00  0.00000000E+00  0.00000000E+00
  0.00000000E+00  0.00000000E+00  0.00000000E+00
  0.00000000E+00  0.00000000E+00  0.00000000E+00
  0.00000000E+00  0.00000000E+00  0.00000000E+00
  0.00000000E+00  0.00000000E+00  0.00000000E+00
  0.00000000E+00  0.00000000E+00  0.00000000E+00
  0.00000000E+00  0.00000000E+00  0.00000000E+00
  0.00000000E+00  0.00000000E+00  0.00000000E+00
  0.00000000E+00  0.00000000E+00  0.00000000E+00
  0.00000000E+00  0.00000000E+00  0.00000000E+00
  0.00000000E+00  0.00000000E+00  0.00000000E+00
  0.00000000E+00  0.00000000E+00  0.00000000E+00
  0.00000000E+00  0.00000000E+00  0.00000000E+00
  0.00000000E+00  0.00000000E+00  0.00000000E+00
