Cr2 O2 F4                               
   1.00000000000000     
     3.6711052841992435    0.0000079839897256    0.0000411125026140
     0.0000078643647174    3.6707986372880028   -0.0000005634309515
     0.0000808507927232   -0.0000008999505440    7.6285183061357031
   Cr   O    F 
     2     2     4
Direct
  0.5001066116303439  0.4999995376479315  0.2550057731493126
  0.5001609455794214  0.5000024294223222  0.7550014355019308
  0.5000909874420806  0.0000002064882892  0.2558163852079361
  0.9996775177920143  0.5000001368603521  0.7558222141193568
  0.5000366760882493  0.5000001620936587  0.0053833281449926
  0.5000448757601625  0.5000003341209691  0.5053694883609225
  0.4999100898584076 -0.0000031337830892  0.7552973197928849
  0.9999722958493276  0.5000003271495737  0.2553040557226560
 
  0.00000000E+00  0.00000000E+00  0.00000000E+00
  0.00000000E+00  0.00000000E+00  0.00000000E+00
  0.00000000E+00  0.00000000E+00  0.00000000E+00
  0.00000000E+00  0.00000000E+00  0.00000000E+00
  0.00000000E+00  0.00000000E+00  0.00000000E+00
  0.00000000E+00  0.00000000E+00  0.00000000E+00
  0.00000000E+00  0.00000000E+00  0.00000000E+00
  0.00000000E+00  0.00000000E+00  0.00000000E+00
