Na4 Ni4 O8 F4                           
   1.00000000000000     
     5.2077435367490548    0.1123892245399518   -0.0000486803921562
    -2.5065468126355457    4.5661632128056233   -0.0000285320718303
     0.0000368561573391    0.0000795972233552    9.1777221222103531
   Na   Ni   O    F 
     4     4     8     4
Direct
  0.0001108286823658  0.0001092091026225  0.9999989938518042
  0.0001102876746430  0.0001091982946804  0.4999991757567128
  0.3264355281597492  0.6738813200895638  0.2499893288580966
  0.6738665976082574  0.3264254424858535  0.7500093939700467
  0.3290351468058775  0.6709402729190780  0.6122309728933055
  0.6709509474135609  0.3290424533323317  0.3877700931678884
  0.6709497249393509  0.3290380034798290  0.1122298483407623
  0.3290369785958236  0.6709464540650288  0.8877699338754848
  0.5000269430648958  0.0002322576834022  0.9998819023234884
  0.0002329071025864  0.5000270929686513  0.0001170803047031
  0.5001896617415942  0.5001892288229499  0.0000006695799264
  0.5000126465100961  0.0002325432726422  0.5001148488334020
  0.0002300263080288  0.5000187372721686  0.4998842749450920
  0.5001911196574108  0.5001874242243030  0.5000025845144250
  0.8175066949531029  0.1822223867741979  0.2500034191907082
  0.1822187528676925  0.8175007610694170  0.7499970076489981
  0.8132692325214124  0.6587422002065113  0.2500041267510166
  0.1860487032120428  0.3408310352642240  0.7499984572583562
  0.3408374641863514  0.1860472052481593  0.2500001190318322
  0.6587398079951576  0.8132767734243855  0.7499977689039437
 
  0.00000000E+00  0.00000000E+00  0.00000000E+00
  0.00000000E+00  0.00000000E+00  0.00000000E+00
  0.00000000E+00  0.00000000E+00  0.00000000E+00
  0.00000000E+00  0.00000000E+00  0.00000000E+00
  0.00000000E+00  0.00000000E+00  0.00000000E+00
  0.00000000E+00  0.00000000E+00  0.00000000E+00
  0.00000000E+00  0.00000000E+00  0.00000000E+00
  0.00000000E+00  0.00000000E+00  0.00000000E+00
  0.00000000E+00  0.00000000E+00  0.00000000E+00
  0.00000000E+00  0.00000000E+00  0.00000000E+00
  0.00000000E+00  0.00000000E+00  0.00000000E+00
  0.00000000E+00  0.00000000E+00  0.00000000E+00
  0.00000000E+00  0.00000000E+00  0.00000000E+00
  0.00000000E+00  0.00000000E+00  0.00000000E+00
  0.00000000E+00  0.00000000E+00  0.00000000E+00
  0.00000000E+00  0.00000000E+00  0.00000000E+00
  0.00000000E+00  0.00000000E+00  0.00000000E+00
  0.00000000E+00  0.00000000E+00  0.00000000E+00
  0.00000000E+00  0.00000000E+00  0.00000000E+00
  0.00000000E+00  0.00000000E+00  0.00000000E+00
