Fe8 O8 F16                              
    1.000000000000000     
     7.6792834743113536    0.0115886049595361   -0.0790555758769618
    -0.0072725036676998    7.7001284712737688   -0.0002329534728882
     0.0550829286128287    0.0008909839949832    7.7043344365714361
   Fe   O    F 
     8     8    16
Direct
  0.0002331852692282  0.9999242603498862  0.9902728227355789
  0.0042685093435301  0.9998027861929704  0.5208916413440787
  0.9958432158818054  0.5000404643724503  0.0023045016835785
  0.0006281883552308  0.4998831284349193  0.4972905143186717
  0.5001198114181808  0.0001267826659627  0.0003563562141861
  0.5061226987844183  0.0000315325001351  0.4994041587436702
  0.4954421142630167  0.5001489784860462  0.9983699670562332
  0.5073844651703916  0.4999276215432562  0.5001445661447802
  0.0050207943564709  0.0007453729456053  0.2400468621416343
  0.7397075664836660  0.4996656802077594  0.5032280880014102
  0.4985189707962056  0.2485662588405403  0.9979702351369554
  0.9993237420831559  0.9990947518169129  0.7611146441608084
  0.9927415209270365  0.5016830567436246  0.7469679717952606
  0.5113316623837649  0.2631265703689605  0.5000048558518129
  0.4996766588659783  0.7516052787858840  0.9970196405771693
  0.5113782983152630  0.7368313868110377  0.5007162523635151
  0.5025850809370974  0.0002845669694149  0.7483167270709047
  0.2572123614957241  0.0001727415947536  0.4969879435004201
  0.2554339184467291  0.5000577289532565  0.5071999103950022
  0.7486776555969015  0.4994304001708278  0.9998521232319417
  0.9976631597064891  0.7508172090153976  0.0042984598659562
  0.0062039937207098  0.4989062565884572  0.2507120182196807
  0.4995491532905020  0.9997531837499369  0.2511072301580255
  0.4842033866918192  0.5005449719309958  0.2445706940093446
  0.4897349187222579  0.4995874982706555  0.7538281968432888
  0.2478470687144002  0.9995325523511790  0.0072014449536903
  0.2420330126960521  0.5005439577951987  0.9848892762599318
  0.7522987688956657  0.0004393830747990  0.0148727262012417
  0.7526976788695560  0.9997106863252981  0.4896763281078804
  0.9974345118641857  0.2491674624276701  0.0021715078683623
  0.9986381255740820  0.2481937734471726  0.4950913987952216
  0.0000458020804781  0.7516537162690359  0.4931209362497565
 
  0.00000000E+00  0.00000000E+00  0.00000000E+00
  0.00000000E+00  0.00000000E+00  0.00000000E+00
  0.00000000E+00  0.00000000E+00  0.00000000E+00
  0.00000000E+00  0.00000000E+00  0.00000000E+00
  0.00000000E+00  0.00000000E+00  0.00000000E+00
  0.00000000E+00  0.00000000E+00  0.00000000E+00
  0.00000000E+00  0.00000000E+00  0.00000000E+00
  0.00000000E+00  0.00000000E+00  0.00000000E+00
  0.00000000E+00  0.00000000E+00  0.00000000E+00
  0.00000000E+00  0.00000000E+00  0.00000000E+00
  0.00000000E+00  0.00000000E+00  0.00000000E+00
  0.00000000E+00  0.00000000E+00  0.00000000E+00
  0.00000000E+00  0.00000000E+00  0.00000000E+00
  0.00000000E+00  0.00000000E+00  0.00000000E+00
  0.00000000E+00  0.00000000E+00  0.00000000E+00
  0.00000000E+00  0.00000000E+00  0.00000000E+00
  0.00000000E+00  0.00000000E+00  0.00000000E+00
  0.00000000E+00  0.00000000E+00  0.00000000E+00
  0.00000000E+00  0.00000000E+00  0.00000000E+00
  0.00000000E+00  0.00000000E+00  0.00000000E+00
  0.00000000E+00  0.00000000E+00  0.00000000E+00
  0.00000000E+00  0.00000000E+00  0.00000000E+00
  0.00000000E+00  0.00000000E+00  0.00000000E+00
  0.00000000E+00  0.00000000E+00  0.00000000E+00
  0.00000000E+00  0.00000000E+00  0.00000000E+00
  0.00000000E+00  0.00000000E+00  0.00000000E+00
  0.00000000E+00  0.00000000E+00  0.00000000E+00
  0.00000000E+00  0.00000000E+00  0.00000000E+00
  0.00000000E+00  0.00000000E+00  0.00000000E+00
  0.00000000E+00  0.00000000E+00  0.00000000E+00
  0.00000000E+00  0.00000000E+00  0.00000000E+00
  0.00000000E+00  0.00000000E+00  0.00000000E+00
