Na4 Ni4 O8 F4                           
   1.00000000000000     
     5.2877408631201863    0.0010430965113055    0.0084515685288159
    -0.0005707622760125    5.2477480814554909    0.0029635413788890
     0.0099250672314050   -0.0049325773715987    7.4291353822986803
   Na   Ni   O    F 
     4     4     8     4
Direct
  0.9856363765729251  0.0419054395794320  0.2451745569009726
  0.0018778401013863  0.9428851206657027  0.7471664431538967
  0.4855305147774258  0.4581142860068704  0.7452328595642310
  0.5023353936258258  0.5575377884208944  0.2475968630614314
  0.5006248628744019  0.0121515079288338  0.0064255913032102
  0.0026869598312420  0.4859050904561815  0.9948360828882093
  0.5026040448783800  0.0141164953622009  0.4948414186899003
  0.0005999726741427  0.4877980506857003  0.5064211638803310
  0.9088206619641752  0.5046894125301540  0.7476044263497235
  0.4086736985082117  0.9952490297525391  0.2475818053585953
  0.7070120013801967  0.2856079601532097  0.0581997289015215
  0.2891935123612674  0.7285225141019573  0.9609037421553376
  0.2127531729400318  0.2053316875758334  0.9394476129843796
  0.7127384497936534  0.2946171240100009  0.4394304103419465
  0.7891994983225507  0.7714544259790135  0.4608895830736960
  0.2071625011922450  0.2144198790341272  0.5581445735653253
  0.0981471172034526  0.4783216654137453  0.2548333919032793
  0.5978009471650280  0.0214612421262894  0.7548877281813108
  0.7933126962505913  0.7848805787799704  0.0451801138131022
  0.2932897775828665  0.7150307014373442  0.5452019039296071
 
  0.00000000E+00  0.00000000E+00  0.00000000E+00
  0.00000000E+00  0.00000000E+00  0.00000000E+00
  0.00000000E+00  0.00000000E+00  0.00000000E+00
  0.00000000E+00  0.00000000E+00  0.00000000E+00
  0.00000000E+00  0.00000000E+00  0.00000000E+00
  0.00000000E+00  0.00000000E+00  0.00000000E+00
  0.00000000E+00  0.00000000E+00  0.00000000E+00
  0.00000000E+00  0.00000000E+00  0.00000000E+00
  0.00000000E+00  0.00000000E+00  0.00000000E+00
  0.00000000E+00  0.00000000E+00  0.00000000E+00
  0.00000000E+00  0.00000000E+00  0.00000000E+00
  0.00000000E+00  0.00000000E+00  0.00000000E+00
  0.00000000E+00  0.00000000E+00  0.00000000E+00
  0.00000000E+00  0.00000000E+00  0.00000000E+00
  0.00000000E+00  0.00000000E+00  0.00000000E+00
  0.00000000E+00  0.00000000E+00  0.00000000E+00
  0.00000000E+00  0.00000000E+00  0.00000000E+00
  0.00000000E+00  0.00000000E+00  0.00000000E+00
  0.00000000E+00  0.00000000E+00  0.00000000E+00
  0.00000000E+00  0.00000000E+00  0.00000000E+00
