Na8 Mn8 O16 F8                          
   1.00000000000000     
     7.6791965901707275    0.0000000648836962   -0.0000158703837450
     0.0000000523817002    7.3489003059990603   -0.0000008155772518
    -0.0000165734514438   -0.0000008003772554    7.4858468141114587
   Na   Mn   O    F 
     8     8    16     8
Direct
  0.2497160010120323  0.2549749415236053  0.2622100903054746
  0.2499490421839197  0.2492026591919681  0.7451474934326252
  0.2497147597654645  0.7450258200031000  0.2622099430857044
  0.2499490066070297  0.7507973575073028  0.7451474435197979
  0.7497270012823078  0.2549805798361623  0.2377840412227149
  0.7499538738909326  0.2492013950124733  0.7548525099305208
  0.7497279022063444  0.7450189701433350  0.2377840783940932
  0.7499538657809716  0.7507985614847713  0.7548524644049932
  0.0146329715659544  0.0000000295281764  0.0109879843943163
  0.9851877513505678  0.0000000150399826  0.4888122392927869
  0.0012101947177193  0.4999999889971115  0.0004942104600218
  0.9988176075462317  0.4999999923695497  0.4995331929745922
  0.4851878561695507 -0.0000000094179360  0.0111998490771616
  0.5146323936396728 -0.0000000227555197  0.4890238360815712
  0.4988179967270285  0.5000000092258090  0.0004658737624605
  0.5012104859714485  0.5000000123989218  0.4995044635934547
  0.2500171059008587  0.9999997365884483  0.9801149769720795
  0.7500179063764600  0.0000002257415074  0.5198733949987172
  0.9907235018967159  0.2481867388579787  0.9943007530029505
  0.0094337066682189  0.2480619525333835  0.5056194938726843
  0.9907232195264016  0.7518132273018310  0.9943008487788749
  0.0094333880436304  0.7519380509630542  0.5056195511386136
  0.5094368942314830  0.2480608570500436  0.9943843854183655
  0.4907248213012727  0.2481894366479019  0.5057090068036506
  0.5094372080783433  0.7519391174004474  0.9943844385128243
  0.4907251246710599  0.7518105741055653  0.5057091043885457
  0.0003936845653133  0.9999999564648604  0.2499227637617584
 -0.0000216880671773  0.4999999951136131  0.2498181493191522
 -0.0000344645370986  0.4999999705961417  0.7501711632956876
  0.5003937819524085 -0.0000000090418192  0.2500870458116094
  0.4999737758651150  0.4999999836673942  0.2501817903747462
  0.4999682416650257  0.5000000071076023  0.7498243175471591
  0.2501355882100934  0.9999998113836437  0.5067327882989334
  0.2495156622892022  0.5000001630176302  0.0011517213123943
  0.2504336127798084  0.5000001733443142  0.4985215351776784
  0.7501275005365642  0.0000001609394306  0.9932394887374196
  0.7504347044899276  0.4999998004836825  0.0014793283540030
  0.7495167668525495  0.4999998023127074  0.4988399236285191
  0.0000530497289295 -0.0000000008561713  0.7499702340727927
  0.5000481965577034 -0.0000000318120045  0.7500340824885375
 
  0.00000000E+00  0.00000000E+00  0.00000000E+00
  0.00000000E+00  0.00000000E+00  0.00000000E+00
  0.00000000E+00  0.00000000E+00  0.00000000E+00
  0.00000000E+00  0.00000000E+00  0.00000000E+00
  0.00000000E+00  0.00000000E+00  0.00000000E+00
  0.00000000E+00  0.00000000E+00  0.00000000E+00
  0.00000000E+00  0.00000000E+00  0.00000000E+00
  0.00000000E+00  0.00000000E+00  0.00000000E+00
  0.00000000E+00  0.00000000E+00  0.00000000E+00
  0.00000000E+00  0.00000000E+00  0.00000000E+00
  0.00000000E+00  0.00000000E+00  0.00000000E+00
  0.00000000E+00  0.00000000E+00  0.00000000E+00
  0.00000000E+00  0.00000000E+00  0.00000000E+00
  0.00000000E+00  0.00000000E+00  0.00000000E+00
  0.00000000E+00  0.00000000E+00  0.00000000E+00
  0.00000000E+00  0.00000000E+00  0.00000000E+00
  0.00000000E+00  0.00000000E+00  0.00000000E+00
  0.00000000E+00  0.00000000E+00  0.00000000E+00
  0.00000000E+00  0.00000000E+00  0.00000000E+00
  0.00000000E+00  0.00000000E+00  0.00000000E+00
  0.00000000E+00  0.00000000E+00  0.00000000E+00
  0.00000000E+00  0.00000000E+00  0.00000000E+00
  0.00000000E+00  0.00000000E+00  0.00000000E+00
  0.00000000E+00  0.00000000E+00  0.00000000E+00
  0.00000000E+00  0.00000000E+00  0.00000000E+00
  0.00000000E+00  0.00000000E+00  0.00000000E+00
  0.00000000E+00  0.00000000E+00  0.00000000E+00
  0.00000000E+00  0.00000000E+00  0.00000000E+00
  0.00000000E+00  0.00000000E+00  0.00000000E+00
  0.00000000E+00  0.00000000E+00  0.00000000E+00
  0.00000000E+00  0.00000000E+00  0.00000000E+00
  0.00000000E+00  0.00000000E+00  0.00000000E+00
  0.00000000E+00  0.00000000E+00  0.00000000E+00
  0.00000000E+00  0.00000000E+00  0.00000000E+00
  0.00000000E+00  0.00000000E+00  0.00000000E+00
  0.00000000E+00  0.00000000E+00  0.00000000E+00
  0.00000000E+00  0.00000000E+00  0.00000000E+00
  0.00000000E+00  0.00000000E+00  0.00000000E+00
  0.00000000E+00  0.00000000E+00  0.00000000E+00
  0.00000000E+00  0.00000000E+00  0.00000000E+00
