V8 O8 F16                               
   1.00000000000000     
     7.4509227348185423   -0.0000015394779055   -0.0000013163978591
    -0.0000015875015850    7.5501620140073529   -0.0000014951356728
    -0.0000010854488150   -0.0000014655187442    7.5506615323063651
   V    O    F 
     8     8    16
Direct
  0.9995059613597377  0.9999998818867510  0.9999985726739382
  0.0001140916716764  0.9999990335504876  0.4999984527919281
  0.0226331434719214  0.4999998705173496  0.9999983025271675
  0.9993447361025929  0.4999990034457582  0.4999987508731394
  0.5007784128762651  0.9999998718725749  0.9999989064486385
  0.4774127456017609  0.9999998638453604  0.4999984772809327
  0.4999123200117666  0.4999998656943987  0.9999637456984516
  0.5006585346544625  0.4999998746581724  0.4999624082258833
  0.2535947368942075  0.9999999596045157  0.4999979152897112
  0.5008667057917862  0.4999998467985307  0.2503701071332358
  0.5008666392453094  0.4999998658534395  0.7497096762461695
  0.2498199433829882  0.9999998609556044  0.9999980814259786
  0.2464617421634543  0.4999998609951817  0.0000025454573915
  0.7498310847756997  0.9999998606039924  0.9999980335594287
  0.9991633348691877  0.2503385841683468  0.4999980466180389
  0.9991633380098364  0.7496631317682798  0.4999980455724966
  0.9971897632102724  0.9999999960235186  0.2502468725810587
  0.5051820196327981  0.9999998075713137  0.7490508649557626
  0.2499857418998985  0.4999999945501088  0.5000041087279286
  0.7588176298183811  0.4999998626090729  0.0000029422242633
  0.7500054935140170  0.5000000034272958  0.5000041994617348
  0.9947916233157983  0.7490659156741231  0.9999985326906327
  0.5027964382195620  0.2502331529637871  0.0000037898521015
  0.9971898204630847  0.9999999968096915  0.7497493843371714
  0.9946953979114852  0.4999999929174734  0.2491922077350992
  0.9946958332818596  0.4999999871609759  0.7508046666340746
  0.5051821581294860  0.9999998921954329  0.2509458218157192
  0.7411294466519678  0.9999999731494711  0.4999979561334129
  0.9947906241512214  0.2509368872142019  0.9999977169640246
  0.5053120488234200  0.2491613730066220  0.5000035139312047
  0.5027964456201204  0.7497665677898553  0.0000038491713283
  0.5053120444740031  0.7508383607183049  0.5000035049619598
 
  0.00000000E+00  0.00000000E+00  0.00000000E+00
  0.00000000E+00  0.00000000E+00  0.00000000E+00
  0.00000000E+00  0.00000000E+00  0.00000000E+00
  0.00000000E+00  0.00000000E+00  0.00000000E+00
  0.00000000E+00  0.00000000E+00  0.00000000E+00
  0.00000000E+00  0.00000000E+00  0.00000000E+00
  0.00000000E+00  0.00000000E+00  0.00000000E+00
  0.00000000E+00  0.00000000E+00  0.00000000E+00
  0.00000000E+00  0.00000000E+00  0.00000000E+00
  0.00000000E+00  0.00000000E+00  0.00000000E+00
  0.00000000E+00  0.00000000E+00  0.00000000E+00
  0.00000000E+00  0.00000000E+00  0.00000000E+00
  0.00000000E+00  0.00000000E+00  0.00000000E+00
  0.00000000E+00  0.00000000E+00  0.00000000E+00
  0.00000000E+00  0.00000000E+00  0.00000000E+00
  0.00000000E+00  0.00000000E+00  0.00000000E+00
  0.00000000E+00  0.00000000E+00  0.00000000E+00
  0.00000000E+00  0.00000000E+00  0.00000000E+00
  0.00000000E+00  0.00000000E+00  0.00000000E+00
  0.00000000E+00  0.00000000E+00  0.00000000E+00
  0.00000000E+00  0.00000000E+00  0.00000000E+00
  0.00000000E+00  0.00000000E+00  0.00000000E+00
  0.00000000E+00  0.00000000E+00  0.00000000E+00
  0.00000000E+00  0.00000000E+00  0.00000000E+00
  0.00000000E+00  0.00000000E+00  0.00000000E+00
  0.00000000E+00  0.00000000E+00  0.00000000E+00
  0.00000000E+00  0.00000000E+00  0.00000000E+00
  0.00000000E+00  0.00000000E+00  0.00000000E+00
  0.00000000E+00  0.00000000E+00  0.00000000E+00
  0.00000000E+00  0.00000000E+00  0.00000000E+00
  0.00000000E+00  0.00000000E+00  0.00000000E+00
  0.00000000E+00  0.00000000E+00  0.00000000E+00
