Sodium divanadate                       
   1.00000000000000     
    15.2593443967103077    0.0000416567602525    0.0053937103245625
     0.0000152853554286    5.6987503980275616    0.0000052518686127
    -2.8535158803923757    0.0000192217596292   31.9740969727031050
   Na   V    O 
    64    32   112
Direct
  0.2500667569111457  0.2511884665484772  0.9999207060457920
  0.7500635018077517  0.7511737160765151  0.9999218521505426
  0.7500677262175444  0.2488088267082205  0.4999204948741607
  0.2500634978215075  0.7488296013691951  0.4999221674233780
  0.0002209407737936  0.1813831209563190  0.2499712008707533
  0.0001499491105221  0.8185336039311437  0.7499678238258838
  0.5002370315711246  0.6813653144763734  0.2499720495061908
  0.5000653349227164  0.3184555255809229  0.7499673560451043
  0.1438929321363531  0.8267477374617016  0.0215492686160488
  0.8561214261434955  0.1734339819273174  0.9784606113232570
  0.8561223708601915  0.8265720438056761  0.4784600918087634
  0.1438930143895476  0.1732542953949334  0.5215493495104866
  0.6438929506166886  0.3267485363996840  0.0215493998304197
  0.3561217396547320  0.6734325325675172  0.9784606034468197
  0.3561218862835389  0.3265686928841802  0.4784602883716715
  0.6438932381421125  0.6732555395840407  0.5215490389833448
  0.4303505549148738  0.2689151260296754  0.0597573662389976
  0.5696622885538858  0.7311358182648675  0.9402484289194106
  0.5696613054826116  0.2688796157129758  0.4402490574494493
  0.4303514229293839  0.7310900276693459  0.5597573203643051
  0.9303503253690550  0.7689166939065686  0.0597573428507161
  0.0696613123853851  0.2311252408753859  0.9402490363991234
  0.0696629778056774  0.7688673677757052  0.4402483292880532
  0.9303513291098113  0.2310913965356534  0.5597575617098940
  0.1043006023927973  0.7810557072766287  0.1278392680113143
  0.8956370449967821  0.2189234899235046  0.8721604749186298
  0.8956400413491465  0.7810806864490516  0.3721608191616568
  0.1042930717136556  0.2189483213544818  0.6278394599871007
  0.6042997384085638  0.2810554638661813  0.1278392792612806
  0.3956406789317697  0.7189229878749401  0.8721607431326248
  0.3956369430088600  0.2810815908570277  0.3721607811677572
  0.6042955072846183  0.7189493586934361  0.6278396645821118
  0.2382767794991736  0.3373809920281587  0.1047154288844681
  0.7617153392386129  0.6625968111521985  0.8952779757134550
  0.7617158584377890  0.3374067457880656  0.3952779605976673
  0.2382765946724277  0.6626216824453621  0.6047148276111614
  0.7382767750469412  0.8373806216458277  0.1047152793154567
  0.2617157586335992  0.1625971677668900  0.8952783389462979
  0.2617159646461218  0.8374081596497689  0.3952777622230599
  0.7382770702483441  0.1626209138039059  0.6047154756756896
  0.4898256347827328  0.6786999408201098  0.1503497158470424
  0.5101636983371165  0.3213141195679938  0.8496460199055420
  0.5101620224244812  0.6786871174588640  0.3496461186579367
  0.4898273083905664  0.3213020527256276  0.6503496697552791
  0.9898257863252908  0.1786997723532124  0.1503497113335115
  0.0101624601256773  0.8213147411746959  0.8496460831007866
  0.0101621652691080  0.1786875031665360  0.3496461166528491
  0.9898259271531344  0.8213019244104842  0.6503497663682012
  0.3095087106549670  0.7193218341686318  0.1897995953207285
  0.6904955213154196  0.2806936986029669  0.8102118894506773
  0.6905060247529988  0.7193184232957535  0.3102149448225617
  0.3094961586930580  0.2806800223018158  0.6897963566095555
  0.8095081111153988  0.2193224122957744  0.1897993905736541
  0.1904986884842188  0.7806849141675940  0.8102137057377021
  0.1905053235665264  0.2193178519062400  0.3102146536164341
  0.8095010361032280  0.7806828035154751  0.6897983141638164
  0.1255186768082837  0.7089068864568446  0.2313274699302923
  0.8744914817613747  0.2910925150599724  0.7686772995353124
  0.8744937748982338  0.7089093762658507  0.2686777897701020
  0.1255162359403812  0.2910929817681023  0.7313273123651811
  0.6255186644764450  0.2089058185553796  0.2313275337415561
  0.3744922259566010  0.7910913357833209  0.7686777919884662
  0.3744937161897823  0.2089088233566088  0.2686776508732649
  0.6255165324724246  0.7910846184877087  0.7313274573173985
  0.0522569991108242  0.3026697163323036  0.0535682001173186
  0.9477414637627675  0.6973252185362497  0.9464312456231667
  0.9477415906113364  0.3026795940226350  0.4464309271864551
  0.0522564317395080  0.6973345211302799  0.5535676133160194
  0.5522569341325934  0.8026699714567584  0.0535681651454638
  0.4477415207367841  0.1973230336474785  0.9464308608892154
  0.4477413243100585  0.8026781508928167  0.4464312815425657
  0.5522565467685467  0.1973349740073971  0.5535676819670385
  0.3297499444564664  0.7754796925959511  0.0707910214778238
  0.6702374928025279  0.2246446958417394  0.9292063245277475
  0.6702368840282062  0.7753588807762313  0.4292063602253648
  0.3297501696677259  0.2245232406671107  0.5707907459020021
  0.8297499104199346  0.2754800797814170  0.0707909329370437
  0.1702368992195886  0.7246437332763307  0.9292062646716772
  0.1702371028911216  0.2753571787743851  0.4292062493377813
  0.8297502165051753  0.7245233791938048  0.5707908488883291
  0.1967454480522548  0.2448438390109757  0.1958929949045540
  0.8032450357222487  0.7551763776329068  0.8041169260956593
  0.8032453305879343  0.2448283445801707  0.3041165942588933
  0.1967445792390876  0.7551597317321423  0.6958928660360897
  0.6967455297495206  0.7448439283785149  0.1958929551870980
  0.3032429659842606  0.2551709750758775  0.8041170359274901
  0.3032455011200099  0.7448278167097442  0.3041164704639172
  0.6967438124243657  0.2551615853763209  0.6958930260014426
  0.4067662055131507  0.1947187869171074  0.1758219909849572
  0.5932253340396230  0.8052934487213292  0.8241862562962510
  0.5932286019571578  0.1946922696057385  0.3241890197281592
  0.4067629580625294  0.8052819307712085  0.6758207181174356
  0.9067660899317431  0.6947190519709281  0.1758218461960297
  0.0932272752310439  0.3053026642258487  0.8241878982952073
  0.0932287961693987  0.6946934335187933  0.3241886689122495
  0.9067645071549606  0.3052823076795974  0.6758215081784158
  0.0990633711489153  0.2102549733012538  0.0104885695342887
  0.9009866992528472  0.7899449548401023  0.9895126014720930
  0.9009859894501275  0.2100645410690518  0.4895123621933593
  0.0990639355887666  0.7897486963734934  0.5104882565339679
  0.5990636757784884  0.7102570672048358  0.0104885152465926
  0.4009864464122472  0.2899424959754882  0.9895123401828982
  0.4009862520078542  0.7100590975750194  0.4895124935296664
  0.5990631467703906  0.2897519018756114  0.5104882836345084
  0.0694190104217114  0.5932904395168705  0.0628529518435670
  0.9305257202711914  0.4067088415618016  0.9371510370980545
  0.9305282487169464  0.5932955576803352  0.4371504686917831
  0.0694168854088133  0.4067135372573034  0.5628529873427439
  0.5694189064334978  0.0932908064400095  0.0628529385637009
  0.4305273253242135  0.9067067757720721  0.9371508463839788
  0.4305253668670446  0.0932941891575325  0.4371509999232401
  0.5694164028658335  0.9067137592097367  0.5628530431985084
  0.0947999446909691  0.1469232670904148  0.0953965323614341
  0.9052049789244805  0.8530979580042484  0.9046108495979013
  0.9052049250332246  0.1469052605479035  0.4046105772760455
  0.0947993611791134  0.8530781979737796  0.5953964304388109
  0.5947998693837491  0.6469237065713855  0.0953965691311467
  0.4052040882348891  0.3530954793737777  0.9046104825920978
  0.4052045619695264  0.6469060221366405  0.4046106985096927
  0.5947987457666670  0.3530797770984435  0.5953963061033534
  0.4342604657864442  0.7463303394749445  0.0480455355120881
  0.5657373376721111  0.2535304472866002  0.9519622766484162
  0.5657376972996317  0.7464742912717810  0.4519622960268208
  0.4342597467797873  0.2536756807329894  0.5480454927692975
  0.9342602506887800  0.2463308443039409  0.0480456161698584
  0.0657376876735540  0.7535294418257479  0.9519622773663059
  0.0657377204590759  0.2464729123163920  0.4519623503033472
  0.9342603326506520  0.7536758036925093  0.5480452785666188
  0.2632575823944165  0.5843686496203233  0.0425017454850902
  0.7366802847927119  0.4158495664050648  0.9575013908749028
  0.7366818018446111  0.5841585099159445  0.4575013160603163
  0.2632570760336534  0.4156342425649413  0.5425019945531488
  0.7632574063407702  0.0843700824878795  0.0425017011832196
  0.2366811798120949  0.9158455927137581  0.9575012562411160
  0.2366810720521286  0.0841548650302073  0.4575013614608849
  0.7632572324824096  0.9156366363204285  0.5425021279100832
  0.2917740169546335  0.0531796589918585  0.0630063016375217
  0.7082830776564961  0.9469679136604583  0.9369595605689085
  0.7082810359864595  0.0530369925100302  0.4369592893376790
  0.2917752609061210  0.9468226851604129  0.5630059527777007
  0.7917744659612325  0.5531807859805724  0.0630060969850419
  0.2082817341162908  0.4469657673786429  0.9369593561641238
  0.2082826289189867  0.5530336477040407  0.4369585340251874
  0.7917744248421457  0.4468246436879610  0.5630061825175119
  0.3380106646518470  0.6884827426550828  0.1212541106411607
  0.6619470247315462  0.3116354229688341  0.8787457395346081
  0.6619456777330228  0.6883703747419005  0.3787452573317012
  0.3380121694242604  0.3115206766115080  0.6212542567718629
  0.8380106318784968  0.1884835582942586  0.1212541261850575
  0.1619464043402914  0.8116350428818180  0.8787455770757546
  0.1619454990008364  0.1883680622714436  0.3787451695351507
  0.8380121353594063  0.8115212585522684  0.6212541628383832
  0.1697837026421993  0.5008451330635708  0.1701326703884689
  0.8302027450010883  0.4991642028447245  0.8298789311700858
  0.8302024601251006  0.5008408440353165  0.3298787978639766
  0.1697835349137549  0.4991578035453585  0.6701325318201512
  0.6697837259454786  0.0008451139184160  0.1701327202378451
  0.3302021534898145  0.9991600190479204  0.8298786297650622
  0.3302022228967019  0.0008402430013703  0.3298787790686930
  0.6697829570366736  0.9991587708865453  0.6701325305043895
  0.1124680750763218  0.0481489519309264  0.1915779124528143
  0.8874955632732053  0.9519291558489655  0.8084461768328950
  0.8874949526211964  0.0480727970970918  0.3084465524233266
  0.1124690191923605  0.9518568049952236  0.6915770991108019
  0.6124679630816772  0.5481491726164904  0.1915781367021623
  0.3874954222861362  0.4519177522588720  0.8084443851425576
  0.3874948653865928  0.5480717914083684  0.3084466362822340
  0.6124697959864989  0.4518608331424119  0.6915750233788032
  0.2240057359968688  0.3207666438607930  0.2459709372953682
  0.7759617895464714  0.6792408232925595  0.7540410277132565
  0.7759591967547621  0.3207632508376292  0.2540409444045792
  0.2240083278154756  0.6792380644851121  0.7459706938713637
  0.7240055271113732  0.8207666418774622  0.2459709381986812
  0.2759639771795435  0.1792394747944073  0.7540403588748035
  0.2759589765584423  0.8207631625470242  0.2540409680078071
  0.7240093930621327  0.1792418732713159  0.7459707482185536
  0.2886859789279015  0.1304140065654948  0.1688218008524487
  0.7113016986401774  0.8696078226186330  0.8311886852583967
  0.7113042079430798  0.1303897858982594  0.3311903031667924
  0.2886852445008543  0.8695905997177320  0.6688211057075435
  0.7886858830232626  0.6304140194076240  0.1688217612198244
  0.2113036684426532  0.3696129922276938  0.8311897980447114
  0.2113041034399785  0.6303897824577831  0.3311901355393374
  0.7886866379139335  0.3695883364990493  0.6688216884461653
  0.4534337812487905  0.2556747639732606  0.1311441800462703
  0.5465397778134005  0.7444093360161119  0.8688625545254993
  0.5465377972502239  0.2555867280884883  0.3688631911720108
  0.4534326367637007  0.7443292191177378  0.6311439068239721
  0.9534339373887661  0.7556749068680944  0.1311441929741051
  0.0465384021500270  0.2444156454421176  0.8688628415801816
  0.0465386696875711  0.7555878387446668  0.3688630636544943
  0.9534327059202568  0.2443283313944278  0.6311439677971791
  0.4549370422972316  0.9590816674519047  0.2007069821668779
  0.5450496191376715  0.0409007161436179  0.7992931254011708
  0.5450580563669263  0.9590929952466141  0.2992919342704852
  0.4549326057970262  0.0409166720957117  0.7007062552606342
  0.9549366649502034  0.4590823549823924  0.2007068941243659
  0.0450564137323184  0.5409064065949494  0.7992920577276479
  0.0450575459810807  0.4590938005221830  0.2992919289695308
  0.9549360332201502  0.5409175661190631  0.7007064747340479
  0.4169905636236848  0.4285874759323889  0.2083194118037497
  0.5830175717992176  0.5713857451003150  0.7916986371278867
  0.5830404903914967  0.4286018592907510  0.2917036194014244
  0.4169799925145128  0.5714169274344840  0.7083178522729057
  0.9169898445365874  0.9285871888083648  0.2083193332876192
  0.0830327375740154  0.0713945797800903  0.7917013392187400
  0.0830390439494479  0.9286031933335366  0.2917031880328196
  0.9169880744450083  0.0714155243734425  0.7083187254011989
 
  0.00000000E+00  0.00000000E+00  0.00000000E+00
  0.00000000E+00  0.00000000E+00  0.00000000E+00
  0.00000000E+00  0.00000000E+00  0.00000000E+00
  0.00000000E+00  0.00000000E+00  0.00000000E+00
  0.00000000E+00  0.00000000E+00  0.00000000E+00
  0.00000000E+00  0.00000000E+00  0.00000000E+00
  0.00000000E+00  0.00000000E+00  0.00000000E+00
  0.00000000E+00  0.00000000E+00  0.00000000E+00
  0.00000000E+00  0.00000000E+00  0.00000000E+00
  0.00000000E+00  0.00000000E+00  0.00000000E+00
  0.00000000E+00  0.00000000E+00  0.00000000E+00
  0.00000000E+00  0.00000000E+00  0.00000000E+00
  0.00000000E+00  0.00000000E+00  0.00000000E+00
  0.00000000E+00  0.00000000E+00  0.00000000E+00
  0.00000000E+00  0.00000000E+00  0.00000000E+00
  0.00000000E+00  0.00000000E+00  0.00000000E+00
  0.00000000E+00  0.00000000E+00  0.00000000E+00
  0.00000000E+00  0.00000000E+00  0.00000000E+00
  0.00000000E+00  0.00000000E+00  0.00000000E+00
  0.00000000E+00  0.00000000E+00  0.00000000E+00
  0.00000000E+00  0.00000000E+00  0.00000000E+00
  0.00000000E+00  0.00000000E+00  0.00000000E+00
  0.00000000E+00  0.00000000E+00  0.00000000E+00
  0.00000000E+00  0.00000000E+00  0.00000000E+00
  0.00000000E+00  0.00000000E+00  0.00000000E+00
  0.00000000E+00  0.00000000E+00  0.00000000E+00
  0.00000000E+00  0.00000000E+00  0.00000000E+00
  0.00000000E+00  0.00000000E+00  0.00000000E+00
  0.00000000E+00  0.00000000E+00  0.00000000E+00
  0.00000000E+00  0.00000000E+00  0.00000000E+00
  0.00000000E+00  0.00000000E+00  0.00000000E+00
  0.00000000E+00  0.00000000E+00  0.00000000E+00
  0.00000000E+00  0.00000000E+00  0.00000000E+00
  0.00000000E+00  0.00000000E+00  0.00000000E+00
  0.00000000E+00  0.00000000E+00  0.00000000E+00
  0.00000000E+00  0.00000000E+00  0.00000000E+00
  0.00000000E+00  0.00000000E+00  0.00000000E+00
  0.00000000E+00  0.00000000E+00  0.00000000E+00
  0.00000000E+00  0.00000000E+00  0.00000000E+00
  0.00000000E+00  0.00000000E+00  0.00000000E+00
  0.00000000E+00  0.00000000E+00  0.00000000E+00
  0.00000000E+00  0.00000000E+00  0.00000000E+00
  0.00000000E+00  0.00000000E+00  0.00000000E+00
  0.00000000E+00  0.00000000E+00  0.00000000E+00
  0.00000000E+00  0.00000000E+00  0.00000000E+00
  0.00000000E+00  0.00000000E+00  0.00000000E+00
  0.00000000E+00  0.00000000E+00  0.00000000E+00
  0.00000000E+00  0.00000000E+00  0.00000000E+00
  0.00000000E+00  0.00000000E+00  0.00000000E+00
  0.00000000E+00  0.00000000E+00  0.00000000E+00
  0.00000000E+00  0.00000000E+00  0.00000000E+00
  0.00000000E+00  0.00000000E+00  0.00000000E+00
  0.00000000E+00  0.00000000E+00  0.00000000E+00
  0.00000000E+00  0.00000000E+00  0.00000000E+00
  0.00000000E+00  0.00000000E+00  0.00000000E+00
  0.00000000E+00  0.00000000E+00  0.00000000E+00
  0.00000000E+00  0.00000000E+00  0.00000000E+00
  0.00000000E+00  0.00000000E+00  0.00000000E+00
  0.00000000E+00  0.00000000E+00  0.00000000E+00
  0.00000000E+00  0.00000000E+00  0.00000000E+00
  0.00000000E+00  0.00000000E+00  0.00000000E+00
  0.00000000E+00  0.00000000E+00  0.00000000E+00
  0.00000000E+00  0.00000000E+00  0.00000000E+00
  0.00000000E+00  0.00000000E+00  0.00000000E+00
  0.00000000E+00  0.00000000E+00  0.00000000E+00
  0.00000000E+00  0.00000000E+00  0.00000000E+00
  0.00000000E+00  0.00000000E+00  0.00000000E+00
  0.00000000E+00  0.00000000E+00  0.00000000E+00
  0.00000000E+00  0.00000000E+00  0.00000000E+00
  0.00000000E+00  0.00000000E+00  0.00000000E+00
  0.00000000E+00  0.00000000E+00  0.00000000E+00
  0.00000000E+00  0.00000000E+00  0.00000000E+00
  0.00000000E+00  0.00000000E+00  0.00000000E+00
  0.00000000E+00  0.00000000E+00  0.00000000E+00
  0.00000000E+00  0.00000000E+00  0.00000000E+00
  0.00000000E+00  0.00000000E+00  0.00000000E+00
  0.00000000E+00  0.00000000E+00  0.00000000E+00
  0.00000000E+00  0.00000000E+00  0.00000000E+00
  0.00000000E+00  0.00000000E+00  0.00000000E+00
  0.00000000E+00  0.00000000E+00  0.00000000E+00
  0.00000000E+00  0.00000000E+00  0.00000000E+00
  0.00000000E+00  0.00000000E+00  0.00000000E+00
  0.00000000E+00  0.00000000E+00  0.00000000E+00
  0.00000000E+00  0.00000000E+00  0.00000000E+00
  0.00000000E+00  0.00000000E+00  0.00000000E+00
  0.00000000E+00  0.00000000E+00  0.00000000E+00
  0.00000000E+00  0.00000000E+00  0.00000000E+00
  0.00000000E+00  0.00000000E+00  0.00000000E+00
  0.00000000E+00  0.00000000E+00  0.00000000E+00
  0.00000000E+00  0.00000000E+00  0.00000000E+00
  0.00000000E+00  0.00000000E+00  0.00000000E+00
  0.00000000E+00  0.00000000E+00  0.00000000E+00
  0.00000000E+00  0.00000000E+00  0.00000000E+00
  0.00000000E+00  0.00000000E+00  0.00000000E+00
  0.00000000E+00  0.00000000E+00  0.00000000E+00
  0.00000000E+00  0.00000000E+00  0.00000000E+00
  0.00000000E+00  0.00000000E+00  0.00000000E+00
  0.00000000E+00  0.00000000E+00  0.00000000E+00
  0.00000000E+00  0.00000000E+00  0.00000000E+00
  0.00000000E+00  0.00000000E+00  0.00000000E+00
  0.00000000E+00  0.00000000E+00  0.00000000E+00
  0.00000000E+00  0.00000000E+00  0.00000000E+00
  0.00000000E+00  0.00000000E+00  0.00000000E+00
  0.00000000E+00  0.00000000E+00  0.00000000E+00
  0.00000000E+00  0.00000000E+00  0.00000000E+00
  0.00000000E+00  0.00000000E+00  0.00000000E+00
  0.00000000E+00  0.00000000E+00  0.00000000E+00
  0.00000000E+00  0.00000000E+00  0.00000000E+00
  0.00000000E+00  0.00000000E+00  0.00000000E+00
  0.00000000E+00  0.00000000E+00  0.00000000E+00
  0.00000000E+00  0.00000000E+00  0.00000000E+00
  0.00000000E+00  0.00000000E+00  0.00000000E+00
  0.00000000E+00  0.00000000E+00  0.00000000E+00
  0.00000000E+00  0.00000000E+00  0.00000000E+00
  0.00000000E+00  0.00000000E+00  0.00000000E+00
  0.00000000E+00  0.00000000E+00  0.00000000E+00
  0.00000000E+00  0.00000000E+00  0.00000000E+00
  0.00000000E+00  0.00000000E+00  0.00000000E+00
  0.00000000E+00  0.00000000E+00  0.00000000E+00
  0.00000000E+00  0.00000000E+00  0.00000000E+00
  0.00000000E+00  0.00000000E+00  0.00000000E+00
  0.00000000E+00  0.00000000E+00  0.00000000E+00
  0.00000000E+00  0.00000000E+00  0.00000000E+00
  0.00000000E+00  0.00000000E+00  0.00000000E+00
  0.00000000E+00  0.00000000E+00  0.00000000E+00
  0.00000000E+00  0.00000000E+00  0.00000000E+00
  0.00000000E+00  0.00000000E+00  0.00000000E+00
  0.00000000E+00  0.00000000E+00  0.00000000E+00
  0.00000000E+00  0.00000000E+00  0.00000000E+00
  0.00000000E+00  0.00000000E+00  0.00000000E+00
  0.00000000E+00  0.00000000E+00  0.00000000E+00
  0.00000000E+00  0.00000000E+00  0.00000000E+00
  0.00000000E+00  0.00000000E+00  0.00000000E+00
  0.00000000E+00  0.00000000E+00  0.00000000E+00
  0.00000000E+00  0.00000000E+00  0.00000000E+00
  0.00000000E+00  0.00000000E+00  0.00000000E+00
  0.00000000E+00  0.00000000E+00  0.00000000E+00
  0.00000000E+00  0.00000000E+00  0.00000000E+00
  0.00000000E+00  0.00000000E+00  0.00000000E+00
  0.00000000E+00  0.00000000E+00  0.00000000E+00
  0.00000000E+00  0.00000000E+00  0.00000000E+00
  0.00000000E+00  0.00000000E+00  0.00000000E+00
  0.00000000E+00  0.00000000E+00  0.00000000E+00
  0.00000000E+00  0.00000000E+00  0.00000000E+00
  0.00000000E+00  0.00000000E+00  0.00000000E+00
  0.00000000E+00  0.00000000E+00  0.00000000E+00
  0.00000000E+00  0.00000000E+00  0.00000000E+00
  0.00000000E+00  0.00000000E+00  0.00000000E+00
  0.00000000E+00  0.00000000E+00  0.00000000E+00
  0.00000000E+00  0.00000000E+00  0.00000000E+00
  0.00000000E+00  0.00000000E+00  0.00000000E+00
  0.00000000E+00  0.00000000E+00  0.00000000E+00
  0.00000000E+00  0.00000000E+00  0.00000000E+00
  0.00000000E+00  0.00000000E+00  0.00000000E+00
  0.00000000E+00  0.00000000E+00  0.00000000E+00
  0.00000000E+00  0.00000000E+00  0.00000000E+00
  0.00000000E+00  0.00000000E+00  0.00000000E+00
  0.00000000E+00  0.00000000E+00  0.00000000E+00
  0.00000000E+00  0.00000000E+00  0.00000000E+00
  0.00000000E+00  0.00000000E+00  0.00000000E+00
  0.00000000E+00  0.00000000E+00  0.00000000E+00
  0.00000000E+00  0.00000000E+00  0.00000000E+00
  0.00000000E+00  0.00000000E+00  0.00000000E+00
  0.00000000E+00  0.00000000E+00  0.00000000E+00
  0.00000000E+00  0.00000000E+00  0.00000000E+00
  0.00000000E+00  0.00000000E+00  0.00000000E+00
  0.00000000E+00  0.00000000E+00  0.00000000E+00
  0.00000000E+00  0.00000000E+00  0.00000000E+00
  0.00000000E+00  0.00000000E+00  0.00000000E+00
  0.00000000E+00  0.00000000E+00  0.00000000E+00
  0.00000000E+00  0.00000000E+00  0.00000000E+00
  0.00000000E+00  0.00000000E+00  0.00000000E+00
  0.00000000E+00  0.00000000E+00  0.00000000E+00
  0.00000000E+00  0.00000000E+00  0.00000000E+00
  0.00000000E+00  0.00000000E+00  0.00000000E+00
  0.00000000E+00  0.00000000E+00  0.00000000E+00
  0.00000000E+00  0.00000000E+00  0.00000000E+00
  0.00000000E+00  0.00000000E+00  0.00000000E+00
  0.00000000E+00  0.00000000E+00  0.00000000E+00
  0.00000000E+00  0.00000000E+00  0.00000000E+00
  0.00000000E+00  0.00000000E+00  0.00000000E+00
  0.00000000E+00  0.00000000E+00  0.00000000E+00
  0.00000000E+00  0.00000000E+00  0.00000000E+00
  0.00000000E+00  0.00000000E+00  0.00000000E+00
  0.00000000E+00  0.00000000E+00  0.00000000E+00
  0.00000000E+00  0.00000000E+00  0.00000000E+00
  0.00000000E+00  0.00000000E+00  0.00000000E+00
  0.00000000E+00  0.00000000E+00  0.00000000E+00
  0.00000000E+00  0.00000000E+00  0.00000000E+00
  0.00000000E+00  0.00000000E+00  0.00000000E+00
  0.00000000E+00  0.00000000E+00  0.00000000E+00
  0.00000000E+00  0.00000000E+00  0.00000000E+00
  0.00000000E+00  0.00000000E+00  0.00000000E+00
  0.00000000E+00  0.00000000E+00  0.00000000E+00
  0.00000000E+00  0.00000000E+00  0.00000000E+00
  0.00000000E+00  0.00000000E+00  0.00000000E+00
  0.00000000E+00  0.00000000E+00  0.00000000E+00
  0.00000000E+00  0.00000000E+00  0.00000000E+00
  0.00000000E+00  0.00000000E+00  0.00000000E+00
  0.00000000E+00  0.00000000E+00  0.00000000E+00
  0.00000000E+00  0.00000000E+00  0.00000000E+00
  0.00000000E+00  0.00000000E+00  0.00000000E+00
  0.00000000E+00  0.00000000E+00  0.00000000E+00
  0.00000000E+00  0.00000000E+00  0.00000000E+00
  0.00000000E+00  0.00000000E+00  0.00000000E+00
  0.00000000E+00  0.00000000E+00  0.00000000E+00
  0.00000000E+00  0.00000000E+00  0.00000000E+00
  0.00000000E+00  0.00000000E+00  0.00000000E+00
