Fe4 O4 F8                               
   1.00000000000000     
     5.1130167222929517    0.0296111247605951    0.0453101930150974
     0.0403215571946370    5.2355737293205307   -0.0982142832790702
     0.0784264321478702   -0.0706254474187173    7.3956298311056896
   Fe   O    F 
     4     4     8
Direct
  0.5015497788711258  0.0047039134943005  0.9958014432268533
  0.9979970544604208  0.5008678275232172  0.0073028468528096
  0.4898009844670177  0.0059412278561545  0.4985883154342427
  0.0117741735874863  0.4793659853207933  0.5059675520045589
  0.3288099343279056  0.6731528832592264  0.9389841690894977
  0.8271712924411739  0.7833247882698792  0.4385306961385150
  0.1706761739357338  0.1914384836552573  0.5352860098375876
  0.0944837777739835  0.5051496744307287  0.2614225544367887
  0.6734258918331566  0.3227377430816373  0.0553900654554079
  0.1742853993786375  0.1790078252320753  0.9579013423186401
  0.8182882649509632  0.8213884599415854  0.0455489525118267
  0.3169466120775415  0.6993977330084011  0.5646938805261106
  0.6786793230714925  0.3101839872315172  0.4493593725972971
  0.9050443801181848  0.5249732388187648  0.7525319795217393
  0.6043787918473854  0.0381975629225140  0.7458090853259950
  0.4066881668577778  0.9601686659539477  0.2468817347221300
 
  0.00000000E+00  0.00000000E+00  0.00000000E+00
  0.00000000E+00  0.00000000E+00  0.00000000E+00
  0.00000000E+00  0.00000000E+00  0.00000000E+00
  0.00000000E+00  0.00000000E+00  0.00000000E+00
  0.00000000E+00  0.00000000E+00  0.00000000E+00
  0.00000000E+00  0.00000000E+00  0.00000000E+00
  0.00000000E+00  0.00000000E+00  0.00000000E+00
  0.00000000E+00  0.00000000E+00  0.00000000E+00
  0.00000000E+00  0.00000000E+00  0.00000000E+00
  0.00000000E+00  0.00000000E+00  0.00000000E+00
  0.00000000E+00  0.00000000E+00  0.00000000E+00
  0.00000000E+00  0.00000000E+00  0.00000000E+00
  0.00000000E+00  0.00000000E+00  0.00000000E+00
  0.00000000E+00  0.00000000E+00  0.00000000E+00
  0.00000000E+00  0.00000000E+00  0.00000000E+00
  0.00000000E+00  0.00000000E+00  0.00000000E+00
