Ni8 O8 F16                              
   1.00000000000000     
     7.4056631922599774    0.0023607531786934   -0.0527981232672022
    -0.0013094006060527    7.5818752797156206    0.0067144878271813
    -0.0720465169054990   -0.0137204669892050    7.5667559933365185
   Ni   O    F 
     8     8    16
Direct
  0.9982472827461929  0.0000195584227257  0.9996538391448583
  0.0018041251985585  0.0000195214382753  0.4956006251905298
  0.9998066861846442  0.5000080787676823  0.9995895421579398
  0.9998352136854830  0.5000056572369551  0.4998738069494694
  0.5018329409933132  0.9999664017575238  0.0008354494848849
  0.4982180814063321  0.0000094920756185  0.5042138046963771
  0.5002874397411987  0.4999948336845477  0.0002325063115804
  0.4996254136737290  0.5000809638465487  0.4999966404932315
  0.2494652161645378  0.5000619294613454  0.4999128279209152
  0.7501333859466424  0.4999724362641985  0.9998775911723001
  0.7503625130953698  0.5000327227676097  0.4997249305141193
  0.9827156052117253  0.0008267471672798  0.7357312480068592
  0.5172416936464772  0.9991170869330364  0.2650780287522196
  0.2497881665291262  0.4999607738702298  0.9999791101278174
  0.7522272500688387  0.9998564571906255  0.9986819775321905
  0.7586133774478172  0.0002016733237871  0.5032796380586358
  0.0029287221326438  0.9990361591985507  0.2557642722570677
  0.4963735299737931  0.0008425933084290  0.7437185787808421
  0.2444788411506293  0.9999252577095236  0.5029544301960037
  0.9951858980079631  0.7570611031593262  0.9921706528418788
  0.5034653319807543  0.2467224541729361  0.0066778170009349
  0.9994726921753004  0.4982714951774084  0.2452068920505082
  0.0022116121666021  0.5011282584229707  0.7539833555427954
  0.4967693940734856  0.4984712496251603  0.2502604271389491
  0.5008400732254534  0.5021759038888971  0.7502195655893783
  0.2470330962687972  0.9999607205144971  0.9983843789564920
  0.9950279034921971  0.2429226916686085  0.9917820215024117
  0.9931620200488043  0.2530892355196072  0.5015707997282197
  0.9931091696816220  0.7469252701894259  0.5039436439964452
  0.5080735605757394  0.2443883714618222  0.4959720039106186
  0.5035053308201487  0.7532777361938999  0.0071710876424043
  0.5081584324860796  0.7556671655809338  0.4979585063511080
 
  0.00000000E+00  0.00000000E+00  0.00000000E+00
  0.00000000E+00  0.00000000E+00  0.00000000E+00
  0.00000000E+00  0.00000000E+00  0.00000000E+00
  0.00000000E+00  0.00000000E+00  0.00000000E+00
  0.00000000E+00  0.00000000E+00  0.00000000E+00
  0.00000000E+00  0.00000000E+00  0.00000000E+00
  0.00000000E+00  0.00000000E+00  0.00000000E+00
  0.00000000E+00  0.00000000E+00  0.00000000E+00
  0.00000000E+00  0.00000000E+00  0.00000000E+00
  0.00000000E+00  0.00000000E+00  0.00000000E+00
  0.00000000E+00  0.00000000E+00  0.00000000E+00
  0.00000000E+00  0.00000000E+00  0.00000000E+00
  0.00000000E+00  0.00000000E+00  0.00000000E+00
  0.00000000E+00  0.00000000E+00  0.00000000E+00
  0.00000000E+00  0.00000000E+00  0.00000000E+00
  0.00000000E+00  0.00000000E+00  0.00000000E+00
  0.00000000E+00  0.00000000E+00  0.00000000E+00
  0.00000000E+00  0.00000000E+00  0.00000000E+00
  0.00000000E+00  0.00000000E+00  0.00000000E+00
  0.00000000E+00  0.00000000E+00  0.00000000E+00
  0.00000000E+00  0.00000000E+00  0.00000000E+00
  0.00000000E+00  0.00000000E+00  0.00000000E+00
  0.00000000E+00  0.00000000E+00  0.00000000E+00
  0.00000000E+00  0.00000000E+00  0.00000000E+00
  0.00000000E+00  0.00000000E+00  0.00000000E+00
  0.00000000E+00  0.00000000E+00  0.00000000E+00
  0.00000000E+00  0.00000000E+00  0.00000000E+00
  0.00000000E+00  0.00000000E+00  0.00000000E+00
  0.00000000E+00  0.00000000E+00  0.00000000E+00
  0.00000000E+00  0.00000000E+00  0.00000000E+00
  0.00000000E+00  0.00000000E+00  0.00000000E+00
  0.00000000E+00  0.00000000E+00  0.00000000E+00
