Co8 O8 F16                              
   1.00000000000000     
     7.6499633876480519   -0.0002267304600815    0.0041938199060147
     0.0055559100742071    7.6107489194949789   -0.0152239688302663
    -0.0080091745889136   -0.0164184707888006    7.6168135529992371
   Co   O    F 
     8     8    16
Direct
 -0.0000377608702318  0.0024842009220395  0.9965496991006225
  0.9968068180013016  0.9979656758760331  0.4953921130997389
  0.0025167277817298  0.5033675213164852  0.0085093003137891
  0.0000753524332471  0.4976819827752459  0.5062009763981623
  0.4999620693432726  0.0039965810036421  0.9987057968164224
  0.4978338292246954  0.9915294516577559  0.4979417971391883
  0.5033033481798806  0.5047329952926798  0.0019450333759413
  0.4999508573455516  0.4932570358370073  0.5021153614943201
  0.0013223024125997  0.5004739362232481  0.2551704402923703
  0.5030621091209364  0.5095031277723349  0.2536060535998224
  0.5017163519655949  0.5082945383714553  0.7523881776120951
  0.2502051436662958  0.0048720764278298  0.9957315347193151
  0.7495045510751489  0.0049255240304559  0.9958309136291706
  0.9986755756285587  0.2476085679889155  0.4914747450266997
  0.9983734079186838  0.7459204784617098  0.4899021038736180
  0.4995838591481558  0.7441054374671711  0.4999622727688970
  0.9984572334581647  0.9982785365255605  0.2501613580857331
  0.4991005528234675  0.9974620053694967  0.7505752894137645
  0.2530681228075882  0.0019384948237228  0.4968553815263391
  0.2501284380465410  0.4879922791646068  0.5115426446454699
  0.7578218601363153  0.5030152216565232  0.9966080274137747
  0.7501294850465599  0.4870415632586181  0.5111728638218730
  0.0004162538478967  0.7563483666313051  0.0016497653504008
  0.5006317159164064  0.2583590102043869  0.0026336249284202
  0.9987895896442127  0.9969871335684043  0.7411341694489533
  0.0008960750807192  0.5012820917392379  0.7526994093923456
  0.4988189706430290  0.9975695918328624  0.2458208244199442
  0.2467615224475770  0.5032495429790421  0.9968687141333720
  0.7424729774689882  0.0032262579165534  0.4976312326855798
  0.0004945254080236  0.2490787150955737  0.0023346435730306
  0.4984211296249709  0.2468762586632899  0.4989977500883030
  0.5007370052241257  0.7505757991467996  0.0018879818125438
 
  0.00000000E+00  0.00000000E+00  0.00000000E+00
  0.00000000E+00  0.00000000E+00  0.00000000E+00
  0.00000000E+00  0.00000000E+00  0.00000000E+00
  0.00000000E+00  0.00000000E+00  0.00000000E+00
  0.00000000E+00  0.00000000E+00  0.00000000E+00
  0.00000000E+00  0.00000000E+00  0.00000000E+00
  0.00000000E+00  0.00000000E+00  0.00000000E+00
  0.00000000E+00  0.00000000E+00  0.00000000E+00
  0.00000000E+00  0.00000000E+00  0.00000000E+00
  0.00000000E+00  0.00000000E+00  0.00000000E+00
  0.00000000E+00  0.00000000E+00  0.00000000E+00
  0.00000000E+00  0.00000000E+00  0.00000000E+00
  0.00000000E+00  0.00000000E+00  0.00000000E+00
  0.00000000E+00  0.00000000E+00  0.00000000E+00
  0.00000000E+00  0.00000000E+00  0.00000000E+00
  0.00000000E+00  0.00000000E+00  0.00000000E+00
  0.00000000E+00  0.00000000E+00  0.00000000E+00
  0.00000000E+00  0.00000000E+00  0.00000000E+00
  0.00000000E+00  0.00000000E+00  0.00000000E+00
  0.00000000E+00  0.00000000E+00  0.00000000E+00
  0.00000000E+00  0.00000000E+00  0.00000000E+00
  0.00000000E+00  0.00000000E+00  0.00000000E+00
  0.00000000E+00  0.00000000E+00  0.00000000E+00
  0.00000000E+00  0.00000000E+00  0.00000000E+00
  0.00000000E+00  0.00000000E+00  0.00000000E+00
  0.00000000E+00  0.00000000E+00  0.00000000E+00
  0.00000000E+00  0.00000000E+00  0.00000000E+00
  0.00000000E+00  0.00000000E+00  0.00000000E+00
  0.00000000E+00  0.00000000E+00  0.00000000E+00
  0.00000000E+00  0.00000000E+00  0.00000000E+00
  0.00000000E+00  0.00000000E+00  0.00000000E+00
  0.00000000E+00  0.00000000E+00  0.00000000E+00
