Na2 Ti2 O4 F2                           
   1.00000000000000     
    -2.8115895176563592   -4.6707793424434492    0.0712028946165231
    -5.4506220988313956   -0.1002148337025308    0.0711652828041425
    -2.6909246487748182   -1.5537785952409544   -4.4081102393353726
   Na   Ti   O    F 
     2     2     4     2
Direct
  0.2237181787715483  0.2844484842967596  0.2340148766688236
  0.7844196681950978  0.7237202959432399  0.7340310000225373
  0.0044597478154875  0.0045243530705320  0.9861488880186604
  0.5045542823231121  0.5044292835765726  0.4861520039322898
  0.2085011757436729  0.7084478147623182  0.2825645798100206
  0.2083774793422979  0.7085086653991278  0.7826271219791375
  0.8016834566785679  0.3009090634603873  0.6899092329605413
  0.8009085458132696  0.3016084277752153  0.1898901800773324
  0.6526827019220478  0.8567242737673701  0.2383152756834251
  0.3566947633949046  0.1526793379484765  0.7383468408472266
 
  0.00000000E+00  0.00000000E+00  0.00000000E+00
  0.00000000E+00  0.00000000E+00  0.00000000E+00
  0.00000000E+00  0.00000000E+00  0.00000000E+00
  0.00000000E+00  0.00000000E+00  0.00000000E+00
  0.00000000E+00  0.00000000E+00  0.00000000E+00
  0.00000000E+00  0.00000000E+00  0.00000000E+00
  0.00000000E+00  0.00000000E+00  0.00000000E+00
  0.00000000E+00  0.00000000E+00  0.00000000E+00
  0.00000000E+00  0.00000000E+00  0.00000000E+00
  0.00000000E+00  0.00000000E+00  0.00000000E+00
