Ti4 O4 F8                               
   1.00000000000000     
     5.4531126817200040    0.0788896582512633   -0.0000189101544063
    -2.6572103455471217    4.9461534540375229    0.0000280185209450
    -0.0000328057540412    0.0000355753995152    9.5031693531811872
   Ti   O    F 
     4     4     8
Direct
  0.3399436936126321  0.6988828001430392  0.6070337129306438
  0.6600664774058203  0.3011446425012707  0.3929908554895434
  0.6600701946847849  0.3011401983714137  0.1070102353597306
  0.3399460783326802  0.6988830253643030  0.8929649381948934
  0.5000470302737696  0.9999955480507978  0.0000023406259686
  0.5000423388719426  0.9999977593987524  0.4999956786081228
  0.8112009609506501  0.1913460222394079  0.2500015882423057
  0.1887138923316911  0.8086901654340224  0.7499993991055547
  0.0000239574761807  0.5000329536474624  0.9999615077594370
  0.4999696799547024  0.4999870535818545  0.9999980362565495
  0.0000257850660716  0.5000370130393605  0.5000350430856031
  0.4999782959659669  0.4999869158331336  0.5000148894182672
  0.7719616919549637  0.6066756421031059  0.2499982090019159
  0.2279218913154892  0.3931894041029551  0.7499969600200203
  0.3568385721039888  0.1887415727726776  0.2499972818893923
  0.6432494596986658  0.8112692834164505  0.7499993240120446
 
  0.00000000E+00  0.00000000E+00  0.00000000E+00
  0.00000000E+00  0.00000000E+00  0.00000000E+00
  0.00000000E+00  0.00000000E+00  0.00000000E+00
  0.00000000E+00  0.00000000E+00  0.00000000E+00
  0.00000000E+00  0.00000000E+00  0.00000000E+00
  0.00000000E+00  0.00000000E+00  0.00000000E+00
  0.00000000E+00  0.00000000E+00  0.00000000E+00
  0.00000000E+00  0.00000000E+00  0.00000000E+00
  0.00000000E+00  0.00000000E+00  0.00000000E+00
  0.00000000E+00  0.00000000E+00  0.00000000E+00
  0.00000000E+00  0.00000000E+00  0.00000000E+00
  0.00000000E+00  0.00000000E+00  0.00000000E+00
  0.00000000E+00  0.00000000E+00  0.00000000E+00
  0.00000000E+00  0.00000000E+00  0.00000000E+00
  0.00000000E+00  0.00000000E+00  0.00000000E+00
  0.00000000E+00  0.00000000E+00  0.00000000E+00
