Na4 Fe4 O8 F4                           
   1.00000000000000     
     5.3832593448481978   -0.0131018418431930    0.0013154675103028
    -0.0123248525506826    5.4211978375498058   -0.0048868426621317
     0.0006216077419449   -0.0070714501402589    7.1874911557047350
   Na   Fe   O    F 
     4     4     8     4
Direct
  0.0067145578490988  0.0437727750535148  0.2476267535720060
  0.0053481138203800  0.9759869809013939  0.7480972304624911
  0.4940890502604582  0.4575602741952895  0.7505196520478844
  0.4951401832359918  0.5284100734348985  0.2508291179297216
  0.5057475864349783  0.9725935498886470  0.9988589527558454
  0.0013904935440892  0.5298616629739091  0.0005301504366800
  0.5298348441396691  0.0014975412600246  0.4951742939678980
  0.9726521390724054  0.5056900241628419  0.4963483681656989
  0.2837631093065526  0.7157717347842545  0.9609899712560696
  0.7859860624497893  0.7854903054506311  0.0400454137793759
  0.7144666883493833  0.2831285789425312  0.4606509928257475
  0.7889682181785502  0.7862996117674450  0.4605805876835692
  0.0687372186673277  0.4861638202009941  0.2503957525210827
  0.9297484201552002  0.5054929461125910  0.7518213310891572
  0.5678183245978089  0.0191370704651204  0.7502609925494785
  0.4310592425907616  0.9828861810573353  0.2516448929632222
  0.7064620185476070  0.2878152761770402  0.0411973228704476
  0.2080359698733416  0.2130896437004225  0.9656784190472021
  0.2901260785580068  0.7087429281130518  0.5424154897605252
  0.2139116803685930  0.2106090213580564  0.5363343143158967
 
  0.00000000E+00  0.00000000E+00  0.00000000E+00
  0.00000000E+00  0.00000000E+00  0.00000000E+00
  0.00000000E+00  0.00000000E+00  0.00000000E+00
  0.00000000E+00  0.00000000E+00  0.00000000E+00
  0.00000000E+00  0.00000000E+00  0.00000000E+00
  0.00000000E+00  0.00000000E+00  0.00000000E+00
  0.00000000E+00  0.00000000E+00  0.00000000E+00
  0.00000000E+00  0.00000000E+00  0.00000000E+00
  0.00000000E+00  0.00000000E+00  0.00000000E+00
  0.00000000E+00  0.00000000E+00  0.00000000E+00
  0.00000000E+00  0.00000000E+00  0.00000000E+00
  0.00000000E+00  0.00000000E+00  0.00000000E+00
  0.00000000E+00  0.00000000E+00  0.00000000E+00
  0.00000000E+00  0.00000000E+00  0.00000000E+00
  0.00000000E+00  0.00000000E+00  0.00000000E+00
  0.00000000E+00  0.00000000E+00  0.00000000E+00
  0.00000000E+00  0.00000000E+00  0.00000000E+00
  0.00000000E+00  0.00000000E+00  0.00000000E+00
  0.00000000E+00  0.00000000E+00  0.00000000E+00
  0.00000000E+00  0.00000000E+00  0.00000000E+00
