Mn4 O4 F8                               
   1.00000000000000     
     4.8457895624600509   -0.0499463881503519    0.0469426364501663
    -2.4096463855194621    4.1996094389259992   -0.0461710442144127
    -0.1312726290758091   -0.1158661488069458    9.1799240856146511
   Mn   O    F 
     4     4     8
Direct
  0.2957392165633488  0.6406044943679913  0.6097663004372560
  0.6890769702595215  0.3383686328889494  0.3897829543850588
  0.6736868609851542  0.3096468224327387  0.1102671704454446
  0.3418763803324317  0.6769634982912653  0.8892683110171355
  0.6560449336928994  0.0090598622004171  0.9963454113844008
  0.9944999089297525  0.6420847004176397  0.5008934077868892
  0.0705151060138665  0.3813323223343268  0.7506413076388159
  0.9277182651074560  0.3018391993046486  0.2511792954814567
  0.0096842951934948  0.6438975404875665  0.0035113693099299
  0.3666688265521081  0.3707644366854631 -0.0037299369332220
  0.6372927954434663  0.9997448346075408  0.4989517081998998
  0.3453132257755916  0.3483168351892271  0.5007842679914201
  0.6813818413086591  0.6241983004117215  0.2567639946611206
  0.3564303574977905  0.0540610789105040  0.2408718131729852
  0.6399762147023286  0.7092403513514205  0.7529976524048244
  0.3140948016421304  0.9498770901185802  0.7517049726165849
 
  0.00000000E+00  0.00000000E+00  0.00000000E+00
  0.00000000E+00  0.00000000E+00  0.00000000E+00
  0.00000000E+00  0.00000000E+00  0.00000000E+00
  0.00000000E+00  0.00000000E+00  0.00000000E+00
  0.00000000E+00  0.00000000E+00  0.00000000E+00
  0.00000000E+00  0.00000000E+00  0.00000000E+00
  0.00000000E+00  0.00000000E+00  0.00000000E+00
  0.00000000E+00  0.00000000E+00  0.00000000E+00
  0.00000000E+00  0.00000000E+00  0.00000000E+00
  0.00000000E+00  0.00000000E+00  0.00000000E+00
  0.00000000E+00  0.00000000E+00  0.00000000E+00
  0.00000000E+00  0.00000000E+00  0.00000000E+00
  0.00000000E+00  0.00000000E+00  0.00000000E+00
  0.00000000E+00  0.00000000E+00  0.00000000E+00
  0.00000000E+00  0.00000000E+00  0.00000000E+00
  0.00000000E+00  0.00000000E+00  0.00000000E+00
