Fe4 O4 F8                               
   1.00000000000000     
     4.7694062110211757    0.1765241952567830    0.0002188943387681
     0.1732079492543890    5.3243629442388247   -0.0005975612934997
    -0.0002174705209539    0.0007884920794406    6.9978661375526379
   Fe   O    F 
     4     4     8
Direct
  0.5005684074447648  0.0013343880927374 -0.0010859138663932
 -0.0007434229182560  0.5019558721821334  0.0014226066239066
  0.4994479951347873  0.9986662468172286  0.4989427443027024
  0.0007297259413218  0.4980146680240279  0.5014203846751898
  0.2169874778982179  0.2090029995744989  0.9028114105526917
  0.7835316891687655  0.7944236289718410  0.0971176954549024
  0.7830627648800969  0.7909970392481056  0.4028556413972345
  0.2164284913360208  0.2054867650047027  0.5971328499732421
  0.6995352524275952  0.2890635736051159  0.0626993617114366
  0.3003911417342200  0.7128221422837133  0.9370862012707180
  0.3005173037556018  0.7109061404092194  0.5627411196659234
  0.6995567696437095  0.2872653095999098  0.4370996271463636
  0.1583029296254748  0.4610455161735625  0.2505772782021820
  0.8416130433980268  0.5389648441782531  0.7505904505840980
  0.6717126996243172  0.9953307918449541  0.7492800004204571
  0.3283577309053427  0.0047200739899963  0.2493085418853380
 
  0.00000000E+00  0.00000000E+00  0.00000000E+00
  0.00000000E+00  0.00000000E+00  0.00000000E+00
  0.00000000E+00  0.00000000E+00  0.00000000E+00
  0.00000000E+00  0.00000000E+00  0.00000000E+00
  0.00000000E+00  0.00000000E+00  0.00000000E+00
  0.00000000E+00  0.00000000E+00  0.00000000E+00
  0.00000000E+00  0.00000000E+00  0.00000000E+00
  0.00000000E+00  0.00000000E+00  0.00000000E+00
  0.00000000E+00  0.00000000E+00  0.00000000E+00
  0.00000000E+00  0.00000000E+00  0.00000000E+00
  0.00000000E+00  0.00000000E+00  0.00000000E+00
  0.00000000E+00  0.00000000E+00  0.00000000E+00
  0.00000000E+00  0.00000000E+00  0.00000000E+00
  0.00000000E+00  0.00000000E+00  0.00000000E+00
  0.00000000E+00  0.00000000E+00  0.00000000E+00
  0.00000000E+00  0.00000000E+00  0.00000000E+00
