Cr2 O2 F4                               
   1.00000000000000     
     3.5329418054114283   -0.0000001448276664   -0.0001157037383019
    -0.0000002628597417    3.8063453665908162   -0.0000000829698475
    -0.0004193797972988   -0.0000003140946698    7.6313279229687367
   Cr   O    F 
     2     2     4
Direct
  0.5076466233176663  0.5000001096798443  0.2549307239677852
  0.4924960300475213  0.4999998711833894  0.7549107748654655
  0.0051879987872668  0.5000001672611241  0.2552483158697241
  0.9946022462646424  0.4999997849377072  0.7552869371185315
  0.4999956049039772  0.5000000623372084  0.0053035850778442
  0.4999919204637784  0.5000000231325127  0.5052709295342600
  0.5035461254927717  0.0000001553485370  0.2561213097258674
  0.4965334507223830  0.9999998261196698  0.7559274238405073
 
  0.00000000E+00  0.00000000E+00  0.00000000E+00
  0.00000000E+00  0.00000000E+00  0.00000000E+00
  0.00000000E+00  0.00000000E+00  0.00000000E+00
  0.00000000E+00  0.00000000E+00  0.00000000E+00
  0.00000000E+00  0.00000000E+00  0.00000000E+00
  0.00000000E+00  0.00000000E+00  0.00000000E+00
  0.00000000E+00  0.00000000E+00  0.00000000E+00
  0.00000000E+00  0.00000000E+00  0.00000000E+00
