Na4 Co4 O8 F4                           
   1.00000000000000     
     5.4210922359191871    0.1141681909837976   -0.0246693549357729
    -2.6004447384510749    4.5235851264299667    0.0587876700828360
    -0.0797372049740742    0.0881946196107515    9.1148760500728017
   Na   Co   O    F 
     4     4     8     4
Direct
  0.9751656768074758  0.0243680743383512  0.9858614287213983
  0.0035008715922746  0.9667491129136305  0.4770389080613586
  0.2958912014361120  0.6623000966482335  0.2366749491358528
  0.6964622995124876  0.3620143799052637  0.7658178914897549
  0.3294323420344930  0.6636146459976751  0.5979019219275604
  0.6814979137981273  0.3010380241660947  0.3915383998755362
  0.6048805534608896  0.3319421488675341  0.1143222387754602
  0.3476941361370561  0.7062118653509801  0.8864760203417508
  0.4932289878594877  0.0160228184309845  0.9874562410644223
  0.4016565578048241  0.4657559083489582  0.0309856672385311
  0.5868950874267985  0.9798516280563893  0.4867055047316421
  0.0750266304060467  0.4809714077154337  0.4667002359993676
  0.7274961035331237  0.5932262378089661  0.2742790161712192
  0.1848629453465787  0.4134387748034236  0.7605629312469150
  0.7862099389144869  0.1839422980020794  0.2163131968511445
  0.2873571513577044  0.8982351276903993  0.7231606528218255
  0.9511166115319993  0.5745915268050537  0.9865934480535221
  0.5707698653374865  0.4708136661940447  0.5472101175090578
  0.2895336768617330  0.0945782813319927  0.2790943513175580
  0.7113214488408131  0.8103339766245121  0.7853068786661072
 
  0.00000000E+00  0.00000000E+00  0.00000000E+00
  0.00000000E+00  0.00000000E+00  0.00000000E+00
  0.00000000E+00  0.00000000E+00  0.00000000E+00
  0.00000000E+00  0.00000000E+00  0.00000000E+00
  0.00000000E+00  0.00000000E+00  0.00000000E+00
  0.00000000E+00  0.00000000E+00  0.00000000E+00
  0.00000000E+00  0.00000000E+00  0.00000000E+00
  0.00000000E+00  0.00000000E+00  0.00000000E+00
  0.00000000E+00  0.00000000E+00  0.00000000E+00
  0.00000000E+00  0.00000000E+00  0.00000000E+00
  0.00000000E+00  0.00000000E+00  0.00000000E+00
  0.00000000E+00  0.00000000E+00  0.00000000E+00
  0.00000000E+00  0.00000000E+00  0.00000000E+00
  0.00000000E+00  0.00000000E+00  0.00000000E+00
  0.00000000E+00  0.00000000E+00  0.00000000E+00
  0.00000000E+00  0.00000000E+00  0.00000000E+00
  0.00000000E+00  0.00000000E+00  0.00000000E+00
  0.00000000E+00  0.00000000E+00  0.00000000E+00
  0.00000000E+00  0.00000000E+00  0.00000000E+00
  0.00000000E+00  0.00000000E+00  0.00000000E+00
