Ni4 O4 F8                               
   1.00000000000000     
     5.2780146159918599   -0.0272107709039262    0.0264770373700124
    -2.6610794470247532    4.6037717615169536   -0.0581672331073430
     0.0614235119366565   -0.1346175011869861    9.2202321021557001
   Ni   O    F 
     4     4     8
Direct
  0.3313970350908715  0.6646268828992317  0.6103593561913255
  0.6687130785082505  0.3355334982186273  0.3895894664250637
  0.6690184417200589  0.3339630366521918  0.1106238149087140
  0.3307807201184035  0.6660765784317797  0.8893197876873932
  0.4996686174452937  0.9997073185351439  0.0001836934489108
  0.9998366310267890  0.4994467348791182 -0.0000990584487900
  0.0003814427115147  0.4999090258141284  0.4997536905388836
  0.5004336966509940  0.5000760947063874  0.5001866043601412
  0.4998434216847278  0.4999229026155938  0.0000133511810359
  0.5001125739328517  0.0000816590292927  0.5000208094144853
  0.8242890006507667  0.6415364061469675  0.2500198253941042
  0.1760414027688844  0.3586612713281170  0.7498735869624477
  0.3615041192165621  0.1819779148514908  0.2504556802777553
  0.6384575877428010  0.8187107286616389  0.7497749971234647
  0.8218225031130280  0.1813761489946487  0.2499663362313484
  0.1776997276182095  0.8183937982356279  0.7499580583037159
 
  0.00000000E+00  0.00000000E+00  0.00000000E+00
  0.00000000E+00  0.00000000E+00  0.00000000E+00
  0.00000000E+00  0.00000000E+00  0.00000000E+00
  0.00000000E+00  0.00000000E+00  0.00000000E+00
  0.00000000E+00  0.00000000E+00  0.00000000E+00
  0.00000000E+00  0.00000000E+00  0.00000000E+00
  0.00000000E+00  0.00000000E+00  0.00000000E+00
  0.00000000E+00  0.00000000E+00  0.00000000E+00
  0.00000000E+00  0.00000000E+00  0.00000000E+00
  0.00000000E+00  0.00000000E+00  0.00000000E+00
  0.00000000E+00  0.00000000E+00  0.00000000E+00
  0.00000000E+00  0.00000000E+00  0.00000000E+00
  0.00000000E+00  0.00000000E+00  0.00000000E+00
  0.00000000E+00  0.00000000E+00  0.00000000E+00
  0.00000000E+00  0.00000000E+00  0.00000000E+00
  0.00000000E+00  0.00000000E+00  0.00000000E+00
