Na8 Fe8 O16 F8                          
   1.00000000000000     
     7.7943732935062471   -0.0026694203475325    0.0008153872042394
    -0.0020290855271305    7.4117217604020427    0.0004229942331289
    -0.0021750989912806    0.0001138490358771    7.5383295159695409
   Na   Fe   O    F 
     8     8    16     8
Direct
  0.2500255541132996  0.2493187354279277  0.2628162868383084
  0.2415239621768076  0.2499322882292593  0.7432348771291217
  0.2499619648383724  0.7507443140707613  0.2628562408441695
  0.2419338153803015  0.7497580293456102  0.7440016535653079
  0.7528120791319658  0.2495269542614888  0.2411067664412599
  0.7612943997553697  0.2512783127454598  0.7494282018776049
  0.7517737632668015  0.7510905907408018  0.2418731655324468
  0.7598805873056727  0.7457680791395087  0.7515463496077811
  0.0175008125077098 -0.0002010659955597  0.0165333050621057
  0.9807198909562891 -0.0003291872617933  0.4910545587404664
 -0.0006849425078988  0.4999152999197393  0.9956664443211981
 -0.0026027158622930  0.4999206881370764  0.4992077124593203
  0.4921546719488155  0.0021791283255977 -0.0005449697338889
  0.5156225340216409 -0.0012265048481290  0.5087656425448412
  0.4976274896719215  0.5011536048322819  0.0086968582106152
  0.4992953456474026  0.4991284270375674  0.4945412779185928
  0.2600924236431980  0.0013240859361296  0.0546347472908681
  0.7325417724291809  0.0000467252650870  0.9551664915514022
  0.7535592732508062 -0.0017837920398002  0.5547786154270512
  0.9938691885805223  0.2528282337344823 -0.0015111684109193
 -0.0001643274846898  0.2452972533700831  0.4990133752877515
  0.9957013722193000  0.7468800016458479  0.9979863711450039
  0.0020225545959008  0.7541768454999496  0.4993868270323561
  0.5093420988611463  0.2457153654792473  0.9914701162430221
  0.5013466759353874  0.2552771894517374  0.5088055103128145
  0.5087969216422018  0.7573032498229599  0.9911995298938371
  0.4991347609748555  0.7436155310451436  0.5094473478068752
  0.9537074115090308  0.9993137296021543  0.2531472739461988
  0.0462663622469115  0.4996677422212500  0.2397254876101956
  0.9526841743910441  0.4995298005432560  0.7545196097091307
  0.4465202926412291  0.5003964399974048  0.2566391273822388
  0.5482394286468762  0.5001741230605360  0.7405492079214644
  0.2543398774558500  0.0005071644678995  0.4484155940189149
  0.2543881604035108  0.4998195753541091  0.9353232282757864
  0.2438037017041585  0.4985249990352935  0.5572394071027822
  0.7454980194668795  0.5013701705159572  0.0591905511851708
  0.7534011508327865  0.5009070779185663  0.4323818626633381
  0.0546839155349937  0.0001498427500845  0.7498783082418826
  0.5622909103145011  0.0001564216770127  0.2573260240976966
  0.4190946678522391  0.0008445295380178  0.7445021829058779
 
  0.00000000E+00  0.00000000E+00  0.00000000E+00
  0.00000000E+00  0.00000000E+00  0.00000000E+00
  0.00000000E+00  0.00000000E+00  0.00000000E+00
  0.00000000E+00  0.00000000E+00  0.00000000E+00
  0.00000000E+00  0.00000000E+00  0.00000000E+00
  0.00000000E+00  0.00000000E+00  0.00000000E+00
  0.00000000E+00  0.00000000E+00  0.00000000E+00
  0.00000000E+00  0.00000000E+00  0.00000000E+00
  0.00000000E+00  0.00000000E+00  0.00000000E+00
  0.00000000E+00  0.00000000E+00  0.00000000E+00
  0.00000000E+00  0.00000000E+00  0.00000000E+00
  0.00000000E+00  0.00000000E+00  0.00000000E+00
  0.00000000E+00  0.00000000E+00  0.00000000E+00
  0.00000000E+00  0.00000000E+00  0.00000000E+00
  0.00000000E+00  0.00000000E+00  0.00000000E+00
  0.00000000E+00  0.00000000E+00  0.00000000E+00
  0.00000000E+00  0.00000000E+00  0.00000000E+00
  0.00000000E+00  0.00000000E+00  0.00000000E+00
  0.00000000E+00  0.00000000E+00  0.00000000E+00
  0.00000000E+00  0.00000000E+00  0.00000000E+00
  0.00000000E+00  0.00000000E+00  0.00000000E+00
  0.00000000E+00  0.00000000E+00  0.00000000E+00
  0.00000000E+00  0.00000000E+00  0.00000000E+00
  0.00000000E+00  0.00000000E+00  0.00000000E+00
  0.00000000E+00  0.00000000E+00  0.00000000E+00
  0.00000000E+00  0.00000000E+00  0.00000000E+00
  0.00000000E+00  0.00000000E+00  0.00000000E+00
  0.00000000E+00  0.00000000E+00  0.00000000E+00
  0.00000000E+00  0.00000000E+00  0.00000000E+00
  0.00000000E+00  0.00000000E+00  0.00000000E+00
  0.00000000E+00  0.00000000E+00  0.00000000E+00
  0.00000000E+00  0.00000000E+00  0.00000000E+00
  0.00000000E+00  0.00000000E+00  0.00000000E+00
  0.00000000E+00  0.00000000E+00  0.00000000E+00
  0.00000000E+00  0.00000000E+00  0.00000000E+00
  0.00000000E+00  0.00000000E+00  0.00000000E+00
  0.00000000E+00  0.00000000E+00  0.00000000E+00
  0.00000000E+00  0.00000000E+00  0.00000000E+00
  0.00000000E+00  0.00000000E+00  0.00000000E+00
  0.00000000E+00  0.00000000E+00  0.00000000E+00
