Sodium cobalt fluoride                  
   1.00000000000000     
     5.5816342192528481   -0.0000137678023147   -0.0000054093107451
    -0.0000233137356240    7.6879746546087677    0.0000058031956638
     0.0000771383915797    0.0000029347297557    5.3661185005940109
   Na   Co   F 
     4     4    12
Direct
  0.0621108691678103  0.2499992393008910  0.9813165508850048
  0.9378770460163608  0.7500004841955032  0.0186647279517302
  0.4378242485081074  0.7500009255470985  0.4813509925425024
  0.5621170664175423  0.2499998878517289  0.5186614844124335
  0.5000338061955816  0.4999104003038966  0.9999644613462948
  0.0000885219307278  0.4999066547423752  0.5000121715577350
  0.5000473162670076  0.0000915766589955  0.9999667203585645
  0.0000746060715144  0.0000959149910642  0.5000205019214192
  0.4519942523974549  0.2499991713313534  0.1142982964820476
  0.5479536807283765  0.7499994648169519  0.8857101631131457
  0.0479394905891795  0.7499985062542578  0.6142936281516427
  0.9519920554774330  0.2500000848696473  0.3857025399634963
  0.1989290590992923  0.5600353312947490  0.1939687086749089
  0.8010490498849521  0.4400380358787572  0.8060535833782296
  0.3010563120002701  0.4400515762027624  0.6939628355008480
  0.6989349820337125  0.5600405081174955  0.3060479832665024
  0.8010527654273574  0.0599541841534261  0.8060419464560624
  0.1989331775950873  0.9399647139674485  0.1939614811166948
  0.6989360972202761  0.9399626585196543  0.3060407507504266
  0.3010555699719575  0.0599506810019292  0.6939604601703167
 
  0.00000000E+00  0.00000000E+00  0.00000000E+00
  0.00000000E+00  0.00000000E+00  0.00000000E+00
  0.00000000E+00  0.00000000E+00  0.00000000E+00
  0.00000000E+00  0.00000000E+00  0.00000000E+00
  0.00000000E+00  0.00000000E+00  0.00000000E+00
  0.00000000E+00  0.00000000E+00  0.00000000E+00
  0.00000000E+00  0.00000000E+00  0.00000000E+00
  0.00000000E+00  0.00000000E+00  0.00000000E+00
  0.00000000E+00  0.00000000E+00  0.00000000E+00
  0.00000000E+00  0.00000000E+00  0.00000000E+00
  0.00000000E+00  0.00000000E+00  0.00000000E+00
  0.00000000E+00  0.00000000E+00  0.00000000E+00
  0.00000000E+00  0.00000000E+00  0.00000000E+00
  0.00000000E+00  0.00000000E+00  0.00000000E+00
  0.00000000E+00  0.00000000E+00  0.00000000E+00
  0.00000000E+00  0.00000000E+00  0.00000000E+00
  0.00000000E+00  0.00000000E+00  0.00000000E+00
  0.00000000E+00  0.00000000E+00  0.00000000E+00
  0.00000000E+00  0.00000000E+00  0.00000000E+00
  0.00000000E+00  0.00000000E+00  0.00000000E+00
