Na2 V2 O4 F2                            
   1.00000000000000     
    -2.6117030454986971   -4.7402711262813426   -0.1025435101402481
    -5.2242723095824193   -0.0010721228903398   -0.0001927366237735
    -2.6126194648673904   -1.6665858517608987   -4.4044701799687269
   Na   V    O    F 
     2     2     4     2
Direct
  0.2536229250631959  0.2308557842487718  0.2378418028916523
  0.7535700600697236  0.7773881878999747  0.7381337856319122
  0.0057955336098919  0.0047614102440463  0.9852439700770576
  0.5057666422708527  0.5042139118130035  0.4851873751758549
  0.7017028145625710  0.7834080022018212  0.2108899312033454
  0.3067584229686852  0.2268032697698278  0.7614293067691322
  0.8067478549216407  0.2050903590896079  0.2613817720011722
  0.2017136820777460  0.8040714055899325  0.7109410044959180
  0.2551816471809517  0.6613921585082505  0.2354857658681868
  0.7551404172747477  0.3480155106347703  0.7354652858857630
 
  0.00000000E+00  0.00000000E+00  0.00000000E+00
  0.00000000E+00  0.00000000E+00  0.00000000E+00
  0.00000000E+00  0.00000000E+00  0.00000000E+00
  0.00000000E+00  0.00000000E+00  0.00000000E+00
  0.00000000E+00  0.00000000E+00  0.00000000E+00
  0.00000000E+00  0.00000000E+00  0.00000000E+00
  0.00000000E+00  0.00000000E+00  0.00000000E+00
  0.00000000E+00  0.00000000E+00  0.00000000E+00
  0.00000000E+00  0.00000000E+00  0.00000000E+00
  0.00000000E+00  0.00000000E+00  0.00000000E+00
