Na8 Fe8 O16 F8                          
   1.00000000000000     
     7.9529548475170300   -0.0000000075060706   -0.0000009160373204
    -0.0000000169015025    7.3841824544539651   -0.0000000299853992
    -0.0000008922178880   -0.0000000218005603    7.5548040068675952
   Na   Fe   O    F 
     8     8    16     8
Direct
  0.2515369018807612  0.2512043127936010  0.2450403263251474
  0.2484576712863161  0.2512036171452285  0.7549591646681365
  0.2515368963212395  0.7487956604830585  0.2450405002391128
  0.2484576655913945  0.7487964150771008  0.7549593297500157
  0.7484582133840474  0.2512034210507508  0.2450408871537313
  0.7515373879903510  0.2512043687606093  0.7549593286783298
  0.7484582273303516  0.7487965427977531  0.2450410528786577
  0.7515374561660224  0.7487956846856997  0.7549594728213793
  0.9999921414448403  0.0000000131545422  0.0105325292812434
  0.0000029078203233  0.0000000187072866  0.4866315728285727
 -0.0000003736533015  0.5000000055195651  0.9968824175451538
 -0.0000015868825622  0.5000000414572225  0.5006305683816563
  0.4999932305189875 -0.0000000194968780  0.9894661507554603
  0.5000028847047151 -0.0000000157488223  0.5133683621611871
  0.4999995490576408  0.4999999928149103  0.0031173428494879
  0.4999988317107883  0.4999999646370883  0.4993695125174685
  0.2500069370759142  0.9999999957762771  0.0000011093303031
  0.7499993415086884  0.9999999969996659  0.9999983629405131
  0.0000001287588837  0.2465306410882558 -0.0003089495151491
  0.0000056385899988  0.2526309231623400  0.4984699471677618
  0.0000001223711068  0.7534693715473710 -0.0003089286696548
  0.0000056421282752  0.7473691211454666  0.4984698303159927
  0.4999994144070333  0.2465293717914583  0.0003090081994089
  0.5000056484306061  0.2526315501530625  0.5015301419576873
  0.4999994157733730  0.7534706080001949  0.0003090352447708
  0.5000056442818400  0.7473684121215446  0.5015300182923701
  0.9999967432788185  0.0000000422307353  0.2494960070151320
  0.9999953829920702  0.4999999771751265  0.2529281697425522
  0.0000046645296147  0.5000000421194830  0.7458506649263578
  0.4999969036247089  0.9999999569939158  0.7505043897431527
  0.5000046931686647  0.4999999579199673  0.2541509456832260
  0.4999954164062972  0.5000000224570899  0.7470704289553736
  0.2500114741731204  0.0000000028203796  0.4999993347550098
  0.2500043969488588  0.4999999983026454  0.9999999718202057
  0.2499900421542009  0.4999999964385385  0.5000013787012887
  0.7500106975930183 -0.0000000016463816  0.5000020321159320
  0.7500031443806930  0.4999999928506498 -0.0000002026829870
  0.7499907304156250  0.5000000001852470  0.4999985315443796
  0.0000000109038230  0.9999999440797723  0.7457137611973924
  0.4999997614328439  0.0000000524484772  0.2542864923842473
 
  0.00000000E+00  0.00000000E+00  0.00000000E+00
  0.00000000E+00  0.00000000E+00  0.00000000E+00
  0.00000000E+00  0.00000000E+00  0.00000000E+00
  0.00000000E+00  0.00000000E+00  0.00000000E+00
  0.00000000E+00  0.00000000E+00  0.00000000E+00
  0.00000000E+00  0.00000000E+00  0.00000000E+00
  0.00000000E+00  0.00000000E+00  0.00000000E+00
  0.00000000E+00  0.00000000E+00  0.00000000E+00
  0.00000000E+00  0.00000000E+00  0.00000000E+00
  0.00000000E+00  0.00000000E+00  0.00000000E+00
  0.00000000E+00  0.00000000E+00  0.00000000E+00
  0.00000000E+00  0.00000000E+00  0.00000000E+00
  0.00000000E+00  0.00000000E+00  0.00000000E+00
  0.00000000E+00  0.00000000E+00  0.00000000E+00
  0.00000000E+00  0.00000000E+00  0.00000000E+00
  0.00000000E+00  0.00000000E+00  0.00000000E+00
  0.00000000E+00  0.00000000E+00  0.00000000E+00
  0.00000000E+00  0.00000000E+00  0.00000000E+00
  0.00000000E+00  0.00000000E+00  0.00000000E+00
  0.00000000E+00  0.00000000E+00  0.00000000E+00
  0.00000000E+00  0.00000000E+00  0.00000000E+00
  0.00000000E+00  0.00000000E+00  0.00000000E+00
  0.00000000E+00  0.00000000E+00  0.00000000E+00
  0.00000000E+00  0.00000000E+00  0.00000000E+00
  0.00000000E+00  0.00000000E+00  0.00000000E+00
  0.00000000E+00  0.00000000E+00  0.00000000E+00
  0.00000000E+00  0.00000000E+00  0.00000000E+00
  0.00000000E+00  0.00000000E+00  0.00000000E+00
  0.00000000E+00  0.00000000E+00  0.00000000E+00
  0.00000000E+00  0.00000000E+00  0.00000000E+00
  0.00000000E+00  0.00000000E+00  0.00000000E+00
  0.00000000E+00  0.00000000E+00  0.00000000E+00
  0.00000000E+00  0.00000000E+00  0.00000000E+00
  0.00000000E+00  0.00000000E+00  0.00000000E+00
  0.00000000E+00  0.00000000E+00  0.00000000E+00
  0.00000000E+00  0.00000000E+00  0.00000000E+00
  0.00000000E+00  0.00000000E+00  0.00000000E+00
  0.00000000E+00  0.00000000E+00  0.00000000E+00
  0.00000000E+00  0.00000000E+00  0.00000000E+00
  0.00000000E+00  0.00000000E+00  0.00000000E+00
