Ti4 O4 F8                               
   1.00000000000000     
     5.6117406606254301    0.0000321455249089   -0.1706584317038365
    -2.8058404770906815    4.8807310555574279    0.0853084975418491
    -0.2878304697419173   -0.0000436266755983    9.3810750525751061
   Ti   O    F 
     4     4     8
Direct
  0.3655900774404312  0.6780938646786597  0.5963446211375110
  0.6343838674851087  0.3219366610816850  0.4036620774193078
  0.6875356040453352  0.3219131163420393  0.0963410347764130
  0.3124761122607478  0.6780664513773904  0.9036587113566589
  0.5000202334659590  0.0000099901532215  0.9999843362461600
  0.0000233714865006  0.4999945707749739  0.0000174668216217
  0.5000023007431821  0.0000042228871228  0.4999940326257874
  0.4999795073853843  0.4999878400414559  0.5000148648519872
  0.5000091221562392  0.5000045988087826  0.9999977359155342
  0.9999822044885309  0.4999985601184201  0.4999946463473504
  0.8047250044965674  0.6094339263489879  0.2500017684704482
  0.1952822761130508  0.3905599490421238  0.7499992967690866
  0.3723401047342321  0.1843528479739955  0.2420301918805251
  0.6276612236132091  0.8156555816281050  0.7579612523732089
  0.8120013418557345  0.1843347995892720  0.2579616476890710
  0.1879876482297801  0.8156530191537575  0.7420363153193217
 
  0.00000000E+00  0.00000000E+00  0.00000000E+00
  0.00000000E+00  0.00000000E+00  0.00000000E+00
  0.00000000E+00  0.00000000E+00  0.00000000E+00
  0.00000000E+00  0.00000000E+00  0.00000000E+00
  0.00000000E+00  0.00000000E+00  0.00000000E+00
  0.00000000E+00  0.00000000E+00  0.00000000E+00
  0.00000000E+00  0.00000000E+00  0.00000000E+00
  0.00000000E+00  0.00000000E+00  0.00000000E+00
  0.00000000E+00  0.00000000E+00  0.00000000E+00
  0.00000000E+00  0.00000000E+00  0.00000000E+00
  0.00000000E+00  0.00000000E+00  0.00000000E+00
  0.00000000E+00  0.00000000E+00  0.00000000E+00
  0.00000000E+00  0.00000000E+00  0.00000000E+00
  0.00000000E+00  0.00000000E+00  0.00000000E+00
  0.00000000E+00  0.00000000E+00  0.00000000E+00
  0.00000000E+00  0.00000000E+00  0.00000000E+00
