Na4 V4 O8 F4                            
   1.00000000000000     
     5.3196129061777739   -0.0000084497330997    0.0395223169929574
    -0.0000056105480326    5.4071977910071070    0.0000088197686492
     0.0081537553171144    0.0000197158191852    7.4220789358094414
   Na   V    O    F 
     4     4     8     4
Direct
  0.9994586623898033  0.0333966110793981  0.2430607157318702
  0.0005099584030582  0.9665338050530528  0.7569937383586721
  0.4994681872570498  0.4666124034227629  0.7430715699361938
  0.5005088218194986  0.5334605862730303  0.2569968886210122
  0.5002096193223317  0.0000111364399448  0.0000197639394736
 -0.0000832189717965  0.5000384181892162  0.0000126459021620
  0.4999490377228548 -0.0000553160562417  0.5000463998608463
  0.0001887787507677  0.5000111461311545  0.5000086335099287
  0.1935650453830534  0.2250556692126432  0.9728797287200779
  0.8064944790337119  0.7753436282641146  0.0270203035958900
  0.3065306442165587  0.7246424411103863  0.5270211562746271
  0.6935897005682180  0.2749296394524231  0.4728770547963490
  0.0562752811553062  0.4837847667533609  0.2621384022476390
  0.9434379362054294  0.5162091417806561  0.7378123347424412
  0.5563017514316525  0.0162253726649188  0.7621525247269455
  0.4434677925204366  0.9837928942014325  0.2378273265098588
  0.6941570789376568  0.3032721802168405  0.0405536316443071
  0.3058592680279825  0.6968817322686564  0.9594402957596373
  0.8059054650538156  0.8031209282137426  0.4594811576146490
  0.1942057107726038  0.1967328153285142  0.5405857275074334
 
  0.00000000E+00  0.00000000E+00  0.00000000E+00
  0.00000000E+00  0.00000000E+00  0.00000000E+00
  0.00000000E+00  0.00000000E+00  0.00000000E+00
  0.00000000E+00  0.00000000E+00  0.00000000E+00
  0.00000000E+00  0.00000000E+00  0.00000000E+00
  0.00000000E+00  0.00000000E+00  0.00000000E+00
  0.00000000E+00  0.00000000E+00  0.00000000E+00
  0.00000000E+00  0.00000000E+00  0.00000000E+00
  0.00000000E+00  0.00000000E+00  0.00000000E+00
  0.00000000E+00  0.00000000E+00  0.00000000E+00
  0.00000000E+00  0.00000000E+00  0.00000000E+00
  0.00000000E+00  0.00000000E+00  0.00000000E+00
  0.00000000E+00  0.00000000E+00  0.00000000E+00
  0.00000000E+00  0.00000000E+00  0.00000000E+00
  0.00000000E+00  0.00000000E+00  0.00000000E+00
  0.00000000E+00  0.00000000E+00  0.00000000E+00
  0.00000000E+00  0.00000000E+00  0.00000000E+00
  0.00000000E+00  0.00000000E+00  0.00000000E+00
  0.00000000E+00  0.00000000E+00  0.00000000E+00
  0.00000000E+00  0.00000000E+00  0.00000000E+00
