Na4 V4 O8 F4                            
   1.00000000000000     
     5.2604118763695968   -0.0000075644004455   -0.0047941209346088
    -0.0000076508742354    5.3105145487519438   -0.0000009703653560
    -0.0033385469855326   -0.0000009235094759    7.6416074675198047
   Na   V    O    F 
     4     4     8     4
Direct
  0.9853325938463868  0.0311843877761788  0.2491103291716570
  0.0095739428187116  0.9754235804775107  0.7389316281966316
  0.4853316488282644  0.4688168149761509  0.7491098156708063
  0.5095750233115197  0.5245774945748423  0.2389316777853452
  0.4793699842484997  0.0009744451502698  0.0091889396011169
  0.0006834007976195  0.4758107882840363  0.9774307454512652
  0.5006822484339395  0.0241885944592681  0.4774311557275013
  0.9793714759143910  0.4990248415960394  0.5091886969349417
  0.7201818981844923  0.2572138528864585  0.0341316066043049
  0.3000494186980021  0.7179708936440647  0.9690277534286480
  0.2162267983136417  0.2146649137949836  0.9623106241114385
  0.7162299746522010  0.2853305264429835  0.4623107431540561
  0.8000473715617318  0.7820243926912482  0.4690267973395450
  0.2201830234759896  0.2427867373414401  0.5341318748246380
  0.9220772571177207  0.5234061406647328  0.7574256968006594
  0.4220767777523449  0.9765943888191018  0.2574255255351972
  0.7900372063639125  0.7700139648698965  0.0546238146210740
  0.2900373844436572  0.7299883010975279  0.5546285479586146
  0.0764687614141977  0.4841340451378002  0.2478179029559584
  0.5764638098227763  0.0158708953154658  0.7478161241266008
 
  0.00000000E+00  0.00000000E+00  0.00000000E+00
  0.00000000E+00  0.00000000E+00  0.00000000E+00
  0.00000000E+00  0.00000000E+00  0.00000000E+00
  0.00000000E+00  0.00000000E+00  0.00000000E+00
  0.00000000E+00  0.00000000E+00  0.00000000E+00
  0.00000000E+00  0.00000000E+00  0.00000000E+00
  0.00000000E+00  0.00000000E+00  0.00000000E+00
  0.00000000E+00  0.00000000E+00  0.00000000E+00
  0.00000000E+00  0.00000000E+00  0.00000000E+00
  0.00000000E+00  0.00000000E+00  0.00000000E+00
  0.00000000E+00  0.00000000E+00  0.00000000E+00
  0.00000000E+00  0.00000000E+00  0.00000000E+00
  0.00000000E+00  0.00000000E+00  0.00000000E+00
  0.00000000E+00  0.00000000E+00  0.00000000E+00
  0.00000000E+00  0.00000000E+00  0.00000000E+00
  0.00000000E+00  0.00000000E+00  0.00000000E+00
  0.00000000E+00  0.00000000E+00  0.00000000E+00
  0.00000000E+00  0.00000000E+00  0.00000000E+00
  0.00000000E+00  0.00000000E+00  0.00000000E+00
  0.00000000E+00  0.00000000E+00  0.00000000E+00
