V4 O4 F8                                
   1.00000000000000     
     5.0744438562387355    0.0001231782823025   -0.0032873996506110
     0.0001160914873147    5.2339482648688902   -0.0000277535974710
     0.0051755010686117   -0.0000272535090067    7.3999882457466084
   V    O    F 
     4     4     8
Direct
  0.5184676455414703  0.0323905060697527  0.0067789868464985
  0.9815284650008138  0.5324284107751467  0.0068008405080349
  0.4815176378319066  0.9675969847214603  0.5067754754658580
  0.0184726686905847  0.4675765883248246  0.5067725550899169
  0.7084078035924151  0.2859893292801772  0.0448116873967734
  0.7916223110042537  0.7859365836316456  0.0448634039106111
  0.2915822120650446  0.7140608510240654  0.5448583254792396
  0.2083659483512221  0.2140212121907439  0.5448027566522384
  0.2982944108492518  0.7236460307393315  0.9490299769124846
  0.2017256896508215  0.2236876049261980  0.9489997530555527
  0.7016923018446661  0.2763307691445647  0.4490030655708992
  0.7982555791484600  0.7763348800824375  0.4490178218622063
  0.1083053822876110  0.4852534001918372  0.2493643793690197
  0.8917243184090964  0.5147710700699832  0.7493918783317142
  0.6083047244244355  0.0147330331127264  0.7493541672487751
  0.3917329013079538  0.9852427457151123  0.2493749263001774
 
  0.00000000E+00  0.00000000E+00  0.00000000E+00
  0.00000000E+00  0.00000000E+00  0.00000000E+00
  0.00000000E+00  0.00000000E+00  0.00000000E+00
  0.00000000E+00  0.00000000E+00  0.00000000E+00
  0.00000000E+00  0.00000000E+00  0.00000000E+00
  0.00000000E+00  0.00000000E+00  0.00000000E+00
  0.00000000E+00  0.00000000E+00  0.00000000E+00
  0.00000000E+00  0.00000000E+00  0.00000000E+00
  0.00000000E+00  0.00000000E+00  0.00000000E+00
  0.00000000E+00  0.00000000E+00  0.00000000E+00
  0.00000000E+00  0.00000000E+00  0.00000000E+00
  0.00000000E+00  0.00000000E+00  0.00000000E+00
  0.00000000E+00  0.00000000E+00  0.00000000E+00
  0.00000000E+00  0.00000000E+00  0.00000000E+00
  0.00000000E+00  0.00000000E+00  0.00000000E+00
  0.00000000E+00  0.00000000E+00  0.00000000E+00
