Disodium ferrate(VI)                    
   1.00000000000000     
     5.7012475859913501    0.0000547291410179   -0.0000017877222496
     0.0000880085743865    9.0442011775478868   -0.0000021795696743
    -0.0000022906065858   -0.0000016290147115    7.1009275427588365
   Na   Fe   O 
     8     4    16
Direct
  0.0002410490553899  0.5000320052149050  0.9999930524259142
  0.0002411031185758  0.5000297355583641  0.5000058332979194
  0.5003020698153691  0.9999057840173364  0.0000868528793916
  0.5003025906773786  0.9999055862355064  0.4999128725694462
  0.0002028711497886  0.1867990273618929  0.2500003979513536
  0.0002035390473907  0.8131669632438374  0.7499996636596933
  0.5001989825431039  0.6868517556314515  0.2500001679948340
  0.5001985603982533  0.3132200070611972  0.7499995443123382
  0.9999841916935068  0.8540934055892677  0.2500000109495630
  0.9999858428930466  0.1459103302948179  0.7500000886019222
  0.4999868764249626  0.3540958286124578  0.2500000230355255
  0.4999813877152306  0.6459154026740208  0.7500000463867806
  0.7656704147648696  0.9607897254547240  0.2500001740235689
  0.2348454144209029  0.0397134898496248  0.7499998890971185
  0.2348364614686318  0.9602881569521671  0.2500001475963245
  0.7656976118181049  0.0392046545053191  0.7500000054666600
  0.2656622693567456  0.4607909119261180  0.2500003172683307
  0.7348284087415706  0.5397165738033465  0.7500000152514161
  0.7348523703155081  0.4602896186686678  0.2500001720715090
  0.2656854708934588  0.5392184811110781  0.7500001257201276
  0.9995087331477492  0.7495289958569913  0.4363063307793809
  0.9995109767055155  0.2504762442496542  0.5636741122658009
  0.9995110520625730  0.2504760180860757  0.9363266251061191
  0.9995086863407252  0.7495292845887604  0.0636932985968528
  0.4995134899008278  0.2495359228672811  0.4363221782340361
  0.4995130610272938  0.7504900321621051  0.5636920712239188
  0.4995131107169470  0.7504898992499847  0.9363084614827457
  0.4995134337865537  0.2495361591730543  0.0636775217514156
 
  0.00000000E+00  0.00000000E+00  0.00000000E+00
  0.00000000E+00  0.00000000E+00  0.00000000E+00
  0.00000000E+00  0.00000000E+00  0.00000000E+00
  0.00000000E+00  0.00000000E+00  0.00000000E+00
  0.00000000E+00  0.00000000E+00  0.00000000E+00
  0.00000000E+00  0.00000000E+00  0.00000000E+00
  0.00000000E+00  0.00000000E+00  0.00000000E+00
  0.00000000E+00  0.00000000E+00  0.00000000E+00
  0.00000000E+00  0.00000000E+00  0.00000000E+00
  0.00000000E+00  0.00000000E+00  0.00000000E+00
  0.00000000E+00  0.00000000E+00  0.00000000E+00
  0.00000000E+00  0.00000000E+00  0.00000000E+00
  0.00000000E+00  0.00000000E+00  0.00000000E+00
  0.00000000E+00  0.00000000E+00  0.00000000E+00
  0.00000000E+00  0.00000000E+00  0.00000000E+00
  0.00000000E+00  0.00000000E+00  0.00000000E+00
  0.00000000E+00  0.00000000E+00  0.00000000E+00
  0.00000000E+00  0.00000000E+00  0.00000000E+00
  0.00000000E+00  0.00000000E+00  0.00000000E+00
  0.00000000E+00  0.00000000E+00  0.00000000E+00
  0.00000000E+00  0.00000000E+00  0.00000000E+00
  0.00000000E+00  0.00000000E+00  0.00000000E+00
  0.00000000E+00  0.00000000E+00  0.00000000E+00
  0.00000000E+00  0.00000000E+00  0.00000000E+00
  0.00000000E+00  0.00000000E+00  0.00000000E+00
  0.00000000E+00  0.00000000E+00  0.00000000E+00
  0.00000000E+00  0.00000000E+00  0.00000000E+00
  0.00000000E+00  0.00000000E+00  0.00000000E+00
