Mn4 O4 F8                               
   1.00000000000000     
     4.8759500603260184    0.0164222200130489   -0.0673725412119505
    -2.4844334063313931    4.1921363860785315    0.1545334294119507
    -0.1312403893383130   -0.0737455423930679    9.3555144143523830
   Mn   O    F 
     4     4     8
Direct
  0.3611741669963349  0.6954111682499333  0.6046238941476646
  0.6593879940186623  0.3060304137095095  0.3902740592161059
  0.6562752306605454  0.3427271280487826  0.1101995033350485
  0.3352923903872431  0.6730051801938617  0.8790335886456133
  0.3578705662334806  0.3872615542468676  0.0090781899768195
  0.6640055393523047 -0.0003791966224407  0.5007451321164161
  0.9077981279192866  0.3122685365626660  0.2489327324858657
  0.3171719675692879  0.9262735995281751  0.7371944086119993
  0.6329566475147258  0.0015380796652651 -0.0108915090211196
  0.0148698502476050  0.6596961124187484  0.9822868218532955
  0.0125350805573908  0.6328360307768390  0.4956222848289901
  0.3803601742647281  0.3597219199092869  0.5106748908566335
  0.6541956333736688  0.6202060247319603  0.2613939359487241
  0.0736060712913248  0.3583341533265288  0.7530429439025090
  0.3319955393934920  0.0384846344730477  0.2743092827389575
  0.6405050202199197  0.6865846607809756  0.7534798403564832
 
  0.00000000E+00  0.00000000E+00  0.00000000E+00
  0.00000000E+00  0.00000000E+00  0.00000000E+00
  0.00000000E+00  0.00000000E+00  0.00000000E+00
  0.00000000E+00  0.00000000E+00  0.00000000E+00
  0.00000000E+00  0.00000000E+00  0.00000000E+00
  0.00000000E+00  0.00000000E+00  0.00000000E+00
  0.00000000E+00  0.00000000E+00  0.00000000E+00
  0.00000000E+00  0.00000000E+00  0.00000000E+00
  0.00000000E+00  0.00000000E+00  0.00000000E+00
  0.00000000E+00  0.00000000E+00  0.00000000E+00
  0.00000000E+00  0.00000000E+00  0.00000000E+00
  0.00000000E+00  0.00000000E+00  0.00000000E+00
  0.00000000E+00  0.00000000E+00  0.00000000E+00
  0.00000000E+00  0.00000000E+00  0.00000000E+00
  0.00000000E+00  0.00000000E+00  0.00000000E+00
  0.00000000E+00  0.00000000E+00  0.00000000E+00
