Ni8 O8 F16                              
   1.00000000000000     
     7.4990155951938888   -0.0000001204585073    0.0000000072034202
    -0.0000002141908301    7.5758308511761339    0.0000000519764413
     0.0000000032894883    0.0000000187868154    7.5018877497449754
   Ni   O    F 
     8     8    16
Direct
  0.0000055024885484  0.0000000005889902  0.0000000020375879
  0.0000055808599484  0.0000000007180745  0.4999999955976264
  0.0000222271488894  0.4999999976147862  0.0000000851596909
  0.0000222305812869  0.4999999973300717  0.4999999331436484
  0.5000055216880952  0.9999999998991882  0.9999999932176991
  0.5000055068411768  0.0000000001646612  0.5000000056398193
  0.5000222290289429  0.5000000005935021  0.0000000782773384
  0.5000222198976729  0.5000000000656684  0.4999999122725285
  0.2499985613203179  0.9999999981700114  0.5000000001154561
  0.0000074618763009  0.5000000000655049  0.2499998211821364
  0.0000074767477756  0.5000000013285373  0.7500001817894741
  0.5000074849179228  0.4999999994656505  0.2500000170115158
  0.5000074620834027  0.5000000003863008  0.7499999787887006
  0.2499985878708841  0.9999999996485016  0.9999999976700522
  0.7499986197058348  0.0000000008941043  0.9999999997722639
  0.7499986459340633  0.0000000020604531  0.5000000001134808
  0.9999931135085731  0.9999999906685488  0.2500001140032921
  0.4999931453009410  0.0000000095648360  0.7500000965685487
  0.2499663545687056  0.5000000164158465  0.5000000285213204
  0.7499661412465528  0.4999999826399275  0.9999999728128586
  0.7499662971649528  0.4999999840435692  0.5000000299458733
  0.0000033605673551  0.7499696584483999  0.9999999952707128
  0.5000033738690206  0.2500303462437614  0.9999999773293951
  0.9999931125972665  0.0000000096966204  0.7499998852962477
  0.4999931451538160  0.9999999906234365  0.2499999026834914
  0.2499665054012539  0.5000000176920452  0.9999999730546847
  0.0000033326374833  0.2500303415667204  0.9999999779926299
  0.0000033348695254  0.2500302089977211  0.5000000127317961
  0.0000033671925692  0.7499697908167420  0.5000000077326945
  0.5000033688927559  0.2500303181412775  0.5000000226431283
  0.5000033638819090  0.7499696534984324  0.9999999894735510
  0.5000033641562638  0.7499696819480945  0.5000000121507640
 
  0.00000000E+00  0.00000000E+00  0.00000000E+00
  0.00000000E+00  0.00000000E+00  0.00000000E+00
  0.00000000E+00  0.00000000E+00  0.00000000E+00
  0.00000000E+00  0.00000000E+00  0.00000000E+00
  0.00000000E+00  0.00000000E+00  0.00000000E+00
  0.00000000E+00  0.00000000E+00  0.00000000E+00
  0.00000000E+00  0.00000000E+00  0.00000000E+00
  0.00000000E+00  0.00000000E+00  0.00000000E+00
  0.00000000E+00  0.00000000E+00  0.00000000E+00
  0.00000000E+00  0.00000000E+00  0.00000000E+00
  0.00000000E+00  0.00000000E+00  0.00000000E+00
  0.00000000E+00  0.00000000E+00  0.00000000E+00
  0.00000000E+00  0.00000000E+00  0.00000000E+00
  0.00000000E+00  0.00000000E+00  0.00000000E+00
  0.00000000E+00  0.00000000E+00  0.00000000E+00
  0.00000000E+00  0.00000000E+00  0.00000000E+00
  0.00000000E+00  0.00000000E+00  0.00000000E+00
  0.00000000E+00  0.00000000E+00  0.00000000E+00
  0.00000000E+00  0.00000000E+00  0.00000000E+00
  0.00000000E+00  0.00000000E+00  0.00000000E+00
  0.00000000E+00  0.00000000E+00  0.00000000E+00
  0.00000000E+00  0.00000000E+00  0.00000000E+00
  0.00000000E+00  0.00000000E+00  0.00000000E+00
  0.00000000E+00  0.00000000E+00  0.00000000E+00
  0.00000000E+00  0.00000000E+00  0.00000000E+00
  0.00000000E+00  0.00000000E+00  0.00000000E+00
  0.00000000E+00  0.00000000E+00  0.00000000E+00
  0.00000000E+00  0.00000000E+00  0.00000000E+00
  0.00000000E+00  0.00000000E+00  0.00000000E+00
  0.00000000E+00  0.00000000E+00  0.00000000E+00
  0.00000000E+00  0.00000000E+00  0.00000000E+00
  0.00000000E+00  0.00000000E+00  0.00000000E+00
