Ni4 O4 F8                               
   1.00000000000000     
     4.9333200549557414    0.0015552791190323    0.0006922148291016
    -0.0011030030789140    5.1487511753479476   -0.0271232617942877
    -0.0009810923538030   -0.0247395497592731    6.8123327156100837
   Ni   O    F 
     4     4     8
Direct
  0.5011235138665467  0.0013871624826410 -0.0005652958590200
  0.0011387789987779  0.4986172105425351  0.0006053326286587
  0.5005611607984928  0.0012761765301925  0.4983312073231366
  0.0005160000234386  0.4986950513536205  0.5016777738201770
  0.1304867149285476  0.4529160483005069  0.2509993801139600
  0.8662238536379697  0.5349627771760399  0.7509906700078984
  0.6305455175536522  0.0466827039326998  0.7490359659752105
  0.3661130636521553  0.9654101954860579  0.2490135551994903
  0.6919410801047093  0.3255752061755244  0.0614335229930002
  0.3093515059031914  0.6744729970266533  0.9409171093047340
  0.1919458350713220  0.1744619802903049  0.9384178481154559
  0.8092658574430731  0.8255905575815735  0.0592003728873631
  0.3283289049529745  0.7007093792948804  0.5609109221925135
  0.6721350502849667  0.3010937647332946  0.4357749974928403
  0.8282417015394115  0.7992325106077472  0.4389187099829123
  0.1720814612407626  0.1989162784857353  0.5643379278216697
 
  0.00000000E+00  0.00000000E+00  0.00000000E+00
  0.00000000E+00  0.00000000E+00  0.00000000E+00
  0.00000000E+00  0.00000000E+00  0.00000000E+00
  0.00000000E+00  0.00000000E+00  0.00000000E+00
  0.00000000E+00  0.00000000E+00  0.00000000E+00
  0.00000000E+00  0.00000000E+00  0.00000000E+00
  0.00000000E+00  0.00000000E+00  0.00000000E+00
  0.00000000E+00  0.00000000E+00  0.00000000E+00
  0.00000000E+00  0.00000000E+00  0.00000000E+00
  0.00000000E+00  0.00000000E+00  0.00000000E+00
  0.00000000E+00  0.00000000E+00  0.00000000E+00
  0.00000000E+00  0.00000000E+00  0.00000000E+00
  0.00000000E+00  0.00000000E+00  0.00000000E+00
  0.00000000E+00  0.00000000E+00  0.00000000E+00
  0.00000000E+00  0.00000000E+00  0.00000000E+00
  0.00000000E+00  0.00000000E+00  0.00000000E+00
