Na4 Ni4 O8 F4                           
   1.00000000000000     
     5.0534691329127659   -0.0000276124658224   -0.1042394432038880
    -0.0000078587540168    5.3619644165836373   -0.0000016786562301
    -0.0188622947280251   -0.0000159899859097    7.6100737311664979
   Na   Ni   O    F 
     4     4     8     4
Direct
  0.9871043344489792  0.0537365613551302  0.2465343993676541
  0.0126938902292366  0.9669877316857765  0.7449761285705776
  0.4871249283930794  0.4462691861370516  0.7465055484079670
  0.5126898432386255  0.5329952402147171  0.2449968912758536
  0.4859592499189631  0.0092194704327611  0.0132872864372047
  0.0075343668803640  0.4990634112494305  0.9957495677551407
  0.5075556966800718  0.0009186209153214  0.4957434525213031
  0.9859434631943529  0.4907896742673898  0.5132880080084803
  0.7174301027663574  0.2953708905891048  0.0271409788176129
  0.2988771696151602  0.6860596900921081  0.9555129952017296
  0.1709286359739437  0.2087773361334300  0.9634939615290250
  0.6709364221226366  0.2912188178456461  0.4635078363387350
  0.7988916829498720  0.8139387531758118  0.4555169799204037
  0.2174175656698623  0.2046394418170010  0.5271380876323164
  0.9394568265867065  0.5448300777032955  0.7656947949368913
  0.4394510509635623  0.9551767061072596  0.2656960179239789
  0.8064458728006514  0.7890135480899048  0.0442492622710446
  0.3064466036436144  0.7109933605206891  0.5442508820802914
  0.0735515814540193  0.4848944828528872  0.2433521842879856
  0.5735607124699271  0.0151069988152841  0.7433647367158116
 
  0.00000000E+00  0.00000000E+00  0.00000000E+00
  0.00000000E+00  0.00000000E+00  0.00000000E+00
  0.00000000E+00  0.00000000E+00  0.00000000E+00
  0.00000000E+00  0.00000000E+00  0.00000000E+00
  0.00000000E+00  0.00000000E+00  0.00000000E+00
  0.00000000E+00  0.00000000E+00  0.00000000E+00
  0.00000000E+00  0.00000000E+00  0.00000000E+00
  0.00000000E+00  0.00000000E+00  0.00000000E+00
  0.00000000E+00  0.00000000E+00  0.00000000E+00
  0.00000000E+00  0.00000000E+00  0.00000000E+00
  0.00000000E+00  0.00000000E+00  0.00000000E+00
  0.00000000E+00  0.00000000E+00  0.00000000E+00
  0.00000000E+00  0.00000000E+00  0.00000000E+00
  0.00000000E+00  0.00000000E+00  0.00000000E+00
  0.00000000E+00  0.00000000E+00  0.00000000E+00
  0.00000000E+00  0.00000000E+00  0.00000000E+00
  0.00000000E+00  0.00000000E+00  0.00000000E+00
  0.00000000E+00  0.00000000E+00  0.00000000E+00
  0.00000000E+00  0.00000000E+00  0.00000000E+00
  0.00000000E+00  0.00000000E+00  0.00000000E+00
