Co8 O8 F16                              
   1.00000000000000     
     7.6348457277146160   -0.0131437632240423   -0.0003341903991403
    -0.0098885941822483    7.6729985671728507    0.0116102657929797
    -0.0003476619992194    0.0086723269220999    7.5546461541837218
   Co   O    F 
     8     8    16
Direct
  0.0000303135323421  0.0006716344388694 -0.0001210233144086
  0.0000656446063728  0.0005417888426561  0.5000388980254079
  0.0000771504283409  0.5010397505103836  0.0001931919212822
  0.0000755066301059  0.5007821400049619  0.5001409522180577
  0.4998911984671525 -0.0006358244588411  0.0001237687455081
  0.5000159390069721 -0.0005868478872987  0.4999638047525241
  0.5004325422730935  0.4993856081309686 -0.0000389849610445
  0.5004353538550126  0.4994123119565309  0.4999664473346489
  0.2497570239056425  0.0000123396176757  0.4999906514918108
 -0.0000281057719852  0.5004374449126525  0.2503777180710410
 -0.0000228328977323  0.5003171827659973  0.7496798650876146
  0.4999645283681594  0.4998996872526496  0.2498190194746563
  0.5000002740418420  0.4997449020850112  0.7501124890470116
  0.2499385525488427  0.0000351323760145 -0.0000062453103566
  0.7498484298815702 -0.0001631451977952 -0.0000554816467871
  0.7497313842524476 -0.0001983624560969  0.4999985189668872
  0.9998327834539364  0.0001401665112079  0.2507252308297162
  0.4998468295147654 -0.0002908373120610  0.7494172955007130
  0.2532094731137284  0.5003548383885118  0.4999671257107494
  0.7468689730863957  0.4994738938614833  0.0000064822542202
  0.7470734162074540  0.4994397026579516  0.4999854424816100
  0.0000196377210753  0.7516033761074984  0.9998754337984813
  0.4998949508218606  0.2492863104866833  0.0000717512080694
  0.9998703471860999 -0.0003527944419648  0.7492664650381272
  0.4998547114510543  0.0000900154089149  0.2506179570163020
  0.2534252601014371  0.5003337290770496 -0.0000456653021705
 -0.0000926890050476  0.2493519526347474  0.0001227940023282
 -0.0001136631773191  0.2506172728288739  0.5001785934833216
 -0.0000383658254314  0.7500766163187356  0.4997950077366501
  0.4999112361233495  0.2501439516507098  0.5001518274169862
  0.5001594752969216  0.7499544405887829  0.9998667812490829
  0.5000647208015412  0.7490816223385433  0.4998138876719440
 
  0.00000000E+00  0.00000000E+00  0.00000000E+00
  0.00000000E+00  0.00000000E+00  0.00000000E+00
  0.00000000E+00  0.00000000E+00  0.00000000E+00
  0.00000000E+00  0.00000000E+00  0.00000000E+00
  0.00000000E+00  0.00000000E+00  0.00000000E+00
  0.00000000E+00  0.00000000E+00  0.00000000E+00
  0.00000000E+00  0.00000000E+00  0.00000000E+00
  0.00000000E+00  0.00000000E+00  0.00000000E+00
  0.00000000E+00  0.00000000E+00  0.00000000E+00
  0.00000000E+00  0.00000000E+00  0.00000000E+00
  0.00000000E+00  0.00000000E+00  0.00000000E+00
  0.00000000E+00  0.00000000E+00  0.00000000E+00
  0.00000000E+00  0.00000000E+00  0.00000000E+00
  0.00000000E+00  0.00000000E+00  0.00000000E+00
  0.00000000E+00  0.00000000E+00  0.00000000E+00
  0.00000000E+00  0.00000000E+00  0.00000000E+00
  0.00000000E+00  0.00000000E+00  0.00000000E+00
  0.00000000E+00  0.00000000E+00  0.00000000E+00
  0.00000000E+00  0.00000000E+00  0.00000000E+00
  0.00000000E+00  0.00000000E+00  0.00000000E+00
  0.00000000E+00  0.00000000E+00  0.00000000E+00
  0.00000000E+00  0.00000000E+00  0.00000000E+00
  0.00000000E+00  0.00000000E+00  0.00000000E+00
  0.00000000E+00  0.00000000E+00  0.00000000E+00
  0.00000000E+00  0.00000000E+00  0.00000000E+00
  0.00000000E+00  0.00000000E+00  0.00000000E+00
  0.00000000E+00  0.00000000E+00  0.00000000E+00
  0.00000000E+00  0.00000000E+00  0.00000000E+00
  0.00000000E+00  0.00000000E+00  0.00000000E+00
  0.00000000E+00  0.00000000E+00  0.00000000E+00
  0.00000000E+00  0.00000000E+00  0.00000000E+00
  0.00000000E+00  0.00000000E+00  0.00000000E+00
