Na4 Ti4 O8 F4                           
   1.00000000000000     
     5.4193030214840618   -0.0000018415361746    0.0000049934514096
    -0.0000017227451355    5.5280885575366030    0.0003840301595898
     0.0000069305217727   -0.0005559614716366    7.4822820428573307
   Na   Ti   O    F 
     4     4     8     4
Direct
  0.0044213143505777  0.0366740293294972  0.2493107723573500
  0.9955851163325560  0.9633146625954625  0.7493243756565672
  0.5044206011258752  0.4633253327103873  0.7506885920063002
  0.4955846958270519  0.5366845468887110  0.2506762182070731
  0.5086934440274864  0.9691675786365512  0.9981730603640450
  0.0086941923121382  0.5308344558439178  0.0018272006620242
  0.4912807958090325  0.0308302106117955  0.4981278784347775
  0.9912763210450050  0.4691667395664693  0.5018709784333307
  0.3045287882017477  0.6984747633013769  0.9644788784264052
  0.8045278560097949  0.8015274772528608  0.0355222353665035
  0.6954696593889855  0.3015478382061731  0.4644806922502661
  0.1954651074580593  0.1984543949860971  0.5355213068142795
  0.0630533706731915  0.4821435690658437  0.2503319272441767
  0.9369607462028747  0.5178250626157046  0.7503162773402154
  0.5630557292452834  0.0178536333100295  0.7496696516488123
  0.4369637677582302  0.9821787204566396  0.2496842877486543
  0.6974078784387624  0.3005148343200337  0.0345529590640608
  0.1974089656086790  0.1994865062040812  0.9654415952882603
  0.3026020931599646  0.6994865032324576  0.5345518092057625
  0.8025995570247039  0.8005091408659176  0.4654493034811427
 
  0.00000000E+00  0.00000000E+00  0.00000000E+00
  0.00000000E+00  0.00000000E+00  0.00000000E+00
  0.00000000E+00  0.00000000E+00  0.00000000E+00
  0.00000000E+00  0.00000000E+00  0.00000000E+00
  0.00000000E+00  0.00000000E+00  0.00000000E+00
  0.00000000E+00  0.00000000E+00  0.00000000E+00
  0.00000000E+00  0.00000000E+00  0.00000000E+00
  0.00000000E+00  0.00000000E+00  0.00000000E+00
  0.00000000E+00  0.00000000E+00  0.00000000E+00
  0.00000000E+00  0.00000000E+00  0.00000000E+00
  0.00000000E+00  0.00000000E+00  0.00000000E+00
  0.00000000E+00  0.00000000E+00  0.00000000E+00
  0.00000000E+00  0.00000000E+00  0.00000000E+00
  0.00000000E+00  0.00000000E+00  0.00000000E+00
  0.00000000E+00  0.00000000E+00  0.00000000E+00
  0.00000000E+00  0.00000000E+00  0.00000000E+00
  0.00000000E+00  0.00000000E+00  0.00000000E+00
  0.00000000E+00  0.00000000E+00  0.00000000E+00
  0.00000000E+00  0.00000000E+00  0.00000000E+00
  0.00000000E+00  0.00000000E+00  0.00000000E+00
