Cr4 O4 F8                               
   1.00000000000000     
     4.8897590044151480    0.0109048998358754   -0.0503020289473460
    -2.4066749379588037    4.2453220292421960    0.2740805103538669
     0.1165490190296077   -0.1677274833426853    9.2522956990929472
   Cr   O    F 
     4     4     8
Direct
  0.3010800416806716  0.6332024838978150  0.6116542219979256
  0.6891840309463717  0.3471234727197695  0.3885210356110323
  0.6358313542272641  0.2690235325193424  0.1098839666354928
  0.3344840058402824  0.6611859491187625  0.8902960569125494
  0.3861014518356821  0.9909923079143937  0.0050122394474994
  0.0021624784589873  0.4041562241754283  0.5052250117782978
  0.3275987322114410  0.3963942786730550  0.7452509137806546
  0.7177106015497658  0.0907463318914167  0.2535017019700380
  0.0026545967633140  0.3353988568377897  0.0052209322070907
  0.6474797752846363  0.6166489367074380 -0.0026063584780887
  0.3760505800512766  0.0196224117489021  0.5074465674154301
  0.6208906557403091  0.6478444347253820  0.4923675979677710
  0.9281693332351357  0.6450004573874252  0.2408779494177236
  0.3656059721833348  0.2998571112905107  0.2491716307600272
  0.6157292883630817  0.9519494496866835  0.7435949846224448
  0.0492671016284388  0.6908537607058852  0.7545815479541117
 
  0.00000000E+00  0.00000000E+00  0.00000000E+00
  0.00000000E+00  0.00000000E+00  0.00000000E+00
  0.00000000E+00  0.00000000E+00  0.00000000E+00
  0.00000000E+00  0.00000000E+00  0.00000000E+00
  0.00000000E+00  0.00000000E+00  0.00000000E+00
  0.00000000E+00  0.00000000E+00  0.00000000E+00
  0.00000000E+00  0.00000000E+00  0.00000000E+00
  0.00000000E+00  0.00000000E+00  0.00000000E+00
  0.00000000E+00  0.00000000E+00  0.00000000E+00
  0.00000000E+00  0.00000000E+00  0.00000000E+00
  0.00000000E+00  0.00000000E+00  0.00000000E+00
  0.00000000E+00  0.00000000E+00  0.00000000E+00
  0.00000000E+00  0.00000000E+00  0.00000000E+00
  0.00000000E+00  0.00000000E+00  0.00000000E+00
  0.00000000E+00  0.00000000E+00  0.00000000E+00
  0.00000000E+00  0.00000000E+00  0.00000000E+00
