Na4 Fe4 O8 F4                           
   1.00000000000000     
     5.4196706572218227    0.0000012751122702    0.0000083760878613
     0.0000012472458330    5.3724220302648584    0.0000003373889175
    -0.0000473648507739    0.0000004772346601    7.1975875161735381
   Na   Fe   O    F 
     4     4     8     4
Direct
 -0.0011732432315860  0.0342326539179543  0.2493065050079131
  0.0011752071100407  0.9657748421526432  0.7493039530403151
  0.4988266512249087  0.4657672329422354  0.7493063916685755
  0.5011749380017304  0.5342250436966098  0.2493042703787259
  0.4747654408539630  0.9965276557014274  0.9947585876174772
  0.0252259415346979  0.4965350756544903  0.9947587050262144
  0.5252254137630253  0.0034651602256426  0.4947590449872525
  0.9747640598217644  0.5034724756843738  0.4947592579701873
  0.2841704980076251  0.7185288079213690  0.9614820803489035
  0.2158350612487572  0.2185263073037582  0.9614863592558638
  0.7158348271669117  0.2814733220055657  0.4614863748389674
  0.7841704423984894  0.7814711215706219  0.4614823097468248
  0.0715651497071675  0.4858866187915077  0.2518937210654242
  0.9284360393111152  0.5141180510892682  0.7518916737042193
  0.5715645676864466  0.0141136789436581  0.7518937039384809
  0.4284359197679278  0.9858817498286563  0.2518912849722286
  0.7131322973500522  0.2872519799574828  0.0425602110949382
  0.7868689114199089  0.7872507900448723  0.0425576660492536
  0.2868690179570524  0.7127495766180049  0.5425578793796580
  0.2131328588999941  0.2127478559498577  0.5425600199085697
 
  0.00000000E+00  0.00000000E+00  0.00000000E+00
  0.00000000E+00  0.00000000E+00  0.00000000E+00
  0.00000000E+00  0.00000000E+00  0.00000000E+00
  0.00000000E+00  0.00000000E+00  0.00000000E+00
  0.00000000E+00  0.00000000E+00  0.00000000E+00
  0.00000000E+00  0.00000000E+00  0.00000000E+00
  0.00000000E+00  0.00000000E+00  0.00000000E+00
  0.00000000E+00  0.00000000E+00  0.00000000E+00
  0.00000000E+00  0.00000000E+00  0.00000000E+00
  0.00000000E+00  0.00000000E+00  0.00000000E+00
  0.00000000E+00  0.00000000E+00  0.00000000E+00
  0.00000000E+00  0.00000000E+00  0.00000000E+00
  0.00000000E+00  0.00000000E+00  0.00000000E+00
  0.00000000E+00  0.00000000E+00  0.00000000E+00
  0.00000000E+00  0.00000000E+00  0.00000000E+00
  0.00000000E+00  0.00000000E+00  0.00000000E+00
  0.00000000E+00  0.00000000E+00  0.00000000E+00
  0.00000000E+00  0.00000000E+00  0.00000000E+00
  0.00000000E+00  0.00000000E+00  0.00000000E+00
  0.00000000E+00  0.00000000E+00  0.00000000E+00
