Na4 Fe4 O8 F4                           
   1.00000000000000     
     5.3370937043673745    0.0000029216427536    0.0000015730986768
     0.0000031259018162    5.4503602364699777    0.0044153330580506
     0.0000014885138434   -0.0045374045372647    7.2069315392378668
   Na   Fe   O    F 
     4     4     8     4
Direct
  0.9969771999665081  0.0382556056802866  0.2460303594358719
  0.0025911922794408  0.9622670705209170  0.7461169322804081
  0.4969772339941238  0.4617461493461557  0.7539705447705652
  0.5025902525901781  0.5377331177374119  0.2538828469186640
  0.5006465064350379  0.9739269593982210  0.9987350195816892
  0.0006463396237411  0.5260731443535154  0.0012649610846400
  0.4993215050356067  0.0261000203448279  0.4987478100133331
  0.9993213229074158  0.4738997932634005  0.5012526848355638
  0.0701909039525376  0.4842758672757048  0.2498911532054391
  0.9298937593976397  0.5156946288626716  0.7498847881866149
  0.5701917426157188  0.0157204927793868  0.7501092230268740
  0.4298937608325564  0.9843054531558870  0.2501147148072434
  0.2827665712296917  0.7145373770383616  0.9619056200727325
  0.7827669692923144  0.7854641569677694  0.0380954028499498
  0.7175878585240191  0.2850382073987665  0.4617960788010224
  0.2175875420984496  0.2149620512963941  0.5382047733401710
  0.7024097290990137  0.2904966967248546  0.0397510893103701
  0.2024123372646623  0.2095043813277828  0.9602470584141017
  0.2976133788251296  0.7099292093823816  0.5398505362844096
  0.7976138940362005  0.7900696171453028  0.4601484027803218
 
  0.00000000E+00  0.00000000E+00  0.00000000E+00
  0.00000000E+00  0.00000000E+00  0.00000000E+00
  0.00000000E+00  0.00000000E+00  0.00000000E+00
  0.00000000E+00  0.00000000E+00  0.00000000E+00
  0.00000000E+00  0.00000000E+00  0.00000000E+00
  0.00000000E+00  0.00000000E+00  0.00000000E+00
  0.00000000E+00  0.00000000E+00  0.00000000E+00
  0.00000000E+00  0.00000000E+00  0.00000000E+00
  0.00000000E+00  0.00000000E+00  0.00000000E+00
  0.00000000E+00  0.00000000E+00  0.00000000E+00
  0.00000000E+00  0.00000000E+00  0.00000000E+00
  0.00000000E+00  0.00000000E+00  0.00000000E+00
  0.00000000E+00  0.00000000E+00  0.00000000E+00
  0.00000000E+00  0.00000000E+00  0.00000000E+00
  0.00000000E+00  0.00000000E+00  0.00000000E+00
  0.00000000E+00  0.00000000E+00  0.00000000E+00
  0.00000000E+00  0.00000000E+00  0.00000000E+00
  0.00000000E+00  0.00000000E+00  0.00000000E+00
  0.00000000E+00  0.00000000E+00  0.00000000E+00
  0.00000000E+00  0.00000000E+00  0.00000000E+00
