Na4 Fe4 O8 F4                           
   1.00000000000000     
     5.3456518000763822   -0.0000003013659269    0.0000033072024297
    -0.0000000567866197    5.4486570765977174    0.0000975788369583
     0.0000040832216987   -0.0001221375679166    7.1989131337082535
   Na   Fe   O    F 
     4     4     8     4
Direct
  0.9979148756686158  0.0371443665753197  0.2458848108431004
  0.0020806524263453  0.9628512885736369  0.7458905300844000
  0.4979153768554618  0.4628549737076734  0.7541149813037934
  0.5020814828256832  0.5371482335369386  0.2541096771844705
  0.5008657121321098  0.9738575144047160  0.9988856618414336
  0.0008645851499279  0.5261431096799045  0.0011148619005166
  0.4991254888473273  0.0261384711552817  0.4988877905911314
  0.9991243152859536  0.4738620520283746  0.5011118346261335
  0.2802019182875697  0.7172778737990483  0.9610664260172485
  0.7802010315077572  0.7827222462064403  0.0389339304239563
  0.7197927525197740  0.2827195038373155  0.4610592622434791
  0.2197922648565773  0.2172807714369714  0.5389404923556383
  0.0715626994565339  0.4847185695479990  0.2498052544662999
  0.9284366777834649  0.5152794817317851  0.7498094866740658
  0.5715630901107139  0.0152819395088916  0.7501953660276223
  0.4284366014766717  0.9847215035921308  0.2501896947845493
  0.7058498649270198  0.2876650282130601  0.0408929497685226
  0.2058491735412064  0.2123337151255953  0.9591073370047339
  0.2941713847125859  0.7123386248479401  0.5408929222885325
  0.7941700516287002  0.7876607324909775  0.4591067295703721
 
  0.00000000E+00  0.00000000E+00  0.00000000E+00
  0.00000000E+00  0.00000000E+00  0.00000000E+00
  0.00000000E+00  0.00000000E+00  0.00000000E+00
  0.00000000E+00  0.00000000E+00  0.00000000E+00
  0.00000000E+00  0.00000000E+00  0.00000000E+00
  0.00000000E+00  0.00000000E+00  0.00000000E+00
  0.00000000E+00  0.00000000E+00  0.00000000E+00
  0.00000000E+00  0.00000000E+00  0.00000000E+00
  0.00000000E+00  0.00000000E+00  0.00000000E+00
  0.00000000E+00  0.00000000E+00  0.00000000E+00
  0.00000000E+00  0.00000000E+00  0.00000000E+00
  0.00000000E+00  0.00000000E+00  0.00000000E+00
  0.00000000E+00  0.00000000E+00  0.00000000E+00
  0.00000000E+00  0.00000000E+00  0.00000000E+00
  0.00000000E+00  0.00000000E+00  0.00000000E+00
  0.00000000E+00  0.00000000E+00  0.00000000E+00
  0.00000000E+00  0.00000000E+00  0.00000000E+00
  0.00000000E+00  0.00000000E+00  0.00000000E+00
  0.00000000E+00  0.00000000E+00  0.00000000E+00
  0.00000000E+00  0.00000000E+00  0.00000000E+00
