Cr4 O4 F8                               
   1.00000000000000     
     4.9461088698884623    0.0003763936257458   -0.0462304620612012
    -0.0014794384499528    5.1128890778488163    0.0047443099431173
     0.0307083786923074   -0.0042172590655007    7.1040357182853189
   Cr   O    F 
     4     4     8
Direct
  0.5057329371527326  0.0213002187370231  0.0246402690698766
  0.9862699637316547  0.4985837700792661  0.9963465228695184
  0.4868606194036028  0.0012656068783539  0.4962029086697345
  0.0061904531344408  0.4784623428752508  0.5245934080003218
  0.9059606186520724  0.5360476534319054  0.7453174830684726
  0.4063888816593741  0.9623512226753874  0.2453858382366834
  0.6751509050529835  0.3135659272367549  0.0414078761812742
  0.1759978118930653  0.1866023472582415  0.5404561370730717
  0.1027060934070308  0.4806158423099706  0.2506053670220088
  0.6027179046962613  0.0210742898044853  0.7505386863393660
  0.3118702436161546  0.7029671454527547  0.9457247970631502
  0.1862801102844452  0.1932054492547893  0.9424262414926852
  0.8239226509805648  0.8267711289440914  0.0537245318747158
  0.3243183375942436  0.6732301479426773  0.5546538401967338
  0.6868717229432080  0.3065594944417211  0.4414778902242368
  0.8127607457981787  0.7973974126773201  0.4464982026181495
 
  0.00000000E+00  0.00000000E+00  0.00000000E+00
  0.00000000E+00  0.00000000E+00  0.00000000E+00
  0.00000000E+00  0.00000000E+00  0.00000000E+00
  0.00000000E+00  0.00000000E+00  0.00000000E+00
  0.00000000E+00  0.00000000E+00  0.00000000E+00
  0.00000000E+00  0.00000000E+00  0.00000000E+00
  0.00000000E+00  0.00000000E+00  0.00000000E+00
  0.00000000E+00  0.00000000E+00  0.00000000E+00
  0.00000000E+00  0.00000000E+00  0.00000000E+00
  0.00000000E+00  0.00000000E+00  0.00000000E+00
  0.00000000E+00  0.00000000E+00  0.00000000E+00
  0.00000000E+00  0.00000000E+00  0.00000000E+00
  0.00000000E+00  0.00000000E+00  0.00000000E+00
  0.00000000E+00  0.00000000E+00  0.00000000E+00
  0.00000000E+00  0.00000000E+00  0.00000000E+00
  0.00000000E+00  0.00000000E+00  0.00000000E+00
