Na2 Mn2 O4 F2                           
   1.00000000000000     
    -2.6538285547841274   -4.4925207579874993    0.0660407099304626
    -5.3030048559448391    0.0037461858477441    0.0076249802707622
    -2.6448249619967599   -1.4170721835930966   -4.2372183977385145
   Na   Mn   O    F 
     2     2     4     2
Direct
  0.2591659068795096  0.2644296076500439  0.2299998387933115
  0.7515009115081028  0.7507901491485143  0.7369729944293084
  0.9761570766629006  0.0019437992308866  0.0139668834532287
  0.5337359953290672  0.5004168211003943  0.4584558548854716
  0.2607650168352009  0.6842165521114154  0.2300713994740349
  0.6733520677606961  0.8304321274467270  0.2431841386058480
  0.7482107979204073  0.3225169217505268  0.7430864990287702
  0.8404361641265794  0.2478206355712587  0.2380115261066322
  0.3243554066148846  0.1880547799762695  0.7286779672917447
  0.1783206563626578  0.7553786060139700  0.7395728979316516
 
  0.00000000E+00  0.00000000E+00  0.00000000E+00
  0.00000000E+00  0.00000000E+00  0.00000000E+00
  0.00000000E+00  0.00000000E+00  0.00000000E+00
  0.00000000E+00  0.00000000E+00  0.00000000E+00
  0.00000000E+00  0.00000000E+00  0.00000000E+00
  0.00000000E+00  0.00000000E+00  0.00000000E+00
  0.00000000E+00  0.00000000E+00  0.00000000E+00
  0.00000000E+00  0.00000000E+00  0.00000000E+00
  0.00000000E+00  0.00000000E+00  0.00000000E+00
  0.00000000E+00  0.00000000E+00  0.00000000E+00
