Na2 Ti2 O4 F2                           
   1.00000000000000     
    -2.7575929252685847   -4.6196433016084439    0.0334752981765790
    -5.5112554119769896    0.0005991289975985    0.0002085844382448
    -2.7564210697164455   -1.5053380376671410   -4.4265742274729032
   Na   Ti   O    F 
     2     2     4     2
Direct
  0.2438740930251593  0.2731083809511255  0.2511697471597147
  0.7447302395030095  0.7316711860871050  0.7505763979504980
  0.9945988085539434  0.9775457399481597  0.9892826218905119
  0.4947285064696603  0.5385383551076102  0.4891038728967404
  0.2686077764658759  0.7081721629994890  0.2232597254159340
  0.6756477503936399  0.8361390508713524  0.2690706919625809
  0.1758100019715602  0.7190917836561258  0.7691815810319497
  0.7688457369699842  0.3000463795613386  0.7230555882265846
  0.3396597175886665  0.1777836653900828  0.6986839266508862
  0.8394973690585069  0.2839032954276102  0.1986158468146014
 
  0.00000000E+00  0.00000000E+00  0.00000000E+00
  0.00000000E+00  0.00000000E+00  0.00000000E+00
  0.00000000E+00  0.00000000E+00  0.00000000E+00
  0.00000000E+00  0.00000000E+00  0.00000000E+00
  0.00000000E+00  0.00000000E+00  0.00000000E+00
  0.00000000E+00  0.00000000E+00  0.00000000E+00
  0.00000000E+00  0.00000000E+00  0.00000000E+00
  0.00000000E+00  0.00000000E+00  0.00000000E+00
  0.00000000E+00  0.00000000E+00  0.00000000E+00
  0.00000000E+00  0.00000000E+00  0.00000000E+00
