Na4 Co4 O8 F4                           
    1.000000000000000     
     5.2235598554349965   -0.2056496731201282   -0.0016759246525778
    -0.2056981641543559    5.2641950915242610    0.0009130692795497
    -0.0005388460999324   -0.0012792353000113    7.7716139693951494
   Na   Co   O    F 
     4     4     8     4
Direct
  0.9806305679794107  0.0247843162339692  0.2471111405929491
  0.0193746848516057  0.9752573679443586  0.7471956186873143
  0.4798994021716183  0.4731251568217090  0.7492841192413806
  0.5202962504750630  0.5269452383347826  0.2492500734005105
  0.4905861968691809  0.0079458577740610  0.0006389988083697
  0.0179207899675262  0.4715430923249784  0.9942342220037617
  0.5094216853565356  0.9921090163848945  0.5006243584808487
  0.9822246387947899  0.5283106204042909  0.4943266474807331
  0.7042367843604822  0.2627930303028876  0.0550528079302097
  0.2887561379466348  0.7445662100758170  0.9483011919047115
  0.2204822818347267  0.2240486349483817  0.9669562724718048
  0.2961228101438564  0.7371189339832469  0.5548862270725152
  0.7108629780889260  0.2556074102877375  0.4484023894773088
  0.7800206880753748  0.7760775053234141  0.4673562463057195
  0.0625664333525151  0.4960830528348197  0.2499481319773338
  0.9367202029931718  0.5033704049276153  0.7500838809629542
  0.7793286246492173  0.7782719618322460  0.0358743740988174
  0.2203916035513487  0.2217210487583543  0.5361579992568792
  0.6086036556830621  0.0608212009244511  0.7521706565518755
  0.3915535828549537  0.9394999395779919  0.2521446432939882
 
  0.00000000E+00  0.00000000E+00  0.00000000E+00
  0.00000000E+00  0.00000000E+00  0.00000000E+00
  0.00000000E+00  0.00000000E+00  0.00000000E+00
  0.00000000E+00  0.00000000E+00  0.00000000E+00
  0.00000000E+00  0.00000000E+00  0.00000000E+00
  0.00000000E+00  0.00000000E+00  0.00000000E+00
  0.00000000E+00  0.00000000E+00  0.00000000E+00
  0.00000000E+00  0.00000000E+00  0.00000000E+00
  0.00000000E+00  0.00000000E+00  0.00000000E+00
  0.00000000E+00  0.00000000E+00  0.00000000E+00
  0.00000000E+00  0.00000000E+00  0.00000000E+00
  0.00000000E+00  0.00000000E+00  0.00000000E+00
  0.00000000E+00  0.00000000E+00  0.00000000E+00
  0.00000000E+00  0.00000000E+00  0.00000000E+00
  0.00000000E+00  0.00000000E+00  0.00000000E+00
  0.00000000E+00  0.00000000E+00  0.00000000E+00
  0.00000000E+00  0.00000000E+00  0.00000000E+00
  0.00000000E+00  0.00000000E+00  0.00000000E+00
  0.00000000E+00  0.00000000E+00  0.00000000E+00
  0.00000000E+00  0.00000000E+00  0.00000000E+00
