Na4 Fe4 O8 F4                           
   1.00000000000000     
     5.4220938460531238   -0.0182660664444656   -0.0255165084649870
    -2.7186997156395591    4.6311643018862760    0.0187176843421614
    -0.0806450505243610    0.0445337504887729    9.1147677781025749
   Na   Fe   O    F 
     4     4     8     4
Direct
  0.9834923784634597  0.9849517087145756  0.9267484653711904
  0.0304981886190774  0.0112563866326809  0.4268436293199755
  0.3139239135017391  0.6555012813738017  0.2383038381676599
  0.6448774026554318  0.3389113258412522  0.7544021182578931
  0.3458345790230339  0.6834737538293183  0.6177506897956988
  0.7038805645977106  0.3267353224368250  0.4077105169951309
  0.6548528479780771  0.3082560956032694  0.1012792021900495
  0.3180969001902270  0.6450861108268100  0.9055499855348117
  0.3906265752432745  0.9493717375344630  0.0193925789296614
  0.9921648208937697  0.3972962338303745  0.0039143173235772
  0.5550878565899069  0.5438399843926618  0.9930406287150504
  0.4540428962318686  0.0344542673255859  0.5239286050948095
  0.0699045540733039  0.4627525383215598  0.4874052456658617
  0.2340628392532693  0.3838282764786243  0.7516776019560325
  0.5928638732621891  0.8856389506678823  0.7707175822561041
  0.7328337052672254  0.1117667449490227  0.2720882246740288
  0.6452594946291441  0.6071857022710745  0.5160775220427283
  0.8895131053960057  0.6469385191250367  0.2544685229053059
  0.3743958099771589  0.2784952717210558  0.2655438937451535
  0.0737876941541202  0.7442597881241397  0.7631568310592840
 
  0.00000000E+00  0.00000000E+00  0.00000000E+00
  0.00000000E+00  0.00000000E+00  0.00000000E+00
  0.00000000E+00  0.00000000E+00  0.00000000E+00
  0.00000000E+00  0.00000000E+00  0.00000000E+00
  0.00000000E+00  0.00000000E+00  0.00000000E+00
  0.00000000E+00  0.00000000E+00  0.00000000E+00
  0.00000000E+00  0.00000000E+00  0.00000000E+00
  0.00000000E+00  0.00000000E+00  0.00000000E+00
  0.00000000E+00  0.00000000E+00  0.00000000E+00
  0.00000000E+00  0.00000000E+00  0.00000000E+00
  0.00000000E+00  0.00000000E+00  0.00000000E+00
  0.00000000E+00  0.00000000E+00  0.00000000E+00
  0.00000000E+00  0.00000000E+00  0.00000000E+00
  0.00000000E+00  0.00000000E+00  0.00000000E+00
  0.00000000E+00  0.00000000E+00  0.00000000E+00
  0.00000000E+00  0.00000000E+00  0.00000000E+00
  0.00000000E+00  0.00000000E+00  0.00000000E+00
  0.00000000E+00  0.00000000E+00  0.00000000E+00
  0.00000000E+00  0.00000000E+00  0.00000000E+00
  0.00000000E+00  0.00000000E+00  0.00000000E+00
