V4 O4 F8                                
   1.00000000000000     
     5.1381910372953765   -0.0145424416438103   -0.0259278245690983
    -0.0197564984968620    5.3064654214672151    0.0081810097861707
    -0.0126667167704137   -0.0197118062423400    7.3417618449748554
   V    O    F 
     4     4     8
Direct
  0.4858382907337823  0.9630252878522728  0.9977664989639059
  0.9944794777869318  0.4918861887254288  0.9778130713085360
  0.4676870740271208  0.0326704189579774  0.5074307290603545
  0.9755805936501980  0.5390833424833272  0.4951847445094303
  0.9251127170439600  0.5124147746040812  0.7555666013572891
  0.3011435210302665  0.7098434556372009  0.9601482881562659
  0.7920300669568513  0.7869056441793130  0.4640972058081347
  0.2215961997753360  0.2207579613444728  0.5431117503255357
  0.0884735756762253  0.4857361876613590  0.2446685852264332
  0.6079516071326219  0.0193175977872570  0.7532288173541637
  0.4080117792275254  0.9797178349685256  0.2522059131541206
  0.7032201288580151  0.2760117764633089  0.0461031340908061
  0.2068036558413620  0.1980965596617464  0.9561898732814622
  0.8026568318985665  0.7870657094676320  0.0532185849170932
  0.3005028728173431  0.7124940830782943  0.5509741223430158
  0.7189116075438938  0.2849731771277957  0.4422920801434536
 
  0.00000000E+00  0.00000000E+00  0.00000000E+00
  0.00000000E+00  0.00000000E+00  0.00000000E+00
  0.00000000E+00  0.00000000E+00  0.00000000E+00
  0.00000000E+00  0.00000000E+00  0.00000000E+00
  0.00000000E+00  0.00000000E+00  0.00000000E+00
  0.00000000E+00  0.00000000E+00  0.00000000E+00
  0.00000000E+00  0.00000000E+00  0.00000000E+00
  0.00000000E+00  0.00000000E+00  0.00000000E+00
  0.00000000E+00  0.00000000E+00  0.00000000E+00
  0.00000000E+00  0.00000000E+00  0.00000000E+00
  0.00000000E+00  0.00000000E+00  0.00000000E+00
  0.00000000E+00  0.00000000E+00  0.00000000E+00
  0.00000000E+00  0.00000000E+00  0.00000000E+00
  0.00000000E+00  0.00000000E+00  0.00000000E+00
  0.00000000E+00  0.00000000E+00  0.00000000E+00
  0.00000000E+00  0.00000000E+00  0.00000000E+00
