Na4 Mn4 O8 F4                           
   1.00000000000000     
     5.2315338510565086    0.1944813946487033   -0.0008953964299783
     0.1891447757495637    5.3443048478506769   -0.0061825379796968
    -0.0126568274640620   -0.0276779195312709    7.4259589949369831
   Na   Mn   O    F 
     4     4     8     4
Direct
  0.9803658289758070  0.0438834013313683  0.2430618122871906
  0.0042188596507444  0.9792549088616286  0.7557093585718345
  0.4958990041292373  0.4376993826375849  0.7591534477928484
  0.5186774906513439  0.5407663810767245  0.2399214694765150
  0.4807180393154656  0.9843055292673123  0.0123636842396124
  0.0228922190375730  0.5239663562096984  0.9918735202804178
  0.5007707836302934  0.9949039365299968  0.4873398089971974
  0.0051583914014713  0.4999744396227079  0.5127819880774220
  0.0673697407654173  0.4969203233664198  0.2491593096768643
  0.9180924003326859  0.5152718984674196  0.7510985037282487
  0.4075861408184916  0.9746712596849137  0.2457110573161884
  0.2959712836165294  0.7123321193044545  0.9501078131192507
  0.2107399971044146  0.2160186763827007  0.9645237857685972
  0.7902743444675779  0.7893924463802888  0.0396074513330041
  0.8096512678529391  0.7965094745339132  0.4607519522273426
  0.2058567600156245  0.2057779561529930  0.5361929722233668
  0.5760516439525623  0.0139011935818305  0.7496832318485891
  0.7005223886666199  0.2769821621638183  0.0368386948226065
  0.2937079121217885  0.6817973035208533  0.5497396452750192
  0.7154755034934202  0.3156708509233730  0.4643804929378840
 
  0.00000000E+00  0.00000000E+00  0.00000000E+00
  0.00000000E+00  0.00000000E+00  0.00000000E+00
  0.00000000E+00  0.00000000E+00  0.00000000E+00
  0.00000000E+00  0.00000000E+00  0.00000000E+00
  0.00000000E+00  0.00000000E+00  0.00000000E+00
  0.00000000E+00  0.00000000E+00  0.00000000E+00
  0.00000000E+00  0.00000000E+00  0.00000000E+00
  0.00000000E+00  0.00000000E+00  0.00000000E+00
  0.00000000E+00  0.00000000E+00  0.00000000E+00
  0.00000000E+00  0.00000000E+00  0.00000000E+00
  0.00000000E+00  0.00000000E+00  0.00000000E+00
  0.00000000E+00  0.00000000E+00  0.00000000E+00
  0.00000000E+00  0.00000000E+00  0.00000000E+00
  0.00000000E+00  0.00000000E+00  0.00000000E+00
  0.00000000E+00  0.00000000E+00  0.00000000E+00
  0.00000000E+00  0.00000000E+00  0.00000000E+00
  0.00000000E+00  0.00000000E+00  0.00000000E+00
  0.00000000E+00  0.00000000E+00  0.00000000E+00
  0.00000000E+00  0.00000000E+00  0.00000000E+00
  0.00000000E+00  0.00000000E+00  0.00000000E+00
