Cr4 O4 F8                               
   1.00000000000000     
     5.0829304708350564   -0.0000058205753120    0.0000213427370861
     0.0000860660484669    5.2216507536383663    0.0058185260266667
     0.0000219796231973    0.0058461017330424    6.9504830866173757
   Cr   O    F 
     4     4     8
Direct
  0.5005728464711839  0.0003298278049318  0.0000211019070278
  0.0005784554363522  0.4996676488995643 -0.0000096866228209
  0.4997913335041198  0.0001802243738648  0.4999647197157521
  0.9997804886004138  0.4998213601737674  0.5000090005664679
  0.0669356217377741  0.4839707274484058  0.2543734493319336
  0.9328208862136167  0.5156043004197253  0.7456491142900500
  0.5669451776851135  0.0160267549857274  0.7456283091173940
  0.4328206092752961  0.9843925376199548  0.2543476813581970
  0.6831237411489479  0.3134545124418772  0.0438436776863733
  0.3175599923648501  0.6867603012241495  0.9563359809943645
  0.1831174794912008  0.1865591070030097  0.9561541889889175
  0.8175615080797146  0.8132377933258410  0.0436617996008415
  0.3174649526072444  0.6859745342765271  0.5450514951164542
  0.6817189553756193  0.3144273371554692  0.4550796951423669
  0.8175053609266711  0.8140073260220323  0.4549555152863106
  0.1817025910818743  0.1855857068251517  0.5449339575203774
 
  0.00000000E+00  0.00000000E+00  0.00000000E+00
  0.00000000E+00  0.00000000E+00  0.00000000E+00
  0.00000000E+00  0.00000000E+00  0.00000000E+00
  0.00000000E+00  0.00000000E+00  0.00000000E+00
  0.00000000E+00  0.00000000E+00  0.00000000E+00
  0.00000000E+00  0.00000000E+00  0.00000000E+00
  0.00000000E+00  0.00000000E+00  0.00000000E+00
  0.00000000E+00  0.00000000E+00  0.00000000E+00
  0.00000000E+00  0.00000000E+00  0.00000000E+00
  0.00000000E+00  0.00000000E+00  0.00000000E+00
  0.00000000E+00  0.00000000E+00  0.00000000E+00
  0.00000000E+00  0.00000000E+00  0.00000000E+00
  0.00000000E+00  0.00000000E+00  0.00000000E+00
  0.00000000E+00  0.00000000E+00  0.00000000E+00
  0.00000000E+00  0.00000000E+00  0.00000000E+00
  0.00000000E+00  0.00000000E+00  0.00000000E+00
