Na2 Ti2 O4 F2                           
   1.00000000000000     
     3.8225160232907460   -0.0000000030326145   -0.0000000402286896
    -0.0000000014273512    3.9964862210778334    0.0000000176692456
     0.0000090983952067    0.0000000370936667    7.6633231237028632
   Na   Ti   O    F 
     2     2     4     2
Direct
  0.9999966620341495  0.9999999941169195  0.0011169914675897
  0.9999966493713655  0.0000000050472040  0.5011170310412345
  0.4999827962385128  0.4999999837992555  0.2525601507420519
  0.4999827790913359  0.5000000064806186  0.7525608529488633
  0.5000114514232593  0.5000000108601598  0.0053387991722902
  0.5000114653955116  0.4999999921242145  0.5053384022170635
  0.0000091763975797  0.4999999955253636  0.2566417148682695
  0.0000091872577885  0.5000000028127828  0.7566415786646901
  0.4999999082651588  0.0000000028442379  0.2558422813560363
  0.4999999245253243  0.0000000063892509  0.7558421975218959
 
  0.00000000E+00  0.00000000E+00  0.00000000E+00
  0.00000000E+00  0.00000000E+00  0.00000000E+00
  0.00000000E+00  0.00000000E+00  0.00000000E+00
  0.00000000E+00  0.00000000E+00  0.00000000E+00
  0.00000000E+00  0.00000000E+00  0.00000000E+00
  0.00000000E+00  0.00000000E+00  0.00000000E+00
  0.00000000E+00  0.00000000E+00  0.00000000E+00
  0.00000000E+00  0.00000000E+00  0.00000000E+00
  0.00000000E+00  0.00000000E+00  0.00000000E+00
  0.00000000E+00  0.00000000E+00  0.00000000E+00
