Ti4 O4 F8                               
   1.00000000000000     
     5.2330146095585528    0.1034475709775297   -0.0009783575122839
     0.1044745333721731    5.3838982577495100   -0.0289854674051704
    -0.0014207897080560   -0.0476533809028994    7.5522098196327336
   Ti   O    F 
     4     4     8
Direct
  0.4825797908915340  0.0010828113322399  0.0157002288504070
  0.0092464413858661  0.4773062086475208  0.9947122440460437
  0.5115435019398173  0.9926489419261416  0.4927701583394556
  0.0105737254174684  0.4938274287603899  0.5023410337580821
  0.1967834831035481  0.2079135293648086  0.9551538162363585
  0.7786919508912445  0.7746174168634863  0.4668759109017658
  0.2288343160864071  0.2379289972561764  0.5371796725030221
  0.4253540910735779  0.9877033555786520  0.2439765039962469
  0.6998782864727567  0.2997850346986778  0.0409465161423351
  0.2918640169869417  0.6998244296147819  0.9555020468920341
  0.7979724313198021  0.7912787051023429  0.0334982472162164
  0.2766033655444535  0.7295453478148698  0.5508968279909322
  0.7244265146046964  0.2816627231741391  0.4561472744086766
  0.0848170058372578  0.4971912718238213  0.2434524564489041
  0.9012465690211902  0.5161221374273566  0.7541686468771911
  0.5795845094234454  0.0115616606146024  0.7566784153923291
 
  0.00000000E+00  0.00000000E+00  0.00000000E+00
  0.00000000E+00  0.00000000E+00  0.00000000E+00
  0.00000000E+00  0.00000000E+00  0.00000000E+00
  0.00000000E+00  0.00000000E+00  0.00000000E+00
  0.00000000E+00  0.00000000E+00  0.00000000E+00
  0.00000000E+00  0.00000000E+00  0.00000000E+00
  0.00000000E+00  0.00000000E+00  0.00000000E+00
  0.00000000E+00  0.00000000E+00  0.00000000E+00
  0.00000000E+00  0.00000000E+00  0.00000000E+00
  0.00000000E+00  0.00000000E+00  0.00000000E+00
  0.00000000E+00  0.00000000E+00  0.00000000E+00
  0.00000000E+00  0.00000000E+00  0.00000000E+00
  0.00000000E+00  0.00000000E+00  0.00000000E+00
  0.00000000E+00  0.00000000E+00  0.00000000E+00
  0.00000000E+00  0.00000000E+00  0.00000000E+00
  0.00000000E+00  0.00000000E+00  0.00000000E+00
