V4 O4 F8                                
   1.00000000000000     
     5.1205146553525234   -0.0104947243464338   -0.0297499889433230
    -0.0109947069253401    5.2971008400452337    0.0125943522911448
    -0.0078764891160834   -0.0333043461947100    7.3351660335740432
   V    O    F 
     4     4     8
Direct
  0.5204703397036836  0.0242635535581122  0.0090770385851871
  0.9932707903746020  0.5006315336933211  0.9780478135407393
  0.4626171656083812  0.0226161343567581  0.5079775667168240
  0.9730430955038831  0.5323773396469238  0.4937955002052223
  0.9241954438049396  0.5151829573984167  0.7554203924862987
  0.7048704937245057  0.2804001074623085  0.0417408535332880
  0.7883291065328074  0.7800914422416428  0.4602068151190499
  0.2143212505456785  0.2100724931111869  0.5438045735797571
  0.0920831794477700  0.4818524933520235  0.2439001528204887
  0.6026975395291140  0.0055256891191733  0.7526496509617177
  0.3970029511650709  0.9699476342543115  0.2513886764934261
  0.3095173420366980  0.7101327896461024  0.9597788351568521
  0.2010657355448771  0.1974631450205160  0.9541536442569081
  0.8029881193833468  0.7914476021581871  0.0571845156432877
  0.2999232656668044  0.7006021084347024  0.5492747116827712
  0.7136041814278379  0.2773929765463067  0.4415992592181746
 
  0.00000000E+00  0.00000000E+00  0.00000000E+00
  0.00000000E+00  0.00000000E+00  0.00000000E+00
  0.00000000E+00  0.00000000E+00  0.00000000E+00
  0.00000000E+00  0.00000000E+00  0.00000000E+00
  0.00000000E+00  0.00000000E+00  0.00000000E+00
  0.00000000E+00  0.00000000E+00  0.00000000E+00
  0.00000000E+00  0.00000000E+00  0.00000000E+00
  0.00000000E+00  0.00000000E+00  0.00000000E+00
  0.00000000E+00  0.00000000E+00  0.00000000E+00
  0.00000000E+00  0.00000000E+00  0.00000000E+00
  0.00000000E+00  0.00000000E+00  0.00000000E+00
  0.00000000E+00  0.00000000E+00  0.00000000E+00
  0.00000000E+00  0.00000000E+00  0.00000000E+00
  0.00000000E+00  0.00000000E+00  0.00000000E+00
  0.00000000E+00  0.00000000E+00  0.00000000E+00
  0.00000000E+00  0.00000000E+00  0.00000000E+00
