Tetrairon(II,III) pentoxide (HT-phase IV
   1.00000000000000     
     5.0991032010180755   -0.0049890000641256   -0.1121631120990863
     0.0126596322924661   12.5784857243772397   -0.0070964979469846
    -1.5676874884703731   -0.0020302284891217    5.6558430154718327
   Fe   O 
    16    20
Direct
  0.0070373309422037  0.2501584208266158  0.0033226564097635
  0.9954540243724914  0.7499606562301825  0.9984865614329578
  0.0150512688592734  0.2489939693082101  0.5044527903962411
  0.9770517280548997  0.7499682706352258  0.4948550479728834
  0.5132341364050268  0.3843210125839259  0.3795688434102145
  0.4688029718337288  0.6157802745118139  0.6196535716565664
  0.4678876100547640  0.8839304675840073  0.6172367852828737
  0.5126777054742445  0.1156233554740426  0.3790324838983496
  0.5321967202988471  0.3829196882533247  0.8830606742969100
  0.4886877132579487  0.6137801566664449  0.1214778238990181
  0.4882536466140319  0.8856915021394647  0.1201475062072578
  0.5312496216684126  0.1168621699380997  0.8824769060568921
  0.0014230470511474  0.5000324145241817  0.7512168920081137
 -0.0005204133320717  0.5004698910598504  0.2517634737591189
 -0.0003723382320477 -0.0000692960220288  0.2480553742089393
 -0.0009637000231185 -0.0000360117025544  0.7483209705826607
  0.3253608694130837  0.2499668371423787  0.8321646368269748
  0.6843019203299984  0.7498193483009484  0.1698098917362179
  0.2818646400568159  0.4590536386837499  0.0591464244460465
  0.7260966573132080  0.5447643452026768  0.9221632987349020
  0.7246814076654547  0.9555894467942497  0.9204072368552756
  0.2805557440097368  0.0411071837082151  0.0578017573626680
  0.2789547172708136  0.4599556707633381  0.5815151412914600
  0.7187089135751420  0.5408586026356547  0.4399007799948395
  0.7176660247305556  0.9595362957426069  0.4378504230724936
  0.2771762739675797  0.0404225806005489  0.5796592152950781
  0.3112659318070390  0.2499141996533755  0.3289260383364309
  0.6689431181402848  0.7500798234166043  0.6682808436681479
  0.8135198682370132  0.3587851845512373  0.1947710505679608
  0.1854306757942542  0.6433824927243823  0.7932781302426067
  0.1841696731768390  0.8568055415421824  0.7910779862394449
  0.8127653319890374  0.1412546475754902  0.1943109562264624
  0.8164709104050435  0.3571028158506012  0.7129535158108778
  0.1904967267093043  0.6414649744760466  0.3012688301854323
  0.1888914020108143  0.8587609238125331  0.2992236368297370
  0.8155281310981976  0.1429885048123647  0.7123618827982063
 
  0.00000000E+00  0.00000000E+00  0.00000000E+00
  0.00000000E+00  0.00000000E+00  0.00000000E+00
  0.00000000E+00  0.00000000E+00  0.00000000E+00
  0.00000000E+00  0.00000000E+00  0.00000000E+00
  0.00000000E+00  0.00000000E+00  0.00000000E+00
  0.00000000E+00  0.00000000E+00  0.00000000E+00
  0.00000000E+00  0.00000000E+00  0.00000000E+00
  0.00000000E+00  0.00000000E+00  0.00000000E+00
  0.00000000E+00  0.00000000E+00  0.00000000E+00
  0.00000000E+00  0.00000000E+00  0.00000000E+00
  0.00000000E+00  0.00000000E+00  0.00000000E+00
  0.00000000E+00  0.00000000E+00  0.00000000E+00
  0.00000000E+00  0.00000000E+00  0.00000000E+00
  0.00000000E+00  0.00000000E+00  0.00000000E+00
  0.00000000E+00  0.00000000E+00  0.00000000E+00
  0.00000000E+00  0.00000000E+00  0.00000000E+00
  0.00000000E+00  0.00000000E+00  0.00000000E+00
  0.00000000E+00  0.00000000E+00  0.00000000E+00
  0.00000000E+00  0.00000000E+00  0.00000000E+00
  0.00000000E+00  0.00000000E+00  0.00000000E+00
  0.00000000E+00  0.00000000E+00  0.00000000E+00
  0.00000000E+00  0.00000000E+00  0.00000000E+00
  0.00000000E+00  0.00000000E+00  0.00000000E+00
  0.00000000E+00  0.00000000E+00  0.00000000E+00
  0.00000000E+00  0.00000000E+00  0.00000000E+00
  0.00000000E+00  0.00000000E+00  0.00000000E+00
  0.00000000E+00  0.00000000E+00  0.00000000E+00
  0.00000000E+00  0.00000000E+00  0.00000000E+00
  0.00000000E+00  0.00000000E+00  0.00000000E+00
  0.00000000E+00  0.00000000E+00  0.00000000E+00
  0.00000000E+00  0.00000000E+00  0.00000000E+00
  0.00000000E+00  0.00000000E+00  0.00000000E+00
  0.00000000E+00  0.00000000E+00  0.00000000E+00
  0.00000000E+00  0.00000000E+00  0.00000000E+00
  0.00000000E+00  0.00000000E+00  0.00000000E+00
  0.00000000E+00  0.00000000E+00  0.00000000E+00
