Ti4 O4 F8                               
   1.00000000000000     
     5.1810021353710418   -0.0000004703740677   -0.0006022261600498
    -0.0000006608032595    5.3237539328836494   -0.0000053016808234
     0.0008669633296407   -0.0000068625689556    7.6165705976849720
   Ti   O    F 
     4     4     8
Direct
  0.4737749990295228  0.9933187911631833  0.9959031891600318
  0.0262356752649140  0.4933221811990833  0.9959075794230827
  0.5262305875596027  0.0066826218414704  0.4959067261664245
  0.9737828059436424  0.5066855056525839  0.4959044456138599
  0.2965755710662137  0.7031249782980566  0.9598901743115533
  0.2034059606475580  0.2031262427082225  0.9599180951505772
  0.7034093780583746  0.2968707701770299  0.4599105633759635
  0.7965776444276145  0.7968744504880334  0.4598897261973462
  0.7085165322700604  0.2860547747665336  0.0428847472644378
  0.7914809063067452  0.7860325480378521  0.0428770530197937
  0.2914892350397196  0.7139663534129923  0.5428794728330502
  0.2085182308723432  0.2139460941355793  0.5428834357021017
  0.0881474450064914  0.4855715924753028  0.2513071831984703
  0.9118552963013258  0.5144437947961080  0.7513158191446507
  0.5881448567816037  0.0144279331881734  0.7513058343771419
  0.4118548754242539  0.9855513676597951  0.2513159550615072
 
  0.00000000E+00  0.00000000E+00  0.00000000E+00
  0.00000000E+00  0.00000000E+00  0.00000000E+00
  0.00000000E+00  0.00000000E+00  0.00000000E+00
  0.00000000E+00  0.00000000E+00  0.00000000E+00
  0.00000000E+00  0.00000000E+00  0.00000000E+00
  0.00000000E+00  0.00000000E+00  0.00000000E+00
  0.00000000E+00  0.00000000E+00  0.00000000E+00
  0.00000000E+00  0.00000000E+00  0.00000000E+00
  0.00000000E+00  0.00000000E+00  0.00000000E+00
  0.00000000E+00  0.00000000E+00  0.00000000E+00
  0.00000000E+00  0.00000000E+00  0.00000000E+00
  0.00000000E+00  0.00000000E+00  0.00000000E+00
  0.00000000E+00  0.00000000E+00  0.00000000E+00
  0.00000000E+00  0.00000000E+00  0.00000000E+00
  0.00000000E+00  0.00000000E+00  0.00000000E+00
  0.00000000E+00  0.00000000E+00  0.00000000E+00
