Na2 Co2 O4 F2                           
   1.00000000000000     
     3.6014077934907647    0.0000981018257750    0.0004706192682821
     0.0000786239295477    3.7949735000981608    0.0001890697235574
    -0.0012769029041582    0.0005779698902156    7.8516152755200102
   Na   Co   O    F 
     2     2     4     2
Direct
 -0.0000218075391075 -0.0000246525765921  0.9801362533114942
  0.9999273239284850 -0.0000046459489545  0.5015992864352347
  0.5002715394018407  0.5000315867851810  0.2346441418861515
  0.5000582436637280  0.4999938747070218  0.7583653204938088
  0.4998011667622353  0.4999998536856987  0.0168131706215450
  0.5001314878626000 -0.0000202578776706  0.7569973361624770
 -0.0000110864332592  0.5000466785713993  0.2577047084621487
  0.0002349812537746  0.4999444456864249  0.7560462105849057
  0.4998701636453949  0.4999775241695957  0.4967240197184204
  0.4997379874543084  0.0000555927979031  0.2839695523237993
 
  0.00000000E+00  0.00000000E+00  0.00000000E+00
  0.00000000E+00  0.00000000E+00  0.00000000E+00
  0.00000000E+00  0.00000000E+00  0.00000000E+00
  0.00000000E+00  0.00000000E+00  0.00000000E+00
  0.00000000E+00  0.00000000E+00  0.00000000E+00
  0.00000000E+00  0.00000000E+00  0.00000000E+00
  0.00000000E+00  0.00000000E+00  0.00000000E+00
  0.00000000E+00  0.00000000E+00  0.00000000E+00
  0.00000000E+00  0.00000000E+00  0.00000000E+00
  0.00000000E+00  0.00000000E+00  0.00000000E+00
