Fe4 O4 F8                               
   1.00000000000000     
     5.0571563479324357   -0.0014509157390580    0.0487153808305990
     0.0049437665978599    5.3497158064411465   -0.0882901539928713
     0.0368868880497275   -0.1449133271854034    7.1929715898746469
   Fe   O    F 
     4     4     8
Direct
  0.5114121479797640  0.9866629062047069  0.0036899923328066
  0.0175928179747594  0.4936212627110025  0.9994179056705214
  0.4782988075410976  0.0079744443253407  0.4796001241138160
  0.9819399877688042  0.5152612090212452  0.5023184837852664
  0.3334168015084371  0.6878466149618058  0.9288421575037248
  0.7846786683337070  0.8239813485687183  0.4687871041545790
  0.6276054960974162  0.0008621300999011  0.7295473044175558
  0.3874659860660877  0.9618812930917039  0.2493012623007921
  0.7088923795875247  0.2890364020275168  0.0534536705568379
  0.2084713796004024  0.1911478601502057  0.9396765541328035
  0.8271537089044714  0.7977843188051483  0.0627352714690524
  0.2741170394272337  0.7199144168590126  0.5816542374988941
  0.6778670713798980  0.3200809718620388  0.4392218695181447
  0.1885512481204888  0.2146638127883353  0.5513664560834796
  0.1236623598857808  0.4870316301238187  0.2538491515840684
  0.8688740998241338  0.5022493783994846  0.7565384548776645
 
  0.00000000E+00  0.00000000E+00  0.00000000E+00
  0.00000000E+00  0.00000000E+00  0.00000000E+00
  0.00000000E+00  0.00000000E+00  0.00000000E+00
  0.00000000E+00  0.00000000E+00  0.00000000E+00
  0.00000000E+00  0.00000000E+00  0.00000000E+00
  0.00000000E+00  0.00000000E+00  0.00000000E+00
  0.00000000E+00  0.00000000E+00  0.00000000E+00
  0.00000000E+00  0.00000000E+00  0.00000000E+00
  0.00000000E+00  0.00000000E+00  0.00000000E+00
  0.00000000E+00  0.00000000E+00  0.00000000E+00
  0.00000000E+00  0.00000000E+00  0.00000000E+00
  0.00000000E+00  0.00000000E+00  0.00000000E+00
  0.00000000E+00  0.00000000E+00  0.00000000E+00
  0.00000000E+00  0.00000000E+00  0.00000000E+00
  0.00000000E+00  0.00000000E+00  0.00000000E+00
  0.00000000E+00  0.00000000E+00  0.00000000E+00
