Na4 Ni4 O8 F4                           
   1.00000000000000     
     5.3596479717822181   -0.2183888790290094    0.0401339267073574
    -0.2457264901685620    5.4724431001896692    0.0347188111302713
     0.0229897828807937   -0.1074196381358262    7.1601660480274596
   Na   Ni   O    F 
     4     4     8     4
Direct
  0.0084324871897656  0.0556191629722035  0.2425687201758104
  0.0161381953473439  0.9509765924555761  0.7641832496225895
  0.4717300590953952  0.4549982817646517  0.7502857965149229
  0.5061000580600019  0.5459486113433019  0.2388716068586607
  0.5114909648172051  0.0039250800196703  0.0000835168978381
  0.0056434609087697  0.5055027916660010  0.9948687836864807
  0.4998362233377046  0.0051424262961170  0.4925444455974591
  0.9905393866428720  0.4589317007783936  0.5088842585427340
  0.7058345521187807  0.2832474000330630  0.0506611449267824
  0.3061466437314576  0.7232624480993451  0.9593736406002952
  0.6844642684037905  0.2771259835271872  0.4229499382237697
  0.7604786353308641  0.8191016084347112  0.4744511693128893
  0.2326121490843895  0.2037853422394265  0.5303892280052269
  0.8903539288561113  0.4997130288060899  0.7515843208943607
  0.6144144930340082  0.0475976016394241  0.7418000091681901
  0.4017951895551236  0.9429722722098566  0.2453918578746733
  0.2135916798745346  0.2162647534131933  0.9581303823963617
  0.8066595027059824  0.7938227688055592  0.0503312000787767
  0.2769625592717285  0.7239647000272137  0.5687238982339469
  0.0967755626341783  0.4880974454690147  0.2539228323882175
 
  0.00000000E+00  0.00000000E+00  0.00000000E+00
  0.00000000E+00  0.00000000E+00  0.00000000E+00
  0.00000000E+00  0.00000000E+00  0.00000000E+00
  0.00000000E+00  0.00000000E+00  0.00000000E+00
  0.00000000E+00  0.00000000E+00  0.00000000E+00
  0.00000000E+00  0.00000000E+00  0.00000000E+00
  0.00000000E+00  0.00000000E+00  0.00000000E+00
  0.00000000E+00  0.00000000E+00  0.00000000E+00
  0.00000000E+00  0.00000000E+00  0.00000000E+00
  0.00000000E+00  0.00000000E+00  0.00000000E+00
  0.00000000E+00  0.00000000E+00  0.00000000E+00
  0.00000000E+00  0.00000000E+00  0.00000000E+00
  0.00000000E+00  0.00000000E+00  0.00000000E+00
  0.00000000E+00  0.00000000E+00  0.00000000E+00
  0.00000000E+00  0.00000000E+00  0.00000000E+00
  0.00000000E+00  0.00000000E+00  0.00000000E+00
  0.00000000E+00  0.00000000E+00  0.00000000E+00
  0.00000000E+00  0.00000000E+00  0.00000000E+00
  0.00000000E+00  0.00000000E+00  0.00000000E+00
  0.00000000E+00  0.00000000E+00  0.00000000E+00
