Ni2 O2 F4                               
   1.00000000000000     
    -2.3967122736203965   -4.1253001668215825    0.0343152310696034
    -4.7583535550041782   -0.0129753914690742    0.0260934915444945
    -2.3452361760451592   -1.3513517667174342   -4.2281035073726363
   Ni   O    F 
     2     2     4
Direct
  0.0061576206957141  0.9962231671744908  0.9987460889016243
  0.4854915996101113  0.5137592675321188  0.4968913256032616
  0.2431543016083198  0.6025548969244079  0.2333959606716895
  0.0844802608101417  0.7666749866130507  0.7542021128272421
  0.6252277682692580  0.9084920023293632  0.2438704061396548
  0.3830034536357596  0.0899446314979029  0.7621462435468658
  0.7621295845970032  0.3915664790637862  0.7567716326482534
  0.9103554107736922  0.2307845688648799  0.2539762296614015
 
  0.00000000E+00  0.00000000E+00  0.00000000E+00
  0.00000000E+00  0.00000000E+00  0.00000000E+00
  0.00000000E+00  0.00000000E+00  0.00000000E+00
  0.00000000E+00  0.00000000E+00  0.00000000E+00
  0.00000000E+00  0.00000000E+00  0.00000000E+00
  0.00000000E+00  0.00000000E+00  0.00000000E+00
  0.00000000E+00  0.00000000E+00  0.00000000E+00
  0.00000000E+00  0.00000000E+00  0.00000000E+00
