Co8 O8 F16                              
   1.00000000000000     
     7.6547359514588722   -0.0113635071839797   -0.0409665238849131
    -0.0239651204882363    7.6440684621016395    0.0161577442102401
    -0.0041321008520761   -0.0112925353752084    7.5428543604037692
   Co   O    F 
     8     8    16
Direct
  0.0010333285188184  0.9981792289072270  0.0028729672494946
  0.9995984645420053  0.0020901952495842  0.5043069712888155
  0.0098139913346971  0.4981709544959111  0.0101013271065110
  0.9941508814711690  0.5019082747287370  0.5085821815831147
  0.5021921630290487  0.9993875194021574 -0.0001018284149421
  0.4990839488466182  0.0004675294830539  0.5000132959368685
  0.5053312866199772  0.4983002108617016  0.9970450828388190
  0.4937674948101176  0.5006293827881954  0.4962906837584124
  0.0016474979215069  0.0008290431106866  0.2511071475647225
  0.5011657318263198  0.9985324141253142  0.7500936064388404
  0.0009677980920063 -0.0013077530391682  0.7546307432914400
  0.0003857931960260  0.4987563462116901  0.2549673580598717
  0.5002578252039107  0.0011822047414462  0.2486538430741039
  0.4940357498293878  0.5009187483612032  0.2441190066008704
  0.4921718376380536  0.5027913884129379  0.7473524305413647
  0.2547177429068575  0.4968872129605106  0.0041770520457143
  0.2488958137640029  0.0013346278127944  0.4990450835709783
  0.2441463232472861  0.5002839369165371  0.4868253907309645
  0.7543659415466516  0.4996950558860645 -0.0005853018593260
  0.7447509080262917  0.5017278955987510  0.4918203822709829
  0.0013091774782847  0.7462409458371659  0.9968271341897117
  0.5112369894452574  0.2481440862836465  0.9941251400436085
  0.0043721418184469  0.5006559414189373  0.7498634615967393
  0.2511619758902966  0.0003976960059063  0.0024786521919902
  0.7527138201947309  0.9967335188315263  0.0039841464084641
  0.7491624120699072  0.0016250451492759  0.4972626291756631
  0.9975040314242984  0.2509883241217606  0.9950007758395385
  0.9965731625268184  0.2469453730845787  0.5085276796467852
  0.9958109583537070  0.7558096621559526  0.5054337443359037
  0.4989066249635440  0.2544283510209964  0.5001202724049242
  0.5053684981337624  0.7502037450963812  0.9982670680789635
  0.4933996853301806  0.7470628939785505  0.4967918724100789
 
  0.00000000E+00  0.00000000E+00  0.00000000E+00
  0.00000000E+00  0.00000000E+00  0.00000000E+00
  0.00000000E+00  0.00000000E+00  0.00000000E+00
  0.00000000E+00  0.00000000E+00  0.00000000E+00
  0.00000000E+00  0.00000000E+00  0.00000000E+00
  0.00000000E+00  0.00000000E+00  0.00000000E+00
  0.00000000E+00  0.00000000E+00  0.00000000E+00
  0.00000000E+00  0.00000000E+00  0.00000000E+00
  0.00000000E+00  0.00000000E+00  0.00000000E+00
  0.00000000E+00  0.00000000E+00  0.00000000E+00
  0.00000000E+00  0.00000000E+00  0.00000000E+00
  0.00000000E+00  0.00000000E+00  0.00000000E+00
  0.00000000E+00  0.00000000E+00  0.00000000E+00
  0.00000000E+00  0.00000000E+00  0.00000000E+00
  0.00000000E+00  0.00000000E+00  0.00000000E+00
  0.00000000E+00  0.00000000E+00  0.00000000E+00
  0.00000000E+00  0.00000000E+00  0.00000000E+00
  0.00000000E+00  0.00000000E+00  0.00000000E+00
  0.00000000E+00  0.00000000E+00  0.00000000E+00
  0.00000000E+00  0.00000000E+00  0.00000000E+00
  0.00000000E+00  0.00000000E+00  0.00000000E+00
  0.00000000E+00  0.00000000E+00  0.00000000E+00
  0.00000000E+00  0.00000000E+00  0.00000000E+00
  0.00000000E+00  0.00000000E+00  0.00000000E+00
  0.00000000E+00  0.00000000E+00  0.00000000E+00
  0.00000000E+00  0.00000000E+00  0.00000000E+00
  0.00000000E+00  0.00000000E+00  0.00000000E+00
  0.00000000E+00  0.00000000E+00  0.00000000E+00
  0.00000000E+00  0.00000000E+00  0.00000000E+00
  0.00000000E+00  0.00000000E+00  0.00000000E+00
  0.00000000E+00  0.00000000E+00  0.00000000E+00
  0.00000000E+00  0.00000000E+00  0.00000000E+00
