Na4 Ni4 O8 F4                           
   1.00000000000000     
     5.1638168980201131    0.0346324658582625   -0.1059091496762833
     0.0528444882499016    5.1584463550529094   -0.0857668594803108
     0.1031636637647468    0.1199167962972912    7.8345309885141283
   Na   Ni   O    F 
     4     4     8     4
Direct
  0.0042610845233355  0.0519284397219124  0.2428934088173023
  0.0094550290698336  0.9702413105680492  0.7422356436957926
  0.4942239278941614  0.4451952666503090  0.7510981759746969
  0.5007877018292248  0.5167446055495759  0.2567959950961765
  0.4966574722825996  0.9861385685557025  0.0056276785318232
  0.0088032211201394  0.5062196063649083  0.0015641155010542
  0.4971605828813850  0.9963655686231832  0.4991211316573825
  0.9870779085813339  0.5263277071528307  0.5023886459053415
  0.3057280419702764  0.6829482588957845  0.9617739730484089
  0.1833061269467322  0.1950071257132748  0.9698465907819980
  0.8235382687534241  0.8079139439199565  0.0396028072245898
  0.3272609535791489  0.6988425411566936  0.5371403740117273
  0.6886053820096265  0.2993498174710609  0.4818089762555218
  0.7926387539383981  0.8380380809418284  0.4467491612533721
  0.5495013594676408  0.9799833064776280  0.7298838506402632
  0.4542984239725385  0.9782574685036991  0.2637861698423123
  0.6898813355576223  0.3212181604931104  0.0282918543760076
  0.1935784567770682  0.1948177533056850  0.5334605196067415
  0.0683977347912261  0.4777052891323876  0.2548529980886372
  0.9248382340542776  0.5267571808024272  0.7510779296908368
 
  0.00000000E+00  0.00000000E+00  0.00000000E+00
  0.00000000E+00  0.00000000E+00  0.00000000E+00
  0.00000000E+00  0.00000000E+00  0.00000000E+00
  0.00000000E+00  0.00000000E+00  0.00000000E+00
  0.00000000E+00  0.00000000E+00  0.00000000E+00
  0.00000000E+00  0.00000000E+00  0.00000000E+00
  0.00000000E+00  0.00000000E+00  0.00000000E+00
  0.00000000E+00  0.00000000E+00  0.00000000E+00
  0.00000000E+00  0.00000000E+00  0.00000000E+00
  0.00000000E+00  0.00000000E+00  0.00000000E+00
  0.00000000E+00  0.00000000E+00  0.00000000E+00
  0.00000000E+00  0.00000000E+00  0.00000000E+00
  0.00000000E+00  0.00000000E+00  0.00000000E+00
  0.00000000E+00  0.00000000E+00  0.00000000E+00
  0.00000000E+00  0.00000000E+00  0.00000000E+00
  0.00000000E+00  0.00000000E+00  0.00000000E+00
  0.00000000E+00  0.00000000E+00  0.00000000E+00
  0.00000000E+00  0.00000000E+00  0.00000000E+00
  0.00000000E+00  0.00000000E+00  0.00000000E+00
  0.00000000E+00  0.00000000E+00  0.00000000E+00
