Na4 Ni4 O8 F4                           
   1.00000000000000     
     5.4492220912324605   -0.0728287263258936   -0.0659786703320176
    -2.7284892102685387    4.4986253518789949    0.0359809472779666
    -0.1654658645549536   -0.0913772404089165    8.9628484873369256
   Na   Ni   O    F 
     4     4     8     4
Direct
  0.0082489328631891  0.0354667061078862  0.0571430028512497
  0.0145458441334602  0.9666692492265256  0.5436535348988774
  0.2855534222251635  0.6412270555878057  0.2409001324659099
  0.6809369376045356  0.3397077106167603  0.7623825261972245
  0.3462701915269886  0.6439365372680805  0.6114679987522751
  0.6741146795879318  0.2934246640515452  0.3882004652712563
  0.6490036156054761  0.3522592925736365  0.1011940406932698
  0.3257236766333799  0.6926417600899359  0.8918878746854932
  0.4024668143040473  0.0536713725979648  0.9704875570473260
  0.9778315572699821  0.4466463399084473  0.9975994761567959
  0.5697338300427699  0.6291780045003051  0.0098778750411495
  0.4005498903324432  0.9162408431186965  0.4668520250288725
  0.0399525792437954  0.4025685578479368  0.4850134725640055
  0.2553229381428681  0.3800206921945659  0.7664891990883596
  0.7292241108862170  0.1171217180435214  0.2167265657189230
  0.1483652578316636  0.7531573469872227  0.7276085146820216
  0.5916286359759364  0.5128901876149387  0.5319063497635547
  0.8751422558336697  0.6576897864572928  0.2573601747558195
  0.3479471143286470  0.2508693047593402  0.2459262415462889
  0.6774377156278418  0.9146128704475927  0.7273229727913416
 
  0.00000000E+00  0.00000000E+00  0.00000000E+00
  0.00000000E+00  0.00000000E+00  0.00000000E+00
  0.00000000E+00  0.00000000E+00  0.00000000E+00
  0.00000000E+00  0.00000000E+00  0.00000000E+00
  0.00000000E+00  0.00000000E+00  0.00000000E+00
  0.00000000E+00  0.00000000E+00  0.00000000E+00
  0.00000000E+00  0.00000000E+00  0.00000000E+00
  0.00000000E+00  0.00000000E+00  0.00000000E+00
  0.00000000E+00  0.00000000E+00  0.00000000E+00
  0.00000000E+00  0.00000000E+00  0.00000000E+00
  0.00000000E+00  0.00000000E+00  0.00000000E+00
  0.00000000E+00  0.00000000E+00  0.00000000E+00
  0.00000000E+00  0.00000000E+00  0.00000000E+00
  0.00000000E+00  0.00000000E+00  0.00000000E+00
  0.00000000E+00  0.00000000E+00  0.00000000E+00
  0.00000000E+00  0.00000000E+00  0.00000000E+00
  0.00000000E+00  0.00000000E+00  0.00000000E+00
  0.00000000E+00  0.00000000E+00  0.00000000E+00
  0.00000000E+00  0.00000000E+00  0.00000000E+00
  0.00000000E+00  0.00000000E+00  0.00000000E+00
