Na4 Fe4 O8 F4                           
   1.00000000000000     
     5.2223156651924150   -0.0020203119877278    0.0078413068342466
    -0.0010853150352329    5.2793020866315192   -0.0251589272016896
     0.0114512658803797   -0.0351435911204009    7.5793963729362064
   Na   Fe   O    F 
     4     4     8     4
Direct
  0.9879875195518941  0.0333072740419902  0.2530318659016810
  0.0160184578493713  0.9592508385211240  0.7584099585642575
  0.4885330858799711  0.4681772010795162  0.7452414079015136
  0.5136169325386900  0.5387419466003976  0.2538605596152695
  0.5125871454534494  0.0151145016803320  0.0004058311134407
  0.9938457365913984  0.4905102656665083  0.0083667363247772
  0.4802044118136335  0.0093895156869484  0.5006765999762588
  0.9987889127432378  0.4866986776353439  0.5082792169251437
  0.7162997637375030  0.2837042733392056  0.0441277021732770
  0.2233009625009625  0.2213625781736901  0.9630445315411186
  0.7939143593813891  0.7802526343722740  0.0317867633366098
  0.2795977410375791  0.7138176785165489  0.5327476120729896
  0.7084794614264455  0.2891185744729768  0.4648928387435203
  0.2045672870647909  0.2097021913363176  0.5408077911360141
  0.0715999934900358  0.4932114206884691  0.2471513811572919
  0.9276270872712288  0.5187407412755011  0.7486973280688686
  0.2994870562886328  0.7180392080040762  0.9511118581217507
  0.7794588590188636  0.7930500146241432  0.4534921492394955
  0.5931458474763889  0.0092199540799302  0.7471148989462554
  0.4109393788845269  0.9685905102046987  0.2467529691404655
 
  0.00000000E+00  0.00000000E+00  0.00000000E+00
  0.00000000E+00  0.00000000E+00  0.00000000E+00
  0.00000000E+00  0.00000000E+00  0.00000000E+00
  0.00000000E+00  0.00000000E+00  0.00000000E+00
  0.00000000E+00  0.00000000E+00  0.00000000E+00
  0.00000000E+00  0.00000000E+00  0.00000000E+00
  0.00000000E+00  0.00000000E+00  0.00000000E+00
  0.00000000E+00  0.00000000E+00  0.00000000E+00
  0.00000000E+00  0.00000000E+00  0.00000000E+00
  0.00000000E+00  0.00000000E+00  0.00000000E+00
  0.00000000E+00  0.00000000E+00  0.00000000E+00
  0.00000000E+00  0.00000000E+00  0.00000000E+00
  0.00000000E+00  0.00000000E+00  0.00000000E+00
  0.00000000E+00  0.00000000E+00  0.00000000E+00
  0.00000000E+00  0.00000000E+00  0.00000000E+00
  0.00000000E+00  0.00000000E+00  0.00000000E+00
  0.00000000E+00  0.00000000E+00  0.00000000E+00
  0.00000000E+00  0.00000000E+00  0.00000000E+00
  0.00000000E+00  0.00000000E+00  0.00000000E+00
  0.00000000E+00  0.00000000E+00  0.00000000E+00
