Na4 V4 O8 F4                            
   1.00000000000000     
     5.3592706735661970    0.1562573948420511    0.0311535292017075
     0.1651188823291931    5.4261305635468675   -0.0085840797553924
     0.0286848545365148   -0.0203570470245925    7.4045828266878617
   Na   V    O    F 
     4     4     8     4
Direct
  0.9980329526305119  0.0218297298421346  0.2494068310058282
  0.0006319256144743  0.9760537556993939  0.7500537362915217
  0.4992802282422492  0.4565871038104950  0.7494504591046145
  0.5006900237464692  0.5434476619098528  0.2505722504161081
  0.5009471045332332  0.0000730716260600  0.0000765322565749
  0.0004209820213046  0.4998655533154664 -0.0001385110281724
  0.4995825765171621  0.0001544930383284  0.5000330340775688
 -0.0001301821189527  0.5001850672065460  0.4999613731080619
  0.2002099482148404  0.2246203119357337  0.9731536439187183
  0.8000754579048455  0.7756832258187183  0.0270370573367001
  0.7761593891831722  0.7993859345162627  0.4727673579197464
  0.2231927565357011  0.2007861256663327  0.5273514429379017
  0.0606231018156059  0.4955538741791463  0.2613991878211573
  0.9397211296296544  0.5053597258214831  0.7387665623475610
  0.5590284490229124  0.0195913178620324  0.7616301050150477
  0.4408165491801250  0.9808375135196238  0.2383497429162017
  0.7022765131585117  0.2965635378270284  0.0433229980696485
  0.2984340552408706  0.7036313319675249  0.9570306228981468
  0.2989915980244973  0.7021895324666503  0.5415827968186397
  0.7010154409028331  0.2976011319711857  0.4581927767683966
 
  0.00000000E+00  0.00000000E+00  0.00000000E+00
  0.00000000E+00  0.00000000E+00  0.00000000E+00
  0.00000000E+00  0.00000000E+00  0.00000000E+00
  0.00000000E+00  0.00000000E+00  0.00000000E+00
  0.00000000E+00  0.00000000E+00  0.00000000E+00
  0.00000000E+00  0.00000000E+00  0.00000000E+00
  0.00000000E+00  0.00000000E+00  0.00000000E+00
  0.00000000E+00  0.00000000E+00  0.00000000E+00
  0.00000000E+00  0.00000000E+00  0.00000000E+00
  0.00000000E+00  0.00000000E+00  0.00000000E+00
  0.00000000E+00  0.00000000E+00  0.00000000E+00
  0.00000000E+00  0.00000000E+00  0.00000000E+00
  0.00000000E+00  0.00000000E+00  0.00000000E+00
  0.00000000E+00  0.00000000E+00  0.00000000E+00
  0.00000000E+00  0.00000000E+00  0.00000000E+00
  0.00000000E+00  0.00000000E+00  0.00000000E+00
  0.00000000E+00  0.00000000E+00  0.00000000E+00
  0.00000000E+00  0.00000000E+00  0.00000000E+00
  0.00000000E+00  0.00000000E+00  0.00000000E+00
  0.00000000E+00  0.00000000E+00  0.00000000E+00
