Na2 Co2 O4 F2                           
   1.00000000000000     
     3.5967056161338298    0.0000012491964855    0.0000071783246870
     0.0000012642039893    3.5967681687098390    0.0000000850779622
    -0.0000777308511130    0.0000001537875270    8.3721413031157965
   Na   Co   O    F 
     2     2     4     2
Direct
 -0.0000017857429033 -0.0000000010042187  0.0001997030294184
 -0.0000020308914248 -0.0000000036296680  0.5002559263290288
  0.4999913266224044  0.5000000008423013  0.2556035635454336
  0.4999912183498847  0.5000000004677307  0.7556719103030916
  0.5000075699848929 -0.0000000029622715  0.2552945706626590
  0.5000073267520457 -0.0000000078962682  0.7552729442959041
  0.0000045255383760  0.5000000054207139  0.2552946367608852
  0.0000028742185706  0.5000000017838275  0.7552730149028719
  0.4999995461262903  0.5000000170388966  0.0050721113443488
  0.4999994290418631  0.4999999899389632  0.5050616188263509
 
  0.00000000E+00  0.00000000E+00  0.00000000E+00
  0.00000000E+00  0.00000000E+00  0.00000000E+00
  0.00000000E+00  0.00000000E+00  0.00000000E+00
  0.00000000E+00  0.00000000E+00  0.00000000E+00
  0.00000000E+00  0.00000000E+00  0.00000000E+00
  0.00000000E+00  0.00000000E+00  0.00000000E+00
  0.00000000E+00  0.00000000E+00  0.00000000E+00
  0.00000000E+00  0.00000000E+00  0.00000000E+00
  0.00000000E+00  0.00000000E+00  0.00000000E+00
  0.00000000E+00  0.00000000E+00  0.00000000E+00
