Na4 Mn4 O8 F4                           
   1.00000000000000     
     5.1477143829569370   -0.0003012196704565   -0.0325331740083176
    -0.0003177812625240    5.2248235028739218    0.0038278440103095
    -0.0423724589488184   -0.0047350648207780    7.4561529009843799
   Na   Mn   O    F 
     4     4     8     4
Direct
  0.9870952340814735  0.0420212901950910  0.2524297839499180
  0.0114181414368835  0.9570687355850099  0.7436728377581514
  0.4869842922943182  0.4579823279308050  0.7525020301982159
  0.5115498882794858  0.5429927177572700  0.2436786208580418
  0.4881964953637676  0.0135840834344113  0.0147920543335931
  0.0146653159742707  0.4857290313526579  0.9860421039871933
  0.5147959626321832  0.0143096145781871  0.4860758352655450
  0.9883872673406979  0.4864021293202602  0.5147268935919965
  0.9157761823684805  0.5210728506863341  0.7514870189735611
  0.4158105409541002  0.9785927583796737  0.2515620207757643
  0.7096634354924012  0.2862928547269031  0.0411004201346838
  0.2943147719614414  0.7048269676700341  0.9636054726080134
  0.2038062173619184  0.2003477026593256  0.9550887353546922
  0.7045949281101359  0.2991472253599783  0.4545300364045731
  0.7943201301299866  0.7949510673986611  0.4636420602108635
  0.2103313660412546  0.2141353822085752  0.5412616027652736
  0.0797029374913633  0.4878355139963833  0.2502953268572800
  0.5795917244601746  0.0123770491667736  0.7502961045425570
  0.7945372264664482  0.7905941196391075  0.0414339635316034
  0.2944579417592223  0.7097365779545723  0.5417770778984797
 
  0.00000000E+00  0.00000000E+00  0.00000000E+00
  0.00000000E+00  0.00000000E+00  0.00000000E+00
  0.00000000E+00  0.00000000E+00  0.00000000E+00
  0.00000000E+00  0.00000000E+00  0.00000000E+00
  0.00000000E+00  0.00000000E+00  0.00000000E+00
  0.00000000E+00  0.00000000E+00  0.00000000E+00
  0.00000000E+00  0.00000000E+00  0.00000000E+00
  0.00000000E+00  0.00000000E+00  0.00000000E+00
  0.00000000E+00  0.00000000E+00  0.00000000E+00
  0.00000000E+00  0.00000000E+00  0.00000000E+00
  0.00000000E+00  0.00000000E+00  0.00000000E+00
  0.00000000E+00  0.00000000E+00  0.00000000E+00
  0.00000000E+00  0.00000000E+00  0.00000000E+00
  0.00000000E+00  0.00000000E+00  0.00000000E+00
  0.00000000E+00  0.00000000E+00  0.00000000E+00
  0.00000000E+00  0.00000000E+00  0.00000000E+00
  0.00000000E+00  0.00000000E+00  0.00000000E+00
  0.00000000E+00  0.00000000E+00  0.00000000E+00
  0.00000000E+00  0.00000000E+00  0.00000000E+00
  0.00000000E+00  0.00000000E+00  0.00000000E+00
