Fe4 O4 F8                               
   1.00000000000000     
     5.5109187770775474    0.0064552465678724   -0.0000174680009989
    -2.7581351831137084    4.7810318657989441   -0.0000006148064789
    -0.0000324876865071   -0.0000167827601451    9.3790778030727022
   Fe   O    F 
     4     4     8
Direct
  0.3473288037665263  0.6901308096670689  0.6031852806246004
  0.6525772948990776  0.3097089003335180  0.3967762640755718
  0.6525621852552265  0.3097180169160644  0.1032191081645540
  0.3473215602113556  0.6901456218667985  0.8968127002111614
  0.4999008300002821  0.9986475851840194  0.0006973255895256
  0.4999203240383797  0.9986802667764300  0.4992877541211164
  0.8137020833051457  0.1722490699376220  0.2500126870209942
  0.1908313637422431  0.8335411707290030  0.7500101775395102
  0.9986553687558329  0.4996051244479138  0.9988860322855369
  0.4987960459951100  0.4988935050666897  0.9999138430474064
  0.9986724324963175  0.4996229159489001  0.5011191880141956
  0.4988081260256328  0.4988699239799464  0.5000785214139546
  0.8212702664023601  0.6025836206281404  0.2500062600623260
  0.1792097900172991  0.3979320112187229  0.7500072679902949
  0.3582673671701672  0.1838553409418834  0.2499924348114414
  0.6421761579190368  0.8158161163572791  0.7499951550278173
 
  0.00000000E+00  0.00000000E+00  0.00000000E+00
  0.00000000E+00  0.00000000E+00  0.00000000E+00
  0.00000000E+00  0.00000000E+00  0.00000000E+00
  0.00000000E+00  0.00000000E+00  0.00000000E+00
  0.00000000E+00  0.00000000E+00  0.00000000E+00
  0.00000000E+00  0.00000000E+00  0.00000000E+00
  0.00000000E+00  0.00000000E+00  0.00000000E+00
  0.00000000E+00  0.00000000E+00  0.00000000E+00
  0.00000000E+00  0.00000000E+00  0.00000000E+00
  0.00000000E+00  0.00000000E+00  0.00000000E+00
  0.00000000E+00  0.00000000E+00  0.00000000E+00
  0.00000000E+00  0.00000000E+00  0.00000000E+00
  0.00000000E+00  0.00000000E+00  0.00000000E+00
  0.00000000E+00  0.00000000E+00  0.00000000E+00
  0.00000000E+00  0.00000000E+00  0.00000000E+00
  0.00000000E+00  0.00000000E+00  0.00000000E+00
