Fe8 O8 F16                              
    1.000000000000000     
     7.6423234174842998   -0.0147410090235866   -0.0013991143406152
     0.0016963258529613    7.7016641711733405   -0.0112587428572551
    -0.0023266739978212   -0.0209997717415129    7.7423229760255516
   Fe   O    F 
     8     8    16
Direct
  0.9963573050497700  0.0005905804086552  0.9966771612903358
  0.9955216526026049  0.9993765798543564  0.5030689387534863
  0.9862822579293677  0.5003427651715953  0.9997130023993748
  0.9888225875700769  0.4993255590827417  0.5008390387846404
  0.5039680695349347  0.9993346611488292  0.0032794469232371
  0.5034126011872715  0.0005570959505263  0.4968961729131323
  0.5113503591286133  0.4993143387633197  0.0010998365557384
  0.5138142412608104  0.5003233283866564  0.4998394879124817
  0.9976012081043208  0.0007531090935800  0.2500120021838939
  0.5019815240149654  0.9989086864573125  0.7502759214556818
  0.2493385511199335  0.0003541644724834  0.4995853649425541
  0.2391781929476693  0.4999644189611558  0.5000248906892182
  0.7389818055647197  0.4996466261519075  0.0002487110019729
  0.7611852583827030  0.5000313711087685  0.5000818527617383
  0.2504036022884648  0.0003543769419210  0.9999939220985183
  0.2611786825638944  0.4997612306020969  0.0000493290475134
  0.0042640072218418  0.7489154787734122  0.9923404974389456
  0.4965989909324477  0.2508424620887268  0.0073053442387447
  0.9852207192199174  0.9998195749342784  0.7496650087125190
  0.0165343163212839  0.4995748948572754  0.2488689102228250
  0.0174306995453790  0.5011170575108466  0.7511795601793736
  0.5150440106682055  0.0007901914800641  0.2499295903600540
  0.4829828638842457  0.4985399646706981  0.2513815142855904
  0.4840672085370414  0.5014291605031431  0.7490895000502178
  0.7501721909177661  0.0000751501708578  0.9997569277572609
  0.7494963748277854  0.9999516190752544  0.5001857515687860
  0.0034279433050273  0.2517999844854586  0.9928000665627010
  0.0021176921294597  0.2509928660602156  0.5067409181550886
  0.0031536910158181  0.7485104502089328  0.5062780329891794
  0.4955606134409578  0.2516653552154580  0.4934658648131816
  0.4978979291533321  0.7482621803765497  0.0068664556847366
  0.4966528496293563  0.7487747170329229  0.4924609772672781
 
  0.00000000E+00  0.00000000E+00  0.00000000E+00
  0.00000000E+00  0.00000000E+00  0.00000000E+00
  0.00000000E+00  0.00000000E+00  0.00000000E+00
  0.00000000E+00  0.00000000E+00  0.00000000E+00
  0.00000000E+00  0.00000000E+00  0.00000000E+00
  0.00000000E+00  0.00000000E+00  0.00000000E+00
  0.00000000E+00  0.00000000E+00  0.00000000E+00
  0.00000000E+00  0.00000000E+00  0.00000000E+00
  0.00000000E+00  0.00000000E+00  0.00000000E+00
  0.00000000E+00  0.00000000E+00  0.00000000E+00
  0.00000000E+00  0.00000000E+00  0.00000000E+00
  0.00000000E+00  0.00000000E+00  0.00000000E+00
  0.00000000E+00  0.00000000E+00  0.00000000E+00
  0.00000000E+00  0.00000000E+00  0.00000000E+00
  0.00000000E+00  0.00000000E+00  0.00000000E+00
  0.00000000E+00  0.00000000E+00  0.00000000E+00
  0.00000000E+00  0.00000000E+00  0.00000000E+00
  0.00000000E+00  0.00000000E+00  0.00000000E+00
  0.00000000E+00  0.00000000E+00  0.00000000E+00
  0.00000000E+00  0.00000000E+00  0.00000000E+00
  0.00000000E+00  0.00000000E+00  0.00000000E+00
  0.00000000E+00  0.00000000E+00  0.00000000E+00
  0.00000000E+00  0.00000000E+00  0.00000000E+00
  0.00000000E+00  0.00000000E+00  0.00000000E+00
  0.00000000E+00  0.00000000E+00  0.00000000E+00
  0.00000000E+00  0.00000000E+00  0.00000000E+00
  0.00000000E+00  0.00000000E+00  0.00000000E+00
  0.00000000E+00  0.00000000E+00  0.00000000E+00
  0.00000000E+00  0.00000000E+00  0.00000000E+00
  0.00000000E+00  0.00000000E+00  0.00000000E+00
  0.00000000E+00  0.00000000E+00  0.00000000E+00
  0.00000000E+00  0.00000000E+00  0.00000000E+00
