V4 O4 F8                                
   1.00000000000000     
     5.4765113585944833    0.0606419571734939   -0.2025956112478053
    -2.6831772433262597    4.6933119861373749    0.0968516686551727
    -0.3495113857216814   -0.0074317039032637    9.3900538910037792
   V    O    F 
     4     4     8
Direct
  0.3677940207174874  0.6808663443114947  0.6180377991761421
  0.7052889422688937  0.3604380872081839  0.3994304159486948
  0.6934655896109311  0.3215534897700888  0.1164270649605150
  0.2803463168941128  0.6368028782853102  0.8996194961662157
  0.9968450090886665  0.4936176231165446  0.9942239154526582
  0.9886687621995031  0.4943214103126843  0.5088363110054317
  0.6108638225216996  0.7982286562682100  0.7504201199923726
  0.8293927723492078  0.2034783565264084  0.2498139290524776
  0.4992087850164112  0.9995428052915373  0.9931090027992752
  0.5071929108048334  0.5047296276343173  0.0033116031699542
  0.4880384160391642  0.9959411532645652  0.4889798083116285
  0.4849432677840939  0.4951653334041278  0.4901336447024316
  0.8189148340004462  0.6468247680697856  0.2502473072353046
  0.1725505072836680  0.3537121942706109  0.7529364693451885
  0.3849177289243202  0.2029971670606936  0.2406534333426142
  0.1715683144965748  0.8117801052054378  0.7438196793391026
 
  0.00000000E+00  0.00000000E+00  0.00000000E+00
  0.00000000E+00  0.00000000E+00  0.00000000E+00
  0.00000000E+00  0.00000000E+00  0.00000000E+00
  0.00000000E+00  0.00000000E+00  0.00000000E+00
  0.00000000E+00  0.00000000E+00  0.00000000E+00
  0.00000000E+00  0.00000000E+00  0.00000000E+00
  0.00000000E+00  0.00000000E+00  0.00000000E+00
  0.00000000E+00  0.00000000E+00  0.00000000E+00
  0.00000000E+00  0.00000000E+00  0.00000000E+00
  0.00000000E+00  0.00000000E+00  0.00000000E+00
  0.00000000E+00  0.00000000E+00  0.00000000E+00
  0.00000000E+00  0.00000000E+00  0.00000000E+00
  0.00000000E+00  0.00000000E+00  0.00000000E+00
  0.00000000E+00  0.00000000E+00  0.00000000E+00
  0.00000000E+00  0.00000000E+00  0.00000000E+00
  0.00000000E+00  0.00000000E+00  0.00000000E+00
