Na4 Co4 O8 F4                           
   1.00000000000000     
     5.4325256057238658   -0.0646361393912566    0.0003538264302637
    -2.7731310587922287    4.6728433691194580    0.0000409292585312
     0.0010315878535552    0.0002240589000535    9.0040522325648826
   Na   Co   O    F 
     4     4     8     4
Direct
  0.0187257636500178  0.0181847929861050  0.9951998408037994
  0.0187640691195057  0.0182418908640543  0.5047979795379121
  0.3171573863313810  0.6357754828022593  0.2498737625386838
  0.6364225404179962  0.3181000908159319  0.7499729533691735
  0.3200297498772571  0.6677113299355355  0.6094830371063438
  0.6672700130635008  0.3198149704361555  0.3905663265908714
  0.6673430460993188  0.3198832755746821  0.1094575491841425
  0.3200190009047503  0.6676770809091792  0.8904971761928664
  0.4720895883576404  0.0489881400267578  0.9882024494535173
  0.0486999128199841  0.4721418924814600  0.0111982930261831
  0.4721903406411130  0.0489924051158752  0.5117556585117242
  0.0486136627571838  0.4721285419506742  0.4888437583406926
  0.8426886965712157  0.5962946352944343  0.2499914081505068
  0.5971043512985688  0.8425068161572966  0.7499702249308697
  0.7235239753074652  0.1030940087089576  0.2499630795536660
  0.1030123320658305  0.7240194406016300  0.7500343488024654
  0.5984137892944830  0.5986560236318539  0.9999646446626684
  0.5983813836284781  0.5986368904252899  0.5000650016409338
  0.2171582194749817  0.3109114992022484  0.7500424106731316
  0.3123921783193211  0.2182407920796123  0.2501200969298480
 
  0.00000000E+00  0.00000000E+00  0.00000000E+00
  0.00000000E+00  0.00000000E+00  0.00000000E+00
  0.00000000E+00  0.00000000E+00  0.00000000E+00
  0.00000000E+00  0.00000000E+00  0.00000000E+00
  0.00000000E+00  0.00000000E+00  0.00000000E+00
  0.00000000E+00  0.00000000E+00  0.00000000E+00
  0.00000000E+00  0.00000000E+00  0.00000000E+00
  0.00000000E+00  0.00000000E+00  0.00000000E+00
  0.00000000E+00  0.00000000E+00  0.00000000E+00
  0.00000000E+00  0.00000000E+00  0.00000000E+00
  0.00000000E+00  0.00000000E+00  0.00000000E+00
  0.00000000E+00  0.00000000E+00  0.00000000E+00
  0.00000000E+00  0.00000000E+00  0.00000000E+00
  0.00000000E+00  0.00000000E+00  0.00000000E+00
  0.00000000E+00  0.00000000E+00  0.00000000E+00
  0.00000000E+00  0.00000000E+00  0.00000000E+00
  0.00000000E+00  0.00000000E+00  0.00000000E+00
  0.00000000E+00  0.00000000E+00  0.00000000E+00
  0.00000000E+00  0.00000000E+00  0.00000000E+00
  0.00000000E+00  0.00000000E+00  0.00000000E+00
