Mn4 O4 F8                               
   1.00000000000000     
     4.8741702265311231    0.0001666511859041   -0.0000083764684303
    -2.4370805560756508    4.1575844304507719    0.0001533066662022
    -0.0005953953049580    0.0001213134455612    9.1741588061960364
   Mn   O    F 
     4     4     8
Direct
  0.3559572453893305  0.6977777037867056  0.6103278191112863
  0.6580978035243626  0.3021419075543602  0.3896719648299256
  0.6582007939503091  0.3022131543774614  0.1103344676279868
  0.3559775592944956  0.6978320047436533  0.8896861511648404
  0.3576668759975449  0.0000860763835391  0.9999661182226031
  0.3575420806656857  0.9999129467051251  0.4999867993537545
  0.6305846693591219  0.9417396162299446  0.7499704877112454
  0.6888635837991673  0.0583320277497429  0.2499912431698177
  0.9960854026119706  0.3536085529243529  0.0000660146942624
  0.6425748180236338  0.6465258416371662 -0.0000484030677940
  0.9959513756220392  0.3534782172510287  0.4999633277698586
  0.6424311466451061  0.6463724663936236  0.5000530959099317
  0.9300572892148351  0.6300841104413405  0.2500107627862481
  0.2999669083994425  0.3698609191785716  0.7500295176923314
  0.3662154156925845  0.3023394635366188  0.2499840923554593
  0.0638270318103635  0.6976949911067722  0.7500065406682356
 
  0.00000000E+00  0.00000000E+00  0.00000000E+00
  0.00000000E+00  0.00000000E+00  0.00000000E+00
  0.00000000E+00  0.00000000E+00  0.00000000E+00
  0.00000000E+00  0.00000000E+00  0.00000000E+00
  0.00000000E+00  0.00000000E+00  0.00000000E+00
  0.00000000E+00  0.00000000E+00  0.00000000E+00
  0.00000000E+00  0.00000000E+00  0.00000000E+00
  0.00000000E+00  0.00000000E+00  0.00000000E+00
  0.00000000E+00  0.00000000E+00  0.00000000E+00
  0.00000000E+00  0.00000000E+00  0.00000000E+00
  0.00000000E+00  0.00000000E+00  0.00000000E+00
  0.00000000E+00  0.00000000E+00  0.00000000E+00
  0.00000000E+00  0.00000000E+00  0.00000000E+00
  0.00000000E+00  0.00000000E+00  0.00000000E+00
  0.00000000E+00  0.00000000E+00  0.00000000E+00
  0.00000000E+00  0.00000000E+00  0.00000000E+00
