Hexasodium dicobaltate(III)             
   1.00000000000000     
     5.6615236939090430   -0.0245084041198918   -0.0000461537430154
     0.4599400843042768    5.8231605882751767    0.0055332377474966
     0.0663110773139001    2.7191098399468241    5.6835589356098462
   Co   Na   O 
     2     6     6
Direct
  0.3611505870969233  0.1911011470838767  0.3106639658648300
  0.6388178984155602  0.8088568976223939  0.6893263112227392
  0.0593160372328778  0.7702154480557539  0.4418803063198802
  0.9407112930575856  0.2297245754432090  0.5580913739361958
  0.8570591569900371  0.2300687830034401  0.0195404640265393
  0.1429134587115544  0.7698952907784939  0.9804503351899378
  0.4365750741615138  0.2553341297771091  0.7444329569596206
  0.5634467697182163  0.7447205994764488  0.2555798761191896
  0.2473020073116892  0.0944400757092099  0.0996935042125981
  0.7525228674730750  0.9054715004267763  0.9004247058097716
  0.3043146327807978  0.9244546530563756  0.6262303433929518
  0.6955876762489454  0.0755637351365671  0.3737238104373563
  0.2584612028761130  0.4709062741029902  0.3452293279408007
  0.7418214329251082  0.5292469273273480  0.6547326905675867
 
  0.00000000E+00  0.00000000E+00  0.00000000E+00
  0.00000000E+00  0.00000000E+00  0.00000000E+00
  0.00000000E+00  0.00000000E+00  0.00000000E+00
  0.00000000E+00  0.00000000E+00  0.00000000E+00
  0.00000000E+00  0.00000000E+00  0.00000000E+00
  0.00000000E+00  0.00000000E+00  0.00000000E+00
  0.00000000E+00  0.00000000E+00  0.00000000E+00
  0.00000000E+00  0.00000000E+00  0.00000000E+00
  0.00000000E+00  0.00000000E+00  0.00000000E+00
  0.00000000E+00  0.00000000E+00  0.00000000E+00
  0.00000000E+00  0.00000000E+00  0.00000000E+00
  0.00000000E+00  0.00000000E+00  0.00000000E+00
  0.00000000E+00  0.00000000E+00  0.00000000E+00
  0.00000000E+00  0.00000000E+00  0.00000000E+00
