Na4 Cr4 O8 F4                           
   1.00000000000000     
     5.3007372456888753    0.0000540546679231    0.0000000914760228
     0.0000531634519815    5.4687503167682916    0.0220109644419637
    -0.0000042792278913   -0.0133599549666620    7.1196425529017784
   Na   Cr   O    F 
     4     4     8     4
Direct
  0.0067535712278643  0.0092271375148450  0.2547617534217733
  0.0051969659821658  0.9377127294031323  0.7522411888992948
  0.5067574510961550  0.4907926529726107  0.7452325447463104
  0.5051952811887440  0.5622839947270322  0.2477592411174497
  0.5233791406024000  0.0419847062745064 -0.0002102000598629
  0.0233744287386400  0.4580234465293319  0.0002164157614450
  0.4750763167561440  0.0337058528536232  0.4996071144832465
  0.9750625897800281  0.4662840621809722  0.5003968701834668
  0.0610632359328850  0.4936627061025126  0.2519982328035445
  0.9485367084756924  0.5166806644781221  0.7525697146617100
  0.5610641837111193  0.0063322757028481  0.7480053683101257
  0.4485386442488603  0.9833135047705392  0.2474280824124550
  0.7033607663441700  0.3062256566137226  0.0311788966787589
  0.2033628829163745  0.1937783323667838  0.9688193805652434
  0.6852439752603623  0.3092256983080000  0.4674122569639491
  0.1852396613884247  0.1907669223170498  0.5325875200663340
  0.3062250046119183  0.6923112916807999  0.9688433619397764
  0.8062339872065850  0.8076822877171802  0.0311557166808417
  0.2851719931616225  0.7103169491096538  0.5315079124847250
  0.7851632113698449  0.7896891283767413  0.4684886278794266
 
  0.00000000E+00  0.00000000E+00  0.00000000E+00
  0.00000000E+00  0.00000000E+00  0.00000000E+00
  0.00000000E+00  0.00000000E+00  0.00000000E+00
  0.00000000E+00  0.00000000E+00  0.00000000E+00
  0.00000000E+00  0.00000000E+00  0.00000000E+00
  0.00000000E+00  0.00000000E+00  0.00000000E+00
  0.00000000E+00  0.00000000E+00  0.00000000E+00
  0.00000000E+00  0.00000000E+00  0.00000000E+00
  0.00000000E+00  0.00000000E+00  0.00000000E+00
  0.00000000E+00  0.00000000E+00  0.00000000E+00
  0.00000000E+00  0.00000000E+00  0.00000000E+00
  0.00000000E+00  0.00000000E+00  0.00000000E+00
  0.00000000E+00  0.00000000E+00  0.00000000E+00
  0.00000000E+00  0.00000000E+00  0.00000000E+00
  0.00000000E+00  0.00000000E+00  0.00000000E+00
  0.00000000E+00  0.00000000E+00  0.00000000E+00
  0.00000000E+00  0.00000000E+00  0.00000000E+00
  0.00000000E+00  0.00000000E+00  0.00000000E+00
  0.00000000E+00  0.00000000E+00  0.00000000E+00
  0.00000000E+00  0.00000000E+00  0.00000000E+00
