Ni4 O4 F8                               
   1.00000000000000     
     4.7948161796161290    0.0268197879219643   -0.0286094384909516
     0.0465308916669238    5.0680546843246157   -0.0049578300645762
     0.1355920230506086   -0.0251908873404429    6.9737209138291139
   Ni   O    F 
     4     4     8
Direct
  0.5060838964049900  0.0022170198875645  0.0033988664112264
  0.9948873181384400  0.5098262127975098  0.9957110461299773
  0.4912174824115212  0.0051175717437959  0.4963384103411775
  0.0019133384739788  0.4934595531668769  0.5029960683227500
  0.8555437951972803  0.5340239238624405  0.7407399701885116
  0.3583481514974190  0.9672839518380809  0.2411686460299880
  0.8257853121517670  0.8383358818587929  0.0700889745630440
  0.1516022372375055  0.1817023990393247  0.5699764415045800
  0.1399775675508324  0.4519634956214416  0.2577657677810468
  0.6436878952506437  0.0312969197026873  0.7579567155194595
  0.6582728020759421  0.3103876210028461  0.0649910112092927
  0.3464126892760359  0.6983357552871688  0.9394668227374580
  0.1904456496772662  0.1807586448802067  0.9271179933854354
  0.3075922479627193  0.6670239767919912  0.5686537573372648
  0.6945606828487143  0.3241141771078528  0.4327428376521916
  0.8336689338449591  0.8041528954114256  0.4308866708865964
 
  0.00000000E+00  0.00000000E+00  0.00000000E+00
  0.00000000E+00  0.00000000E+00  0.00000000E+00
  0.00000000E+00  0.00000000E+00  0.00000000E+00
  0.00000000E+00  0.00000000E+00  0.00000000E+00
  0.00000000E+00  0.00000000E+00  0.00000000E+00
  0.00000000E+00  0.00000000E+00  0.00000000E+00
  0.00000000E+00  0.00000000E+00  0.00000000E+00
  0.00000000E+00  0.00000000E+00  0.00000000E+00
  0.00000000E+00  0.00000000E+00  0.00000000E+00
  0.00000000E+00  0.00000000E+00  0.00000000E+00
  0.00000000E+00  0.00000000E+00  0.00000000E+00
  0.00000000E+00  0.00000000E+00  0.00000000E+00
  0.00000000E+00  0.00000000E+00  0.00000000E+00
  0.00000000E+00  0.00000000E+00  0.00000000E+00
  0.00000000E+00  0.00000000E+00  0.00000000E+00
  0.00000000E+00  0.00000000E+00  0.00000000E+00
