Co4 O4 F8                               
   1.00000000000000     
     5.5960209670058845    0.0614454335896304   -0.0000984747199746
    -2.7556352439774021    4.7073142541804636    0.0001428234775110
    -0.0003175384424359    0.0000985428086123    9.4588959324945563
   Co   O    F 
     4     4     8
Direct
  0.3217449680023569  0.6591655849218332  0.6054147682036870
  0.6785175939625094  0.3408398649206063  0.3945416867577440
  0.6785232861522386  0.3408491064912353  0.1054757830966729
  0.3217257614389499  0.6591684647158335  0.8945808157817743
  0.0005649485249061  0.4993777211813848  0.0005687208392898
  0.0005570003624211  0.4993187381795530  0.4994414670503223
  0.8055678851812800  0.1709681252580796  0.2500108135887105
  0.1913886791137158  0.8252047960752523  0.7499796995053042
  0.4990115020821519  0.0007776794183443 -0.0005664335713494
  0.5011594926208867  0.5016828787335277  0.0005266071461824
  0.4989451932854487  0.0007357518522284  0.5005470672355384
  0.5011413906175977  0.5016339995779282  0.4994656454603601
  0.8345337624105122  0.6334391091436183  0.2500074986991476
  0.1666452250039856  0.3659258108393672  0.7500075029998859
  0.3881658247067704  0.1859067109025849  0.2500003834725851
  0.6118074865342704  0.8150056577886230  0.7499979737341590
 
  0.00000000E+00  0.00000000E+00  0.00000000E+00
  0.00000000E+00  0.00000000E+00  0.00000000E+00
  0.00000000E+00  0.00000000E+00  0.00000000E+00
  0.00000000E+00  0.00000000E+00  0.00000000E+00
  0.00000000E+00  0.00000000E+00  0.00000000E+00
  0.00000000E+00  0.00000000E+00  0.00000000E+00
  0.00000000E+00  0.00000000E+00  0.00000000E+00
  0.00000000E+00  0.00000000E+00  0.00000000E+00
  0.00000000E+00  0.00000000E+00  0.00000000E+00
  0.00000000E+00  0.00000000E+00  0.00000000E+00
  0.00000000E+00  0.00000000E+00  0.00000000E+00
  0.00000000E+00  0.00000000E+00  0.00000000E+00
  0.00000000E+00  0.00000000E+00  0.00000000E+00
  0.00000000E+00  0.00000000E+00  0.00000000E+00
  0.00000000E+00  0.00000000E+00  0.00000000E+00
  0.00000000E+00  0.00000000E+00  0.00000000E+00
