Ti8 O8 F16                              
   1.00000000000000     
     7.6573657578901200   -0.0033230447824907    0.0041403542461524
    -0.0039798265761740    7.7483124181793732    0.0060709931240807
     0.0024040038571156    0.0058547472104655    7.7475201141048622
   Ti   O    F 
     8     8    16
Direct
  0.9952698849743180  0.0262417756856951  0.0026612249198406
  0.0182065842715520  0.9971345638945278  0.5028340102894706
  0.9966881961177022  0.5282744078664675  0.0026607239357474
  0.0252118417333618  0.4974070284216435  0.5028906294415865
  0.4952545166682028  0.9973341170165431  0.9738360939436267
  0.4966841219519498 -0.0025890224092234  0.4718609096002863
  0.5182249383919987  0.4971464082921895  0.0027957735596834
  0.5252284134236578  0.4971935115043254  0.5025244393675397
  0.4993720035829816 -0.0016131639522589  0.2474452450057227
  0.4984888287783747 -0.0017620759694003  0.7516752671718585
  0.2438097811898333 -0.0026795292804069  0.4993236335126868
  0.2509439217829373  0.4980565779174732  0.5025097137977719
  0.7438591396518800  0.5006853977230401  0.0026606857335042
  0.7509585604880854  0.4975421301273176  0.5018000323039330
  0.9984953512044740  0.2483353740165651  0.0018185082552034
  0.9993291473962892  0.7525889097506085  0.0016956156472873
  0.9900820105270377  0.9999488666006915  0.2548514153117798
  0.9914560356921538  0.9996500218627422  0.7499133688681409
  0.0022883931228110  0.4991434655195222  0.2538543427301018
  0.0016549361404690  0.4985618166157247  0.7513457046854175
  0.4934550688474091  0.4979765940876767  0.2507715666752499
  0.4944971506991652  0.4978720224649692  0.7539089493434069
  0.2454584067628621  0.9983761285768561  0.0021810337648380
  0.2531226417787539  0.4980858817274641  0.0020551361925034
  0.7454182912623336  0.9978660751401814  0.0016984235468072
  0.7531000163518625 -0.0020703442162884  0.5018771002187180
  0.9944696079998172  0.2460522770432770  0.5021154156509237
  0.9935223781597589  0.7491754507981664  0.5019250658966175
  0.4914037848048943  0.2500362504453125  0.0002033830810378
  0.5017067468581687  0.2487121213372063  0.5014204742223760
  0.4901559996118717  0.7451261281721445  0.0000146812921998
  0.5021832997730197  0.7461908332192464  0.5008714320341552
 
  0.00000000E+00  0.00000000E+00  0.00000000E+00
  0.00000000E+00  0.00000000E+00  0.00000000E+00
  0.00000000E+00  0.00000000E+00  0.00000000E+00
  0.00000000E+00  0.00000000E+00  0.00000000E+00
  0.00000000E+00  0.00000000E+00  0.00000000E+00
  0.00000000E+00  0.00000000E+00  0.00000000E+00
  0.00000000E+00  0.00000000E+00  0.00000000E+00
  0.00000000E+00  0.00000000E+00  0.00000000E+00
  0.00000000E+00  0.00000000E+00  0.00000000E+00
  0.00000000E+00  0.00000000E+00  0.00000000E+00
  0.00000000E+00  0.00000000E+00  0.00000000E+00
  0.00000000E+00  0.00000000E+00  0.00000000E+00
  0.00000000E+00  0.00000000E+00  0.00000000E+00
  0.00000000E+00  0.00000000E+00  0.00000000E+00
  0.00000000E+00  0.00000000E+00  0.00000000E+00
  0.00000000E+00  0.00000000E+00  0.00000000E+00
  0.00000000E+00  0.00000000E+00  0.00000000E+00
  0.00000000E+00  0.00000000E+00  0.00000000E+00
  0.00000000E+00  0.00000000E+00  0.00000000E+00
  0.00000000E+00  0.00000000E+00  0.00000000E+00
  0.00000000E+00  0.00000000E+00  0.00000000E+00
  0.00000000E+00  0.00000000E+00  0.00000000E+00
  0.00000000E+00  0.00000000E+00  0.00000000E+00
  0.00000000E+00  0.00000000E+00  0.00000000E+00
  0.00000000E+00  0.00000000E+00  0.00000000E+00
  0.00000000E+00  0.00000000E+00  0.00000000E+00
  0.00000000E+00  0.00000000E+00  0.00000000E+00
  0.00000000E+00  0.00000000E+00  0.00000000E+00
  0.00000000E+00  0.00000000E+00  0.00000000E+00
  0.00000000E+00  0.00000000E+00  0.00000000E+00
  0.00000000E+00  0.00000000E+00  0.00000000E+00
  0.00000000E+00  0.00000000E+00  0.00000000E+00
