Fe8 O8 F16                              
    1.000000000000000     
     7.7440080985024755    0.0047888568272298    0.0234084702106262
     0.0043685128826794    7.7265747992409946    0.0047092741862567
    -0.0125101560281432   -0.0014781944349203    7.7408112481014468
   Fe   O    F 
     8     8    16
Direct
  0.0018025393521143  0.9943833928760361  0.0002051422206460
  0.9992860383668190  0.9978410820339239  0.5003284353976626
  0.0001217512280928  0.4944814566106106  0.9983154391772651
  0.9988562949372769  0.5050806255033928  0.4985258653081710
  0.5015686122402401  0.0050870738447049  0.0008037275602565
  0.4994984389371994  0.0157474513879822  0.5008590145075411
  0.5000001205622769  0.4980891441728579  0.0000059358035236
  0.4984047039526989  0.4867752154307240  0.5000441858702638
  0.9996845674292747  0.5075731898442732  0.2485028747530269
  0.0000063738003701  0.5073742724384465  0.7493447864810043
  0.2504430185537821  0.0082820649959678  0.9994408889375465
  0.7520925679859065  0.0084695058767248  0.0007925547544934
  0.9991013115465786  0.2518169038533052  0.5005527051896074
  0.4991153488402270  0.2514256548871313  0.5005094540544166
  0.4990370145772584  0.7522403011959521  0.9993854802766416
  0.4991152721562310  0.7507675877649006  0.5003450672047204
  0.0003963158511693  0.9908455372709148  0.2507413951404729
  0.5035829106711932  0.9952971749124486  0.7504345855842600
  0.2478018749053250  0.0020409698806616  0.5010245697816977
  0.2498521850047745  0.5006873554229609  0.4999391851481685
  0.7499582478549248  0.4896578643986040  0.9998250076186925
  0.7482233738655124  0.5000874906535591  0.4998301710579774
  0.0009698111746583  0.7455508897249581  0.9996020219266821
  0.5001624846583670  0.2519057960475828  0.0010026586219519
  0.0003693809637125  0.9893131595907676  0.7495598378344945
  0.4986636469009919  0.9960963414711783  0.2507829915685056
  0.4980933547649772  0.5073479673469684  0.2474950819311415
  0.5014854286581476  0.5067462158266939  0.7525292877519826
  0.2501454101962244  0.4898058600038905  0.9994980563479704
  0.7515322137307470  0.0020264742543254  0.4995069402012097
  0.0008045140365605  0.2453953039426021  0.0010163953435436
  0.9998248722963536  0.7517606765349641  0.4992502566444550
 
  0.00000000E+00  0.00000000E+00  0.00000000E+00
  0.00000000E+00  0.00000000E+00  0.00000000E+00
  0.00000000E+00  0.00000000E+00  0.00000000E+00
  0.00000000E+00  0.00000000E+00  0.00000000E+00
  0.00000000E+00  0.00000000E+00  0.00000000E+00
  0.00000000E+00  0.00000000E+00  0.00000000E+00
  0.00000000E+00  0.00000000E+00  0.00000000E+00
  0.00000000E+00  0.00000000E+00  0.00000000E+00
  0.00000000E+00  0.00000000E+00  0.00000000E+00
  0.00000000E+00  0.00000000E+00  0.00000000E+00
  0.00000000E+00  0.00000000E+00  0.00000000E+00
  0.00000000E+00  0.00000000E+00  0.00000000E+00
  0.00000000E+00  0.00000000E+00  0.00000000E+00
  0.00000000E+00  0.00000000E+00  0.00000000E+00
  0.00000000E+00  0.00000000E+00  0.00000000E+00
  0.00000000E+00  0.00000000E+00  0.00000000E+00
  0.00000000E+00  0.00000000E+00  0.00000000E+00
  0.00000000E+00  0.00000000E+00  0.00000000E+00
  0.00000000E+00  0.00000000E+00  0.00000000E+00
  0.00000000E+00  0.00000000E+00  0.00000000E+00
  0.00000000E+00  0.00000000E+00  0.00000000E+00
  0.00000000E+00  0.00000000E+00  0.00000000E+00
  0.00000000E+00  0.00000000E+00  0.00000000E+00
  0.00000000E+00  0.00000000E+00  0.00000000E+00
  0.00000000E+00  0.00000000E+00  0.00000000E+00
  0.00000000E+00  0.00000000E+00  0.00000000E+00
  0.00000000E+00  0.00000000E+00  0.00000000E+00
  0.00000000E+00  0.00000000E+00  0.00000000E+00
  0.00000000E+00  0.00000000E+00  0.00000000E+00
  0.00000000E+00  0.00000000E+00  0.00000000E+00
  0.00000000E+00  0.00000000E+00  0.00000000E+00
  0.00000000E+00  0.00000000E+00  0.00000000E+00
