Na8 Mn8 O16 F8                          
   1.00000000000000     
     7.5953403014864449    0.0000000704033778   -0.0000014506758936
     0.0000000699866867    7.3734366475324498    0.0000003887658855
    -0.0000015188562757    0.0000003894136837    7.6115682770171391
   Na   Mn   O    F 
     8     8    16     8
Direct
  0.2498328413287379  0.2590371624058005  0.2544813982924710
  0.2498336200336607  0.2590372125000873  0.7455187063783263
  0.2498328791157373  0.7409628224713395  0.2544813907356314
  0.2498335740744699  0.7409627997925295  0.7455187109024080
  0.7499057335862631  0.2591761385356253  0.2526784611119935
  0.7499054623801138  0.2591761077539797  0.7473214828703917
  0.7499057229262203  0.7408238577565164  0.2526785459632049
  0.7499054865319925  0.7408238694455059  0.7473215504891518
  0.9978860420629733 -0.0000000420025585  0.0000010141831271
  0.0097972628098876 -0.0000000001112555  0.4999988116508992
 -0.0000155796192105  0.5000000263327034  0.0000003407492375
  0.9878680687143638  0.5000000079208614  0.5000001127025507
  0.5001991609921556 -0.0000000614306242  0.9999989969597743
  0.4902249434061466 -0.0000000044605291  0.5000009721267430
  0.4998146315768051  0.5000000470064969  0.9999996519524510
  0.5117133082269463  0.5000000041827328  0.4999996458581998
  0.2506799777238484  0.0000000073618470  0.0000000404002545
  0.2497719691676551  0.0000000029212639  0.5000000392453576
  0.7504407008392444  0.0000000023152002  0.0000000365111947
  0.7499836929047354  0.5000000010527913  0.5000000103950402
  0.9999733757698366  0.2507494417024648  0.0000001393673461
  0.9979357647580385  0.2513133305657764  0.5000002277990071
  0.9999733734141405  0.7492505533071782  0.9999997553652437
  0.9979357627213740  0.7486866723778568  0.5000001552170488
  0.5013054109867515  0.2507800052034797  0.0000002299367135
  0.5021852997528587  0.2513546358582550  0.4999999154180900
  0.5013054080933467  0.7492199865670162  0.9999998293424849
  0.5021853025946759  0.7486453679140579  0.4999998297270256
  0.0057295864002623  0.5000000634439130  0.2486045918977529
  0.0057296059058197  0.4999999427018528  0.7513953984494902
  0.4941507972018248  0.5000000653277151  0.2485831376564189
  0.4941507985838099  0.4999999387452894  0.7514168707511614
  0.2500334511397808  0.5000000027353023  0.0000000147970438
  0.2501103422340639  0.5000000070532636  0.4999999872485381
  0.7501418497628870  0.0000000061566774  0.5000000096811499
  0.7499597247467246  0.4999999972667696  0.0000000024571065
  0.9929322707654725  0.9999998940541889  0.2436325273393562
  0.9929318648437226  0.0000001171681864  0.7563692106139328
  0.5070054117713629  0.9999998860388626  0.2433400559207702
  0.5070050997704850  0.0000001240615798  0.7566581915359112
 
  0.00000000E+00  0.00000000E+00  0.00000000E+00
  0.00000000E+00  0.00000000E+00  0.00000000E+00
  0.00000000E+00  0.00000000E+00  0.00000000E+00
  0.00000000E+00  0.00000000E+00  0.00000000E+00
  0.00000000E+00  0.00000000E+00  0.00000000E+00
  0.00000000E+00  0.00000000E+00  0.00000000E+00
  0.00000000E+00  0.00000000E+00  0.00000000E+00
  0.00000000E+00  0.00000000E+00  0.00000000E+00
  0.00000000E+00  0.00000000E+00  0.00000000E+00
  0.00000000E+00  0.00000000E+00  0.00000000E+00
  0.00000000E+00  0.00000000E+00  0.00000000E+00
  0.00000000E+00  0.00000000E+00  0.00000000E+00
  0.00000000E+00  0.00000000E+00  0.00000000E+00
  0.00000000E+00  0.00000000E+00  0.00000000E+00
  0.00000000E+00  0.00000000E+00  0.00000000E+00
  0.00000000E+00  0.00000000E+00  0.00000000E+00
  0.00000000E+00  0.00000000E+00  0.00000000E+00
  0.00000000E+00  0.00000000E+00  0.00000000E+00
  0.00000000E+00  0.00000000E+00  0.00000000E+00
  0.00000000E+00  0.00000000E+00  0.00000000E+00
  0.00000000E+00  0.00000000E+00  0.00000000E+00
  0.00000000E+00  0.00000000E+00  0.00000000E+00
  0.00000000E+00  0.00000000E+00  0.00000000E+00
  0.00000000E+00  0.00000000E+00  0.00000000E+00
  0.00000000E+00  0.00000000E+00  0.00000000E+00
  0.00000000E+00  0.00000000E+00  0.00000000E+00
  0.00000000E+00  0.00000000E+00  0.00000000E+00
  0.00000000E+00  0.00000000E+00  0.00000000E+00
  0.00000000E+00  0.00000000E+00  0.00000000E+00
  0.00000000E+00  0.00000000E+00  0.00000000E+00
  0.00000000E+00  0.00000000E+00  0.00000000E+00
  0.00000000E+00  0.00000000E+00  0.00000000E+00
  0.00000000E+00  0.00000000E+00  0.00000000E+00
  0.00000000E+00  0.00000000E+00  0.00000000E+00
  0.00000000E+00  0.00000000E+00  0.00000000E+00
  0.00000000E+00  0.00000000E+00  0.00000000E+00
  0.00000000E+00  0.00000000E+00  0.00000000E+00
  0.00000000E+00  0.00000000E+00  0.00000000E+00
  0.00000000E+00  0.00000000E+00  0.00000000E+00
  0.00000000E+00  0.00000000E+00  0.00000000E+00
