Cr2 O2 F4                               
   1.00000000000000     
    -2.4495907604244653   -4.1729817369009146    0.0010412864976189
    -4.8387152492251468   -0.0349313881885320    0.0010661858512075
    -2.3354609284496886   -1.3484539351058256   -4.2853858272824494
   Cr   O    F 
     2     2     4
Direct
  0.9962199085182132  0.0048138577839934  0.9726283798959364
  0.4953354995051402  0.5038299165744970  0.5270058670594688
  0.1184106975003175  0.7461286775903917  0.7515824301927934
  0.7537619970931352  0.3814887993730567  0.7487679353166586
  0.2556538032671137  0.6226012806592375  0.2462063005179445
  0.6142100543406973  0.8858250885581047  0.2499924299683583
  0.3888543501637413  0.1111347469624741  0.7499564709432914
  0.8775536896116415  0.2441776324982519  0.2538601861055557
 
  0.00000000E+00  0.00000000E+00  0.00000000E+00
  0.00000000E+00  0.00000000E+00  0.00000000E+00
  0.00000000E+00  0.00000000E+00  0.00000000E+00
  0.00000000E+00  0.00000000E+00  0.00000000E+00
  0.00000000E+00  0.00000000E+00  0.00000000E+00
  0.00000000E+00  0.00000000E+00  0.00000000E+00
  0.00000000E+00  0.00000000E+00  0.00000000E+00
  0.00000000E+00  0.00000000E+00  0.00000000E+00
