Co4 O4 F8                               
    1.000000000000000     
     5.0126908139024584    0.0046073327660343   -0.0895664916943850
    -0.0043970285680074    5.2074904172146406   -0.0093378784025462
    -0.1211469794279625    0.0203957105549898    7.3361262959307636
   Co   O    F 
     4     4     8
Direct
  0.4886517799510065  0.0157835629121682  0.9928382352386841
 -0.0084688260450136  0.5137744042554043  0.9959177775420180
  0.4915046869304464  0.9862242364269318  0.4958883801089495
  0.9886084818910508  0.4842899166658158  0.4929129705813535
  0.9100773096314574  0.5314541842039638  0.7476122463528257
  0.4100509779922424  0.9685826812030164  0.2476360349367912
  0.1707725515990049  0.1975848524590130  0.9525501377952512
  0.6709201529273989  0.3024240981402866  0.4525941482764935
  0.1188682133213061  0.4620612541969370  0.2493119014400905
  0.6188744627816549  0.0379316896519600  0.7493521895938181
  0.6784890693170446  0.3122616347005289  0.0586095829587983
  0.3238223190646873  0.7028895856488088  0.9418437906942972
  0.8181776388075070  0.8134873910436865  0.0615102408778904
  0.3178988406364556  0.6863655637376487  0.5615202231808688
  0.8234492899739208  0.7972907063513333  0.4413902355417866
  0.1783030512198300  0.1875942384024899  0.5585119048800831
 
  0.00000000E+00  0.00000000E+00  0.00000000E+00
  0.00000000E+00  0.00000000E+00  0.00000000E+00
  0.00000000E+00  0.00000000E+00  0.00000000E+00
  0.00000000E+00  0.00000000E+00  0.00000000E+00
  0.00000000E+00  0.00000000E+00  0.00000000E+00
  0.00000000E+00  0.00000000E+00  0.00000000E+00
  0.00000000E+00  0.00000000E+00  0.00000000E+00
  0.00000000E+00  0.00000000E+00  0.00000000E+00
  0.00000000E+00  0.00000000E+00  0.00000000E+00
  0.00000000E+00  0.00000000E+00  0.00000000E+00
  0.00000000E+00  0.00000000E+00  0.00000000E+00
  0.00000000E+00  0.00000000E+00  0.00000000E+00
  0.00000000E+00  0.00000000E+00  0.00000000E+00
  0.00000000E+00  0.00000000E+00  0.00000000E+00
  0.00000000E+00  0.00000000E+00  0.00000000E+00
  0.00000000E+00  0.00000000E+00  0.00000000E+00
