Na4 Fe4 O8 F4                           
   1.00000000000000     
     5.5271590599110620   -0.0032777965244156    0.0756742665401455
    -2.7667123139444811    4.5674336307294139   -0.0388456652844886
     0.1003250248062840   -0.0017254319018674    9.1689380734811863
   Na   Fe   O    F 
     4     4     8     4
Direct
  0.0075594035134691  0.9907132228713679  0.0733377790894890
  0.0176817553560215  0.0096258769317705  0.5736832148817610
  0.2983381449340183  0.6426192603245383  0.2529624044469463
  0.6559099337180033  0.3580166559707313  0.7542401554990762
  0.3746905614500818  0.6868512855285286  0.5974466638153254
  0.6529567809506741  0.3248888660995607  0.3833508578231594
  0.6872567234310976  0.3142708764364360  0.0973782711261798
  0.3279569878030751  0.6753479172384115  0.8833067862425816
  0.4262022361434293  0.0039263011100879 -0.0086661545813780
  0.0318394289092069  0.4257948375951232  0.9966614794819908
  0.4231845804836385 -0.0051634951546265  0.4906622664009937
  0.6071468963755048  0.5731302374886977  0.4978261944053432
  0.8562444095239891  0.6024135327800187  0.2374001922371634
  0.2543647904572319  0.3979708152388465  0.7374452910462471
  0.6130622265804579  0.9070326717999441  0.7414929657137230
  0.7063060856115106  0.0940019817005222  0.2409779234873140
  0.6130538622714828  0.5816565720557159  0.9840477227627040
  0.0328254244047521  0.4178813076409752  0.4835567069505606
  0.3288965354700787  0.2442194043498944  0.2417408869829434
  0.0845232326122755  0.7548018719934364  0.7411483921878835
 
  0.00000000E+00  0.00000000E+00  0.00000000E+00
  0.00000000E+00  0.00000000E+00  0.00000000E+00
  0.00000000E+00  0.00000000E+00  0.00000000E+00
  0.00000000E+00  0.00000000E+00  0.00000000E+00
  0.00000000E+00  0.00000000E+00  0.00000000E+00
  0.00000000E+00  0.00000000E+00  0.00000000E+00
  0.00000000E+00  0.00000000E+00  0.00000000E+00
  0.00000000E+00  0.00000000E+00  0.00000000E+00
  0.00000000E+00  0.00000000E+00  0.00000000E+00
  0.00000000E+00  0.00000000E+00  0.00000000E+00
  0.00000000E+00  0.00000000E+00  0.00000000E+00
  0.00000000E+00  0.00000000E+00  0.00000000E+00
  0.00000000E+00  0.00000000E+00  0.00000000E+00
  0.00000000E+00  0.00000000E+00  0.00000000E+00
  0.00000000E+00  0.00000000E+00  0.00000000E+00
  0.00000000E+00  0.00000000E+00  0.00000000E+00
  0.00000000E+00  0.00000000E+00  0.00000000E+00
  0.00000000E+00  0.00000000E+00  0.00000000E+00
  0.00000000E+00  0.00000000E+00  0.00000000E+00
  0.00000000E+00  0.00000000E+00  0.00000000E+00
