Na4 Co4 O8 F4                           
   1.00000000000000     
     5.2545800292926170    0.2062456718347055   -0.0470473339037838
     0.2072272284063448    5.3271892966445318    0.0360951396713798
    -0.0625167966107328    0.0543399961877455    7.6676333137964958
   Na   Co   O    F 
     4     4     8     4
Direct
  0.9725471067284358  0.0339173350408601  0.2472896923039551
  0.0332420988905291  0.9608513114987399  0.7360904616831442
  0.4870838396580265  0.4532017440465956  0.7503887064977038
  0.5047775510802048  0.5455898823674545  0.2478943549932071
  0.4839629316780907  0.9777290207448550  0.9957939047566545
  0.0114623495209015  0.5093020777093182  0.9995322094027148
  0.5123276972525022  0.0121943077829621  0.5015037140656206
  0.9669863892147729  0.4760585692627364  0.4980495489543463
  0.0664977847787873  0.4980556000763233  0.2526451346145159
  0.9334148554816990  0.5050070070265676  0.7483426728356793
  0.3003135686829755  0.7265883647192987  0.9544131660706268
  0.1928870446843787  0.2360726860752176  0.9522835406268649
  0.8020591477381376  0.7613020375356634  0.0490626627157742
  0.7151913520941089  0.2850818570713230  0.4572403724164932
  0.7751185052431234  0.8018408906884800  0.4688555662271638
  0.2429665494463056  0.2146265052078993  0.5350268075717741
  0.6139311457458283  0.0293039609215193  0.7596312398096371
  0.3959788985211170  0.9821856371628236  0.2468227007952349
  0.6866657746938636  0.2654797226516196  0.0528917572206852
  0.3025854088661907  0.7256114824097355  0.5462417864382041
 
  0.00000000E+00  0.00000000E+00  0.00000000E+00
  0.00000000E+00  0.00000000E+00  0.00000000E+00
  0.00000000E+00  0.00000000E+00  0.00000000E+00
  0.00000000E+00  0.00000000E+00  0.00000000E+00
  0.00000000E+00  0.00000000E+00  0.00000000E+00
  0.00000000E+00  0.00000000E+00  0.00000000E+00
  0.00000000E+00  0.00000000E+00  0.00000000E+00
  0.00000000E+00  0.00000000E+00  0.00000000E+00
  0.00000000E+00  0.00000000E+00  0.00000000E+00
  0.00000000E+00  0.00000000E+00  0.00000000E+00
  0.00000000E+00  0.00000000E+00  0.00000000E+00
  0.00000000E+00  0.00000000E+00  0.00000000E+00
  0.00000000E+00  0.00000000E+00  0.00000000E+00
  0.00000000E+00  0.00000000E+00  0.00000000E+00
  0.00000000E+00  0.00000000E+00  0.00000000E+00
  0.00000000E+00  0.00000000E+00  0.00000000E+00
  0.00000000E+00  0.00000000E+00  0.00000000E+00
  0.00000000E+00  0.00000000E+00  0.00000000E+00
  0.00000000E+00  0.00000000E+00  0.00000000E+00
  0.00000000E+00  0.00000000E+00  0.00000000E+00
