Fe4 O4 F8                               
   1.00000000000000     
     5.5455431162647981   -0.2375040134606315   -0.0203985012477118
    -2.9784555600892189    4.6837988044277523   -0.0212313389682656
    -0.0174907901203972   -0.0293171012573936    9.5974646719171322
   Fe   O    F 
     4     4     8
Direct
  0.3262440992322031  0.6557344454882802  0.6071856752504180
  0.6752540655561117  0.3427768403069396  0.3915695972965123
  0.6557512988442455  0.3262715385650635  0.1071863177775043
  0.3427838087133594  0.6752499022812245  0.8915243587835030
  0.4867689765177453  0.9795787899661924  0.9975919503780847
  0.0179002618279500  0.5176273038896315  0.9966456049356137
  0.5177462187011336  0.0179612666017962  0.4966691098804053
  0.9796353526784571  0.4868260969196960  0.4975633448844623
  0.5023995206815637  0.4920133368577242  0.9996168704857661
  0.4921181564710417  0.5025367810708128  0.4995962243279442
  0.8303151209795898  0.6420740219274178  0.2543955438861957
  0.1709877806035532  0.3596632529108534  0.7626019309309330
  0.3596585725942018  0.1709488094799209  0.2626244615034509
  0.6420165900794698  0.8302937634380445  0.7544028023519040
  0.8100499095178565  0.1904085357987813  0.2404155350453694
  0.1903702670015177  0.8100353144976140  0.7404106722819263
 
  0.00000000E+00  0.00000000E+00  0.00000000E+00
  0.00000000E+00  0.00000000E+00  0.00000000E+00
  0.00000000E+00  0.00000000E+00  0.00000000E+00
  0.00000000E+00  0.00000000E+00  0.00000000E+00
  0.00000000E+00  0.00000000E+00  0.00000000E+00
  0.00000000E+00  0.00000000E+00  0.00000000E+00
  0.00000000E+00  0.00000000E+00  0.00000000E+00
  0.00000000E+00  0.00000000E+00  0.00000000E+00
  0.00000000E+00  0.00000000E+00  0.00000000E+00
  0.00000000E+00  0.00000000E+00  0.00000000E+00
  0.00000000E+00  0.00000000E+00  0.00000000E+00
  0.00000000E+00  0.00000000E+00  0.00000000E+00
  0.00000000E+00  0.00000000E+00  0.00000000E+00
  0.00000000E+00  0.00000000E+00  0.00000000E+00
  0.00000000E+00  0.00000000E+00  0.00000000E+00
  0.00000000E+00  0.00000000E+00  0.00000000E+00
