Na4 Mn4 O8 F4                           
   1.00000000000000     
     5.6048006353673809    0.0124882974588143   -0.0023826007155439
    -0.0094207345864954    7.4456091367230961    0.0753357907969506
    -0.0042282331772324   -0.0966836604511716    6.9678728984944529
   Na   Mn   O    F 
     8     4     8     4
Direct
  0.6666505932108211  0.7507362135735037  0.7702041838288497
  0.4443242760973543  0.3859702749130237  0.7449748489045014
  0.6696271334540901  0.7524141068914812  0.2246064787980621
  0.4430203961406607  0.3855769427059372  0.2561371752893072
  0.9435337444022273  0.1054622351949419  0.7443379224232803
  0.1668024621959417  0.7381207132905548  0.7751994213521168
  0.9432924632494446  0.1054744100595675  0.2544698478394805
  0.1692656810252489  0.7385614352568607  0.2284643409049938
  0.4183562228451703  0.0788119018064455 -0.0019692785347655
  0.9183035968945010  0.4115726207166789  0.0024079618725939
  0.4582785832830229  0.0678596148973630  0.4983029745298086
  0.9584825975919770  0.4222576485603990  0.5023622594753581
 -0.0946124952479294  0.5079659039986479  0.2493765072168448
  0.9039801316321621  0.5068889922632253  0.7553220323311549
  0.4033333455225139  0.9822428509988954  0.7509748285433182
  0.4047661386928417  0.9830151522004580  0.2447939530054418
  0.6763362980278164  0.2348379099193419 -0.0000236910863961
  0.1768473326979830  0.2560702826764396  0.0000157109359756
  0.6989534959588445  0.2686974837626026  0.5001371160509974
  0.1994326391176926  0.2221848464419841  0.4992786583660745
  0.4257348858271304  0.6280898735170232 -0.0003002030565888
  0.9251730615575056  0.8623149883592875 -0.0001302899496979
  0.2739079996756368  0.5944791963154145  0.5027695048452615
  0.7721094161473482  0.8971544016799059  0.4982877361140216
 
  0.00000000E+00  0.00000000E+00  0.00000000E+00
  0.00000000E+00  0.00000000E+00  0.00000000E+00
  0.00000000E+00  0.00000000E+00  0.00000000E+00
  0.00000000E+00  0.00000000E+00  0.00000000E+00
  0.00000000E+00  0.00000000E+00  0.00000000E+00
  0.00000000E+00  0.00000000E+00  0.00000000E+00
  0.00000000E+00  0.00000000E+00  0.00000000E+00
  0.00000000E+00  0.00000000E+00  0.00000000E+00
  0.00000000E+00  0.00000000E+00  0.00000000E+00
  0.00000000E+00  0.00000000E+00  0.00000000E+00
  0.00000000E+00  0.00000000E+00  0.00000000E+00
  0.00000000E+00  0.00000000E+00  0.00000000E+00
  0.00000000E+00  0.00000000E+00  0.00000000E+00
  0.00000000E+00  0.00000000E+00  0.00000000E+00
  0.00000000E+00  0.00000000E+00  0.00000000E+00
  0.00000000E+00  0.00000000E+00  0.00000000E+00
  0.00000000E+00  0.00000000E+00  0.00000000E+00
  0.00000000E+00  0.00000000E+00  0.00000000E+00
  0.00000000E+00  0.00000000E+00  0.00000000E+00
  0.00000000E+00  0.00000000E+00  0.00000000E+00
  0.00000000E+00  0.00000000E+00  0.00000000E+00
  0.00000000E+00  0.00000000E+00  0.00000000E+00
  0.00000000E+00  0.00000000E+00  0.00000000E+00
  0.00000000E+00  0.00000000E+00  0.00000000E+00
