Na15 Mn16 O16 F32                       
   1.00000000000000     
    -5.7557219999999996   -9.5125499999999992    0.1844590000000000
   -11.1183750000000003   -0.2685070000000000    0.1628700000000000
    -5.4354659999999999   -3.1674310000000001   -8.9492200000000004
   Na   Mn   O    F 
    15    16    16    32
Direct
  0.5783689508246945  0.1623838443749831  0.5877694793047996
  0.1211444950869048  0.1401992911428506  0.1169938871979008
  0.1190463609547900  0.1412434632912522  0.6151776111698332
  0.1212677863209140  0.6364920286779895  0.1205496795921361
  0.1214495221790687  0.6370886195412933  0.6133148800082584
  0.6095137510576082  0.1464198008393252  0.1212562006215757
  0.6078896587453572  0.6386965464551397  0.1166515142309732
  0.6134521340274458  0.6361192208521930  0.6214157012929450
  0.3937768327952508  0.3623098678092648  0.8602060156461586
  0.3894433765744464  0.8750919578423081  0.3611076981824246
  0.3884072066359133  0.8650130497170523  0.8679900460813141
  0.8874462237053279  0.3652249735475793  0.3707103360084095
  0.8835971190767643  0.3630423409304385  0.8735494584061121
  0.8853832419884607  0.8689783686707483  0.3727216613954110
  0.8897274001292739  0.8723557174064199  0.8631540991859842
 -0.0031906608482486  0.0075289884995638  0.4755148389946033
  0.0000073469182122  0.0004175612273877  0.9804807998625624
  0.0049954361232838  0.5040030561959478  0.4770750222597220
 -0.0003251415882046  0.5087174198302867  0.9737995118808179
  0.4994286472093000 -0.0004765581099312  0.4782694502616369
  0.5047519456853946  0.0020102891440148  0.9726575119085235
  0.5023906154809170  0.5071556442577628  0.4722468001024556
  0.5017008523539496  0.5004696036952733  0.9789234392681695
  0.2506744427524314  0.2552100191797400  0.2579581698254232
  0.2460832924824640  0.2520099502597123  0.7595510345855631
  0.2508058264244576  0.7490741929524627  0.2613746013033503
  0.2510483546897365  0.7503901909952986  0.7581409797518280
  0.7524430707158287  0.2578304581023511  0.2526603436820020
  0.7527365697481913  0.2530248157481344  0.7563147857478046
  0.7547906292237575  0.7525869560562247  0.2567044420952799
  0.7527455686657022  0.7558415365635505  0.7571512742710748
  0.1001832482678120  0.3551856175432926  0.3913012806740307
  0.0981645194142640  0.3559820024237076  0.8926253159535986
  0.1023986366941297  0.8546841847568939  0.3926928137760290
  0.1020530226603987  0.8503800724823379  0.8943289093610974
  0.6120184992566582  0.3626753269547284  0.3830632950340433
  0.6006337317535297  0.3518797338422295  0.8913727753967187
  0.6068137202400816  0.8459782978078108  0.3962763494016110
  0.6047983441549009  0.8512600812700741  0.8920578371083895
  0.4013813245349302  0.1365778968069659  0.3411723863226942
  0.4021013070682014  0.1512473216999784  0.8381900953863879
  0.4031136296405047  0.6613812274691115  0.3402274997284790
  0.4000972458017029  0.6517847262571858  0.8433676241057975
  0.9063009768885526  0.1583018894643217  0.3346994818620200
  0.9030752439849495  0.1514129233524789  0.8429253416646967
  0.9059135369133643  0.6544929683065164  0.3412947034250670
  0.9029073697920462  0.6596457626714342  0.8390005891863322
  0.1007055387205892  0.3645790500040337  0.1330262758060237
  0.0970286207298650  0.3563772283608098  0.6469209494932788
  0.1009848253725806  0.8507318338683110  0.1457157258270714
  0.0997367469578993  0.8573908298703421  0.6402853180136798
  0.6152908953417771  0.3549701518366474  0.1303056674118158
  0.6077982485233950  0.3616235542376278  0.6337811670342710
  0.6068412464618379  0.8570491239826087  0.1365052076520288
  0.6058603286762277  0.8496501242609699  0.6462458285380800
  0.3314598373805215  0.4181428180854008  0.1127607124017522
  0.3390567279493926  0.4210264787479991  0.6148538472257603
  0.3286858494685159  0.9182165576812141  0.1184980887770080
  0.3279973978271941  0.9169949438034366  0.6149879468116274
  0.8283576024564300  0.4339806856282044  0.1095146605161735
  0.8309711118147730  0.4272327442193845  0.6176815578657593
  0.8256405345624640  0.9298157760562109  0.1175172612634791
  0.8209743930330997  0.9461378218397111  0.6041599884847365
  0.1695625066646179  0.0866811719489060  0.3634891413980504
  0.1674779954460496  0.0752841235620909  0.8838504853967631
  0.1691550998050790  0.5870700110137473  0.3754721516981505
  0.1790930391767462  0.5802592122921262  0.8605885429701658
  0.6653111172512298  0.0826850307143513  0.3766339640751666
  0.6751371581874918  0.0824074700313075  0.8679042623982670
  0.6766769605745906  0.5824010339301754  0.3651206442458882
  0.6721265559229384  0.5748977125349696  0.8701748382096919
  0.3958979770150238  0.1457131644010625  0.0901333686400048
  0.3761975098090822  0.1298187757015315  0.6152602803120113
  0.3960818849110979  0.6492544737205926  0.0952941869781250
  0.3983711663772346  0.6493881030326012  0.5941514082028300
  0.8967265323659410  0.1464026116104600  0.1001951716482875
  0.9027383050045608  0.1539029657259955  0.5933375843480007
  0.9037582989201677  0.6548533016403474  0.0906057262472682
  0.8970238279061367  0.6571580999400404  0.5986204728933242
 
             NaN             NaN             NaN
             NaN             NaN             NaN
             NaN             NaN             NaN
             NaN             NaN             NaN
             NaN             NaN             NaN
             NaN             NaN             NaN
             NaN             NaN             NaN
             NaN             NaN             NaN
             NaN             NaN             NaN
             NaN             NaN             NaN
             NaN             NaN             NaN
             NaN             NaN             NaN
             NaN             NaN             NaN
             NaN             NaN             NaN
             NaN             NaN             NaN
             NaN             NaN             NaN
             NaN             NaN             NaN
             NaN             NaN             NaN
             NaN             NaN             NaN
             NaN             NaN             NaN
             NaN             NaN             NaN
             NaN             NaN             NaN
             NaN             NaN             NaN
             NaN             NaN             NaN
             NaN             NaN             NaN
             NaN             NaN             NaN
             NaN             NaN             NaN
             NaN             NaN             NaN
             NaN             NaN             NaN
             NaN             NaN             NaN
             NaN             NaN             NaN
             NaN             NaN             NaN
             NaN             NaN             NaN
             NaN             NaN             NaN
             NaN             NaN             NaN
             NaN             NaN             NaN
             NaN             NaN             NaN
             NaN             NaN             NaN
             NaN             NaN             NaN
             NaN             NaN             NaN
             NaN             NaN             NaN
             NaN             NaN             NaN
             NaN             NaN             NaN
             NaN             NaN             NaN
             NaN             NaN             NaN
             NaN             NaN             NaN
             NaN             NaN             NaN
             NaN             NaN             NaN
             NaN             NaN             NaN
             NaN             NaN             NaN
             NaN             NaN             NaN
             NaN             NaN             NaN
             NaN             NaN             NaN
             NaN             NaN             NaN
             NaN             NaN             NaN
             NaN             NaN             NaN
             NaN             NaN             NaN
             NaN             NaN             NaN
             NaN             NaN             NaN
             NaN             NaN             NaN
             NaN             NaN             NaN
             NaN             NaN             NaN
             NaN             NaN             NaN
             NaN             NaN             NaN
             NaN             NaN             NaN
             NaN             NaN             NaN
             NaN             NaN             NaN
             NaN             NaN             NaN
             NaN             NaN             NaN
             NaN             NaN             NaN
             NaN             NaN             NaN
             NaN             NaN             NaN
             NaN             NaN             NaN
             NaN             NaN             NaN
             NaN             NaN             NaN
             NaN             NaN             NaN
             NaN             NaN             NaN
             NaN             NaN             NaN
             NaN             NaN             NaN
