Na15 Mn16 O16 F32
1.0
-5.755722 -9.512550 0.184459
-11.118375 -0.268507 0.162870
-5.435466 -3.167431 -8.949220
Na Mn O F
15 16 16 32
direct
0.573460 0.178455 0.575034 Na
0.116453 0.139915 0.116376 Na
0.115804 0.141377 0.617548 Na
0.115884 0.639290 0.118929 Na
0.115043 0.638891 0.617474 Na
0.612989 0.143780 0.120667 Na
0.613316 0.638255 0.119054 Na
0.614586 0.638489 0.618931 Na
0.390504 0.364634 0.867475 Na
0.390528 0.868408 0.368081 Na
0.391280 0.866721 0.865647 Na
0.886069 0.363821 0.368625 Na
0.888044 0.363604 0.870068 Na
0.890587 0.863948 0.368667 Na
0.889207 0.865608 0.867917 Na
0.001560 0.002534 0.477038 Mn
0.002259 0.001715 0.978215 Mn
0.006539 0.501684 0.476066 Mn
0.002462 0.502176 0.977354 Mn
0.501826 0.004603 0.478132 Mn
0.501834 0.002664 0.977714 Mn
0.500333 0.501990 0.477319 Mn
0.501596 0.501797 0.980115 Mn
0.252284 0.254267 0.259264 Mn
0.253234 0.253070 0.755831 Mn
0.253114 0.748037 0.260317 Mn
0.252342 0.752124 0.758681 Mn
0.750080 0.252481 0.258961 Mn
0.751822 0.253019 0.757866 Mn
0.752177 0.752339 0.259538 Mn
0.752730 0.753107 0.757678 Mn
0.098338 0.350632 0.394026 O
0.100179 0.353086 0.892251 O
0.102982 0.850060 0.394238 O
0.100327 0.850763 0.894645 O
0.610509 0.352984 0.393236 O
0.601221 0.352469 0.893431 O
0.604462 0.850088 0.395730 O
0.601808 0.851433 0.894387 O
0.403445 0.144775 0.341191 O
0.400224 0.154209 0.845001 O
0.403999 0.656602 0.342272 O
0.402441 0.654084 0.843067 O
0.905538 0.150527 0.339462 O
0.903095 0.152458 0.842133 O
0.905048 0.651989 0.341714 O
0.903409 0.654939 0.841683 O
0.104443 0.355758 0.139273 F
0.103907 0.354408 0.641503 F
0.105745 0.853586 0.140734 F
0.104280 0.855689 0.640558 F
0.614068 0.356913 0.131833 F
0.604670 0.359385 0.640275 F
0.604410 0.855625 0.140891 F
0.607268 0.853697 0.640272 F
0.328236 0.424446 0.112700 F
0.330129 0.426408 0.622672 F
0.329216 0.923417 0.118312 F
0.328926 0.924479 0.617854 F
0.830363 0.425282 0.117287 F
0.830954 0.425582 0.617904 F
0.827788 0.925292 0.118952 F
0.830205 0.925860 0.616350 F
0.172756 0.080073 0.368125 F
0.173948 0.078639 0.870638 F
0.170650 0.584263 0.368395 F
0.175079 0.579225 0.868155 F
0.675535 0.079274 0.367113 F
0.674556 0.079602 0.869744 F
0.674454 0.581821 0.368807 F
0.675941 0.580554 0.866377 F
0.397313 0.149257 0.096561 F
0.395820 0.139489 0.605644 F
0.400262 0.650424 0.094620 F
0.398044 0.650372 0.597136 F
0.899978 0.146890 0.096268 F
0.898714 0.150306 0.595547 F
0.899121 0.649479 0.096069 F
0.900690 0.648711 0.595924 F
