Trisodium pentairon(III) oxide          
   1.00000000000000     
    13.4181785420726598    0.0000001327462482   -0.1534331457351142
     0.0000001640357482   12.0819741533212177    0.0000004408777741
     0.0167098439114669    0.0000001747059384    5.3153603886235681
   Fe   Na   O 
    20    12    36
Direct
  0.1160425555014371  0.3204847844232788  0.2837572533330714
  0.8839590555002630  0.6795099145797963  0.7162341731518893
  0.8839590555337224  0.3204901053229179  0.2162340734967572
  0.1160425584369449  0.6795151959924155  0.7837573599015428
  0.6160425568286385  0.8204847820885846  0.2837572551927323
  0.3839590578007446  0.1795099141706018  0.7162341726595969
  0.3839590540977298  0.8204901016234558  0.2162340713137212
  0.6160425563181775  0.1795151902385754  0.7837573615958320
  0.3599417513711245  0.3398433926145401  0.2175519035350462
  0.6400597595453590  0.6601564871305854  0.7824502589994751
  0.6400597531180594  0.3398435111029983  0.2824503608110689
  0.3599417500108117  0.6601566040285505  0.7175518138178703
  0.8599417468664683  0.8398433930938722  0.2175519019306051
  0.1400597546408875  0.1601564910121454  0.7824502651869381
  0.1400597555303165  0.8398435137679954  0.2824503529384970
  0.8599417513665628  0.1601566075348444  0.7175518082766388
  0.9999967862342771  0.0642123521364439  0.2500057986051871
  0.9999967338417832  0.9357876501296829  0.7500059051408599
  0.4999968011141647  0.5642123491745608  0.2500057916302225
  0.4999967444651361  0.4357876478377918  0.7500059030320543
  0.2387610686382189  0.0786232680619818  0.2657591776018506
  0.7612431997429923  0.9213735762043385  0.7342367439477968
  0.7612432235431257  0.0786264339620502  0.2342366127492497
  0.2387611117616117  0.9213767660050749  0.7657592960736395
  0.7387611178108386  0.5786232380127316  0.2657591674222815
  0.2612432381775847  0.4213735535741634  0.7342367376731289
  0.2612431976021838  0.5786264155199632  0.2342366179782331
  0.7387610850696049  0.4213767455000337  0.7657593004478684
  0.0000001266857979  0.5928723794470230  0.2500006687830094
  0.0000001679980812  0.4071276892477087  0.7500005866258661
  0.5000001247067019  0.0928723079828160  0.2500006673094362
  0.5000001726655228  0.9071276192637399  0.7500005807460326
  0.0947660723142079  0.1822641013354840  0.1190613799896312
  0.9052365395610025  0.8177281985854492  0.8809348801587689
  0.9052365422307034  0.1822718001066974  0.3809348038272873
  0.0947660812692632  0.8177358986104721  0.6190614635521712
  0.5947660825449717  0.6822641027707732  0.1190613826771241
  0.4052365484346296  0.3177281985463480  0.8809348792810994
  0.4052365404649265  0.6822718024655146  0.3809347982259936
  0.5947660770269749  0.3177358971892446  0.6190614582119025
  0.3650560430955494  0.2005964202328556  0.3679560372302788
  0.6349439172147981  0.7994068931177551  0.6320234864021117
  0.6349439056758754  0.2005931043693536  0.1320235776020411
  0.3650560377503567  0.7994035756722084  0.8679559439107152
  0.8650560350123229  0.7005964237761049  0.3679560358902236
  0.1349439085487063  0.2994068951465394  0.6320234876093238
  0.1349439157299628  0.7005931088564239  0.1320235821859868
  0.8650560452021239  0.2994035780379463  0.8679559440002080
  0.2292480921666069  0.3942017955828163  0.1688879324691044
  0.7707542486166972  0.6057982382065390  0.8311119081329252
  0.7707542402992686  0.3942017554990755  0.3311118732779690
  0.2292480834023252  0.6057981804859125  0.6688879761333340
  0.7292480850384706  0.8942018090766908  0.1688879352482004
  0.2707542402533534  0.1057982522371006  0.8311119121290531
  0.2707542488186547  0.8942017733599883  0.3311118645435585
  0.7292480902357497  0.1057981938918786  0.6688879705552822
  0.4170174620325966  0.4486032730350829  0.4307724826274111
  0.5829752782018645  0.5514005305100866  0.5692730641312025
  0.5829752834379960  0.4485994615106250  0.0692730549742606
  0.4170174534623428  0.5513967403517199  0.9307724873049992
  0.9170174531192856  0.9486032690864405  0.4307724844694079
  0.0829752683401779  0.0514005265616220  0.5692730624119449
  0.0829752776297425  0.9485994597613612  0.0692730610237007
  0.9170174463444241  0.0513967398972639  0.9307724872750427
  0.9999980229308107  0.4069916665602165  0.2499827660125362
  0.9999980322031234  0.5930083486839166  0.7499829073770243
  0.4999980256447216  0.9069916505715554  0.2499827708849693
  0.4999980332205425  0.0930083325256632  0.7499829163552434
 
  0.00000000E+00  0.00000000E+00  0.00000000E+00
  0.00000000E+00  0.00000000E+00  0.00000000E+00
  0.00000000E+00  0.00000000E+00  0.00000000E+00
  0.00000000E+00  0.00000000E+00  0.00000000E+00
  0.00000000E+00  0.00000000E+00  0.00000000E+00
  0.00000000E+00  0.00000000E+00  0.00000000E+00
  0.00000000E+00  0.00000000E+00  0.00000000E+00
  0.00000000E+00  0.00000000E+00  0.00000000E+00
  0.00000000E+00  0.00000000E+00  0.00000000E+00
  0.00000000E+00  0.00000000E+00  0.00000000E+00
  0.00000000E+00  0.00000000E+00  0.00000000E+00
  0.00000000E+00  0.00000000E+00  0.00000000E+00
  0.00000000E+00  0.00000000E+00  0.00000000E+00
  0.00000000E+00  0.00000000E+00  0.00000000E+00
  0.00000000E+00  0.00000000E+00  0.00000000E+00
  0.00000000E+00  0.00000000E+00  0.00000000E+00
  0.00000000E+00  0.00000000E+00  0.00000000E+00
  0.00000000E+00  0.00000000E+00  0.00000000E+00
  0.00000000E+00  0.00000000E+00  0.00000000E+00
  0.00000000E+00  0.00000000E+00  0.00000000E+00
  0.00000000E+00  0.00000000E+00  0.00000000E+00
  0.00000000E+00  0.00000000E+00  0.00000000E+00
  0.00000000E+00  0.00000000E+00  0.00000000E+00
  0.00000000E+00  0.00000000E+00  0.00000000E+00
  0.00000000E+00  0.00000000E+00  0.00000000E+00
  0.00000000E+00  0.00000000E+00  0.00000000E+00
  0.00000000E+00  0.00000000E+00  0.00000000E+00
  0.00000000E+00  0.00000000E+00  0.00000000E+00
  0.00000000E+00  0.00000000E+00  0.00000000E+00
  0.00000000E+00  0.00000000E+00  0.00000000E+00
  0.00000000E+00  0.00000000E+00  0.00000000E+00
  0.00000000E+00  0.00000000E+00  0.00000000E+00
  0.00000000E+00  0.00000000E+00  0.00000000E+00
  0.00000000E+00  0.00000000E+00  0.00000000E+00
  0.00000000E+00  0.00000000E+00  0.00000000E+00
  0.00000000E+00  0.00000000E+00  0.00000000E+00
  0.00000000E+00  0.00000000E+00  0.00000000E+00
  0.00000000E+00  0.00000000E+00  0.00000000E+00
  0.00000000E+00  0.00000000E+00  0.00000000E+00
  0.00000000E+00  0.00000000E+00  0.00000000E+00
  0.00000000E+00  0.00000000E+00  0.00000000E+00
  0.00000000E+00  0.00000000E+00  0.00000000E+00
  0.00000000E+00  0.00000000E+00  0.00000000E+00
  0.00000000E+00  0.00000000E+00  0.00000000E+00
  0.00000000E+00  0.00000000E+00  0.00000000E+00
  0.00000000E+00  0.00000000E+00  0.00000000E+00
  0.00000000E+00  0.00000000E+00  0.00000000E+00
  0.00000000E+00  0.00000000E+00  0.00000000E+00
  0.00000000E+00  0.00000000E+00  0.00000000E+00
  0.00000000E+00  0.00000000E+00  0.00000000E+00
  0.00000000E+00  0.00000000E+00  0.00000000E+00
  0.00000000E+00  0.00000000E+00  0.00000000E+00
  0.00000000E+00  0.00000000E+00  0.00000000E+00
  0.00000000E+00  0.00000000E+00  0.00000000E+00
  0.00000000E+00  0.00000000E+00  0.00000000E+00
  0.00000000E+00  0.00000000E+00  0.00000000E+00
  0.00000000E+00  0.00000000E+00  0.00000000E+00
  0.00000000E+00  0.00000000E+00  0.00000000E+00
  0.00000000E+00  0.00000000E+00  0.00000000E+00
  0.00000000E+00  0.00000000E+00  0.00000000E+00
  0.00000000E+00  0.00000000E+00  0.00000000E+00
  0.00000000E+00  0.00000000E+00  0.00000000E+00
  0.00000000E+00  0.00000000E+00  0.00000000E+00
  0.00000000E+00  0.00000000E+00  0.00000000E+00
  0.00000000E+00  0.00000000E+00  0.00000000E+00
  0.00000000E+00  0.00000000E+00  0.00000000E+00
  0.00000000E+00  0.00000000E+00  0.00000000E+00
  0.00000000E+00  0.00000000E+00  0.00000000E+00
