Na4 Co4 O8 F4                           
   1.00000000000000     
     5.3460810755161532   -0.0191500283989284    0.0033375402340505
    -0.0066802565904613    5.3966260392275638   -0.0388726042235050
    -0.0254305215710323   -0.0883621028200290    7.1069334357737013
   Na   Co   O    F 
     4     4     8     4
Direct
  0.9872495386017219  0.0411497311366871  0.2553924266590862
  0.0014145202811162  0.9579542736460116  0.7385086051789969
  0.5062628216901424  0.4581980301580636  0.7395500679793882
  0.5047297792300951  0.5434288064075864  0.2569747044660345
  0.4842624860869979  0.0013960519898300 -0.0001250280484126
  0.0107475376485986  0.5027965627719819  0.9978231230076784
  0.5196624221222336 -0.0035502401504575  0.5042319779712441
  0.9723553864010722  0.4939219388709593  0.4957808924918651
  0.0769394495271569  0.4823996622110210  0.2477572328540677
  0.9371572143164464  0.5180609797903386  0.7478789946796309
  0.5831237926865567  0.0235025269267468  0.7570830561083786
  0.4108579037270957  0.9798612488569155  0.2480079654332924
  0.3133267166716360  0.7138108662055055  0.9641389388896064
  0.2104874166796408  0.1927205654202239  0.9655957469640863
  0.7083284030528786  0.2864575132122768  0.4522545911709870
  0.7854467330658723  0.7855391430756981  0.4558104054740083
  0.6909869390071768  0.2925169704810444  0.0444078862254643
  0.7878337713076881  0.8082150523501683  0.0412410342103724
  0.2897692201955735  0.7139993477515716  0.5430168989724469
  0.2190579477003052  0.2076209688878270  0.5446704793117837
 
  0.00000000E+00  0.00000000E+00  0.00000000E+00
  0.00000000E+00  0.00000000E+00  0.00000000E+00
  0.00000000E+00  0.00000000E+00  0.00000000E+00
  0.00000000E+00  0.00000000E+00  0.00000000E+00
  0.00000000E+00  0.00000000E+00  0.00000000E+00
  0.00000000E+00  0.00000000E+00  0.00000000E+00
  0.00000000E+00  0.00000000E+00  0.00000000E+00
  0.00000000E+00  0.00000000E+00  0.00000000E+00
  0.00000000E+00  0.00000000E+00  0.00000000E+00
  0.00000000E+00  0.00000000E+00  0.00000000E+00
  0.00000000E+00  0.00000000E+00  0.00000000E+00
  0.00000000E+00  0.00000000E+00  0.00000000E+00
  0.00000000E+00  0.00000000E+00  0.00000000E+00
  0.00000000E+00  0.00000000E+00  0.00000000E+00
  0.00000000E+00  0.00000000E+00  0.00000000E+00
  0.00000000E+00  0.00000000E+00  0.00000000E+00
  0.00000000E+00  0.00000000E+00  0.00000000E+00
  0.00000000E+00  0.00000000E+00  0.00000000E+00
  0.00000000E+00  0.00000000E+00  0.00000000E+00
  0.00000000E+00  0.00000000E+00  0.00000000E+00
