Co4 O4 F8                               
    1.000000000000000     
     5.0198894816908322   -0.0002997492227489   -0.0067355118599472
    -0.0047532410503687    5.1730011505550939    0.0144827752789537
    -0.0220931079148527    0.0233247000610009    7.2937007876478761
   Co   O    F 
     4     4     8
Direct
  0.4941209761918670  0.9879261188294143  0.9987663945085895
  0.0007749445714688  0.4920077901908709  0.0019406108074691
  0.5085715791080708  0.9943958122810055  0.5016538218706340
  0.9916534260559113  0.4947543357088107  0.5028291412095965
  0.3113816486499155  0.6825157676428509  0.9406400299033643
  0.1932212057951896  0.1912091832561676  0.9406256657056032
  0.6764519639218169  0.3227307010513106  0.4376644709481187
  0.8230917252515195  0.8233182466998000  0.4380562478506471
  0.1084828518742804  0.4772814248347356  0.2514593879279780
  0.8796903925464556  0.5255038000623122  0.7524698106546339
  0.6221727028927410  0.0231588750064755  0.7526400120377752
  0.3910855001671900  0.9714848872162820  0.2490147429439200
  0.6736794616801017  0.3136676748300723  0.0559184002076469
  0.8251736222337398  0.8156615283905073  0.0560347857232265
  0.3171234504633898  0.6925508031189201  0.5615479665867318
  0.1833245485963495  0.1918330508804575  0.5587385111140583
 
  0.00000000E+00  0.00000000E+00  0.00000000E+00
  0.00000000E+00  0.00000000E+00  0.00000000E+00
  0.00000000E+00  0.00000000E+00  0.00000000E+00
  0.00000000E+00  0.00000000E+00  0.00000000E+00
  0.00000000E+00  0.00000000E+00  0.00000000E+00
  0.00000000E+00  0.00000000E+00  0.00000000E+00
  0.00000000E+00  0.00000000E+00  0.00000000E+00
  0.00000000E+00  0.00000000E+00  0.00000000E+00
  0.00000000E+00  0.00000000E+00  0.00000000E+00
  0.00000000E+00  0.00000000E+00  0.00000000E+00
  0.00000000E+00  0.00000000E+00  0.00000000E+00
  0.00000000E+00  0.00000000E+00  0.00000000E+00
  0.00000000E+00  0.00000000E+00  0.00000000E+00
  0.00000000E+00  0.00000000E+00  0.00000000E+00
  0.00000000E+00  0.00000000E+00  0.00000000E+00
  0.00000000E+00  0.00000000E+00  0.00000000E+00
