Co4 O4 F8                               
   1.00000000000000     
     4.9801938915993249    0.0117583429203484    0.0007801506944310
     0.0045485491892601    5.2158852517967240    0.0016456506966373
    -0.0357990786273145   -0.0618444135364713    7.2561731858921839
   Co   O    F 
     4     4     8
Direct
  0.4832155853786824  0.9942158726248717  0.0042555945420451
  0.9826238076563324  0.5028401759789869  0.0069720739589261
  0.5150584804471489  0.0019661946570639  0.5049022578517948
  0.0148569290682974  0.5046099737798809  0.5059956211835771
  0.8064297865545418  0.8162651728609771  0.0585178596870510
  0.3337246387481461  0.6929263417620757  0.5493648925789443
  0.6101717561042616  0.0210652557633634  0.7537219913338145
  0.3901892194339201  0.9713678602973299  0.2522243538609940
  0.6711761587044420  0.3171096793966468  0.0556405089903522
  0.2967032971031859  0.6847871081378433  0.9338495921513651
  0.1696758803995936  0.1849474113911964  0.9413628906419935
  0.7006897875968715  0.3032087630133540  0.4372214551243193
  0.8342568085057944  0.8044787615424533  0.4376526073734254
  0.1880788833497329  0.1974687145045120  0.5591518325829999
  0.1347954171772260  0.4731306526269158  0.2482486445225956
  0.8683535637718229  0.5296120616625430  0.7509178236158023
 
  0.00000000E+00  0.00000000E+00  0.00000000E+00
  0.00000000E+00  0.00000000E+00  0.00000000E+00
  0.00000000E+00  0.00000000E+00  0.00000000E+00
  0.00000000E+00  0.00000000E+00  0.00000000E+00
  0.00000000E+00  0.00000000E+00  0.00000000E+00
  0.00000000E+00  0.00000000E+00  0.00000000E+00
  0.00000000E+00  0.00000000E+00  0.00000000E+00
  0.00000000E+00  0.00000000E+00  0.00000000E+00
  0.00000000E+00  0.00000000E+00  0.00000000E+00
  0.00000000E+00  0.00000000E+00  0.00000000E+00
  0.00000000E+00  0.00000000E+00  0.00000000E+00
  0.00000000E+00  0.00000000E+00  0.00000000E+00
  0.00000000E+00  0.00000000E+00  0.00000000E+00
  0.00000000E+00  0.00000000E+00  0.00000000E+00
  0.00000000E+00  0.00000000E+00  0.00000000E+00
  0.00000000E+00  0.00000000E+00  0.00000000E+00
