Na4 Mn4 O8 F4                           
   1.00000000000000     
     5.1737684888624660    0.1070021221671405    0.0083923528533933
     0.1049744288271880    5.2564490434462607   -0.0178177023642125
     0.0068803007549916   -0.0227903832916490    7.5665216148474341
   Na   Mn   O    F 
     4     4     8     4
Direct
  0.9875535695667350  0.0316825458556229  0.2534697832460268
  0.0178424575817871  0.9638947671972264  0.7532588539106181
  0.4850375480140658  0.4583998855543193  0.7447800453925729
  0.5085181170026004  0.5412870580485175  0.2422964947421928
  0.4930965074600145  0.9837649767913522  0.9990959156577781
  0.0169667907767020  0.5132340683693193  0.0002986030558329
  0.5103121829144626  0.0141977329178981  0.4985107438909495
  0.9788663500534122  0.4829858413863260  0.5014169157864662
  0.3104736914705116  0.7036661027682853  0.9590624994018940
  0.2102956498029501  0.2091515158515387  0.9664402944699130
  0.8045501750938744  0.7976451804063731  0.0355065873969803
  0.6967045046836976  0.3008558341721460  0.4541444921802311
  0.7936114048776489  0.7903476473909558  0.4635037628597355
  0.1990914504940635  0.2119209956421357  0.5437034162801185
  0.5726650767804607  0.0224545955931538  0.7481257143878512
  0.4291838421868919  0.9820041285293855  0.2502334714923560
  0.7121589431632902  0.2944925764242619  0.0395148630643525
  0.2844876727866723  0.7079628431680918  0.5405090767402810
  0.0820406285711156  0.4762702532263152  0.2658879568088498
  0.9065434367190364  0.5137814507067758  0.7402405092349793
 
  0.00000000E+00  0.00000000E+00  0.00000000E+00
  0.00000000E+00  0.00000000E+00  0.00000000E+00
  0.00000000E+00  0.00000000E+00  0.00000000E+00
  0.00000000E+00  0.00000000E+00  0.00000000E+00
  0.00000000E+00  0.00000000E+00  0.00000000E+00
  0.00000000E+00  0.00000000E+00  0.00000000E+00
  0.00000000E+00  0.00000000E+00  0.00000000E+00
  0.00000000E+00  0.00000000E+00  0.00000000E+00
  0.00000000E+00  0.00000000E+00  0.00000000E+00
  0.00000000E+00  0.00000000E+00  0.00000000E+00
  0.00000000E+00  0.00000000E+00  0.00000000E+00
  0.00000000E+00  0.00000000E+00  0.00000000E+00
  0.00000000E+00  0.00000000E+00  0.00000000E+00
  0.00000000E+00  0.00000000E+00  0.00000000E+00
  0.00000000E+00  0.00000000E+00  0.00000000E+00
  0.00000000E+00  0.00000000E+00  0.00000000E+00
  0.00000000E+00  0.00000000E+00  0.00000000E+00
  0.00000000E+00  0.00000000E+00  0.00000000E+00
  0.00000000E+00  0.00000000E+00  0.00000000E+00
  0.00000000E+00  0.00000000E+00  0.00000000E+00
