Na4 Ni4 O8 F4                           
   1.00000000000000     
     5.4598627820316885    0.6304874312239261   -0.0343995221979636
     0.6972110559588476    5.4721391692440191   -0.0018613248423174
     0.0453114345142788    0.0019187977160624    7.0343987606214888
   Na   Ni   O    F 
     4     4     8     4
Direct
  0.0015908602927690  0.0057062720011004  0.2403578663315396
  0.0039295985457721  0.0113017559024589  0.7705231590551632
  0.4921950302107357  0.4947549326853780  0.7565236554653866
  0.5026075172920510  0.4989804417619011  0.2421018905573710
  0.4906711090516023  0.9777542873566317  0.0069408610973178
  0.0269357333564888  0.5367675578695138  0.0094636520221703
  0.5031384879763765  0.0033071699865018  0.4970202477830870
  0.0041087317609412  0.5035509323317050  0.4971937426586753
  0.2542429179802155  0.7584670854592429  0.0004746873378192
  0.7519572387754324  0.7452610069066045  0.1505941999598731
  0.7583033902265700  0.7573323579223612  0.3613307699843329
  0.2206293173695142  0.2205021344776297  0.5901763470085447
  0.1368522207937975  0.3563262583954781  0.2495064585890291
  0.8618465840793078  0.6385166384670283  0.7491117786575170
  0.6444520597038296  0.8612136071694818  0.7466527995411005
  0.3622572626813312  0.1463732909140869  0.2506493018359515
  0.7381153946133927  0.2325282137478070  0.0018478387554777
  0.2568678395874375  0.2604336112910309  0.8898471363321984
  0.2597359123538716  0.7298103861057725  0.4935207686906302
  0.7295627933485551  0.2611120592482787  0.4961628383368150
 
  0.00000000E+00  0.00000000E+00  0.00000000E+00
  0.00000000E+00  0.00000000E+00  0.00000000E+00
  0.00000000E+00  0.00000000E+00  0.00000000E+00
  0.00000000E+00  0.00000000E+00  0.00000000E+00
  0.00000000E+00  0.00000000E+00  0.00000000E+00
  0.00000000E+00  0.00000000E+00  0.00000000E+00
  0.00000000E+00  0.00000000E+00  0.00000000E+00
  0.00000000E+00  0.00000000E+00  0.00000000E+00
  0.00000000E+00  0.00000000E+00  0.00000000E+00
  0.00000000E+00  0.00000000E+00  0.00000000E+00
  0.00000000E+00  0.00000000E+00  0.00000000E+00
  0.00000000E+00  0.00000000E+00  0.00000000E+00
  0.00000000E+00  0.00000000E+00  0.00000000E+00
  0.00000000E+00  0.00000000E+00  0.00000000E+00
  0.00000000E+00  0.00000000E+00  0.00000000E+00
  0.00000000E+00  0.00000000E+00  0.00000000E+00
  0.00000000E+00  0.00000000E+00  0.00000000E+00
  0.00000000E+00  0.00000000E+00  0.00000000E+00
  0.00000000E+00  0.00000000E+00  0.00000000E+00
  0.00000000E+00  0.00000000E+00  0.00000000E+00
