V4 O4 F8                                
   1.00000000000000     
     5.1304542543078533    0.0149176419220079    0.0010188442725444
     0.0061013477149382    5.2989920079501953   -0.0195975407777363
     0.0036610495512696   -0.0267863892476627    7.4292612304516341
   V    O    F 
     4     4     8
Direct
  0.4715566253907381  0.0283234172450060  0.9944019761259486
  0.9786572893774518  0.5333710347365328  0.0043059280112797
  0.4864439678851068  0.9692546422979104  0.5041484166744234
  0.9861339302543011  0.5154934926808376  0.4967748071309726
  0.2240915366449817  0.2195618334388341  0.9607430057301491
  0.7909696966958214  0.7819533432453583  0.0360518489485530
  0.2771008334144425  0.7361442467181860  0.5439492809724690
  0.7777169679508228  0.7540834503808186  0.4640508678268800
  0.7229872555900020  0.2809404036861188  0.0605736816114172
  0.2960519248748505  0.7123463610794499  0.9433732819780991
  0.7324614706126897  0.2515367533011703  0.4510259502822308
  0.2333556581108240  0.2381058188446919  0.5419816994971630
  0.1055718982803547  0.4927433273537207  0.2486636807048737
  0.9032473862516593  0.4846996933225632  0.7509585822635914
  0.6032062028260360  0.0214071804145021  0.7498221532362623
  0.4104473558399103  0.9800350012543282  0.2491748390056870
 
  0.00000000E+00  0.00000000E+00  0.00000000E+00
  0.00000000E+00  0.00000000E+00  0.00000000E+00
  0.00000000E+00  0.00000000E+00  0.00000000E+00
  0.00000000E+00  0.00000000E+00  0.00000000E+00
  0.00000000E+00  0.00000000E+00  0.00000000E+00
  0.00000000E+00  0.00000000E+00  0.00000000E+00
  0.00000000E+00  0.00000000E+00  0.00000000E+00
  0.00000000E+00  0.00000000E+00  0.00000000E+00
  0.00000000E+00  0.00000000E+00  0.00000000E+00
  0.00000000E+00  0.00000000E+00  0.00000000E+00
  0.00000000E+00  0.00000000E+00  0.00000000E+00
  0.00000000E+00  0.00000000E+00  0.00000000E+00
  0.00000000E+00  0.00000000E+00  0.00000000E+00
  0.00000000E+00  0.00000000E+00  0.00000000E+00
  0.00000000E+00  0.00000000E+00  0.00000000E+00
  0.00000000E+00  0.00000000E+00  0.00000000E+00
