Na4 Fe4 O8 F4                           
   1.00000000000000     
     5.3888066891228856    0.0042822827776418    0.0086697898731563
    -2.6950305818663751    4.6089460316372399    0.0638569181841289
     0.0174228275944432    0.1330260160825767    9.1024291324494140
   Na   Fe   O    F 
     4     4     8     4
Direct
  0.9568327811325332  0.9542191027880662  0.9484146247343972
  0.0279664974003850  0.0641007506359585  0.4986749436309523
  0.3437739656241519  0.6629255191953618  0.2577755815600185
  0.6753251074578017  0.3415626022901677  0.7544026905018271
  0.3563549326582418  0.7158123789624398  0.6061274134477088
  0.7077720568050552  0.3977581007081810  0.4062677640445500
  0.6672590597664652  0.2924248271582854  0.1129385499848325
  0.3110923988034102  0.6570409252949503  0.8970931001705438
  0.5262218256614162  0.9387138766220176  0.0330281994652992
  0.9438703507502098  0.4824258037207656  0.9745833442125118
  0.5925143040256700  0.0876575234511634  0.5380474572272647
  0.0592446792647934  0.6464398374625944  0.4889122831525725
  0.4912190992048480  0.5479303216870051  0.4846444645725470
  0.7717847328409206  0.6068698067164817  0.2196212901081083
  0.5991856145571717  0.7406376333756697  0.7648168113868650
  0.2156683795847769  0.8470820175888392  0.7608528154158378
  0.3739321537732110  0.3607673795556536  0.9943645981860101
  0.1048244972962422  0.3270505647530797  0.7136698044491538
  0.3774992203410150  0.1092878978479703  0.2707114255614087
  0.8976583430516740  0.2192931301853562  0.2750528381875910
 
  0.00000000E+00  0.00000000E+00  0.00000000E+00
  0.00000000E+00  0.00000000E+00  0.00000000E+00
  0.00000000E+00  0.00000000E+00  0.00000000E+00
  0.00000000E+00  0.00000000E+00  0.00000000E+00
  0.00000000E+00  0.00000000E+00  0.00000000E+00
  0.00000000E+00  0.00000000E+00  0.00000000E+00
  0.00000000E+00  0.00000000E+00  0.00000000E+00
  0.00000000E+00  0.00000000E+00  0.00000000E+00
  0.00000000E+00  0.00000000E+00  0.00000000E+00
  0.00000000E+00  0.00000000E+00  0.00000000E+00
  0.00000000E+00  0.00000000E+00  0.00000000E+00
  0.00000000E+00  0.00000000E+00  0.00000000E+00
  0.00000000E+00  0.00000000E+00  0.00000000E+00
  0.00000000E+00  0.00000000E+00  0.00000000E+00
  0.00000000E+00  0.00000000E+00  0.00000000E+00
  0.00000000E+00  0.00000000E+00  0.00000000E+00
  0.00000000E+00  0.00000000E+00  0.00000000E+00
  0.00000000E+00  0.00000000E+00  0.00000000E+00
  0.00000000E+00  0.00000000E+00  0.00000000E+00
  0.00000000E+00  0.00000000E+00  0.00000000E+00
