Mn2 O2 F4                               
   1.00000000000000     
    -2.3765275033799460   -4.1158549306346845   -0.0007588062142338
    -4.7924397092026201    0.0226987659694329   -0.0395225319592848
    -2.4517915309509903   -1.3299185468584678   -4.2813478172520130
   Mn   O    F 
     2     2     4
Direct
  0.9747235561141206  0.0000732670074372  0.9991667739745739
  0.5255588280763119  0.5000679529981921  0.4998900417211636
  0.6080504817734672  0.8876934789243874  0.2458829863754701
  0.7584451877059822  0.3879567960406554  0.7459101163238220
  0.2483460890111983  0.6185867398401960  0.2522477498758121
  0.3809750492047567  0.1184550981215221  0.7523195825830804
  0.1172305982803884  0.7436592183072439  0.7521823488819397
  0.8866702098337745  0.2435074487603588  0.2524004002641240
 
  0.00000000E+00  0.00000000E+00  0.00000000E+00
  0.00000000E+00  0.00000000E+00  0.00000000E+00
  0.00000000E+00  0.00000000E+00  0.00000000E+00
  0.00000000E+00  0.00000000E+00  0.00000000E+00
  0.00000000E+00  0.00000000E+00  0.00000000E+00
  0.00000000E+00  0.00000000E+00  0.00000000E+00
  0.00000000E+00  0.00000000E+00  0.00000000E+00
  0.00000000E+00  0.00000000E+00  0.00000000E+00
