Sodium dioxocobaltate                   
   1.00000000000000     
     2.8726073922416253    0.0000373072670079   -0.0000437132537827
    -1.4362713852818414    2.4877707368217989    0.0000418469525326
    -0.0002050346149300    0.0001188094114985   15.5846431220491954
   Na   Co   O 
     3     3     6
Direct
  0.0000000660953603  0.9999998854732723  0.4999999145443539
  0.6666664012597678  0.3333332205315429  0.8333333130710585
  0.3333334856611074  0.6666668531177606  0.1666667949562708
  0.0000017352263058  0.0000028339055618  0.0000000100623581
  0.6666665748826048  0.3333332810560776  0.3333333854150737
  0.3333340394045621  0.6666673670364673  0.6666666121120457
  0.9999992017553012  0.0000008323662257  0.2692885555401148
  0.0000001044391382  0.9999994176782891  0.7307118781058648
  0.6666657350832779  0.3333332119678403  0.6026214161313632
  0.6666653403216927  0.3333312859455546  0.0640459381088050
  0.3333330868471194  0.6666658610893990  0.9359540638364265
  0.3333343490237723  0.6666660698320186  0.3973781521162749
 
  0.00000000E+00  0.00000000E+00  0.00000000E+00
  0.00000000E+00  0.00000000E+00  0.00000000E+00
  0.00000000E+00  0.00000000E+00  0.00000000E+00
  0.00000000E+00  0.00000000E+00  0.00000000E+00
  0.00000000E+00  0.00000000E+00  0.00000000E+00
  0.00000000E+00  0.00000000E+00  0.00000000E+00
  0.00000000E+00  0.00000000E+00  0.00000000E+00
  0.00000000E+00  0.00000000E+00  0.00000000E+00
  0.00000000E+00  0.00000000E+00  0.00000000E+00
  0.00000000E+00  0.00000000E+00  0.00000000E+00
  0.00000000E+00  0.00000000E+00  0.00000000E+00
  0.00000000E+00  0.00000000E+00  0.00000000E+00
