Na8 Mn8 O16 F8                          
   1.00000000000000     
     7.3281028478214685    0.0993928647770275    0.0530814765922029
    -0.1188208442006583    7.4777607719614192    0.0221930509762587
     0.0250123509700773   -0.0230774621184263    7.4065010404146534
   Na   Mn   O    F 
     8     8    16     8
Direct
  0.2748957348125975  0.2499143240148281  0.2570573530926010
  0.2672933100624929  0.2608603544612759  0.7617336954492470
  0.2238498391743750  0.7530769938007035  0.2316246295761142
  0.2304979939941888  0.7434608847091965  0.7328555689121282
  0.7654427943629508  0.2561373891492226  0.2751664540771345
  0.7687576251180364  0.2483493156319366  0.7678713357940260
  0.7419345533646123  0.7492444681097714  0.2197384637268449
  0.7302582239959887  0.7469184751303287  0.7482104183593600
  0.0021894295959872  0.0052817506367161  0.9876715677395622
 -0.0022379708805881  0.0013658699544256  0.5143101421289512
 -0.0012756159993507  0.4993773467697489 -0.0003499940249033
  0.9983012887421724  0.4993271235703362  0.4996006527595190
  0.4992334673026381  0.0013666126292363  0.0002431469916281
  0.4999911274442538  0.9828796075249928  0.4996483638105718
  0.4980451434355609  0.5016638147060323  0.0007771581765696
  0.5011851107381831  0.5145820656601888  0.4973430511237489
  0.2517679999837701  0.0219520451590209  0.0504703283798014
  0.2561967933002586  0.9578239785569881  0.4594385628831113
  0.2507162687975297  0.5459138367175396  0.4630086466551625
  0.7479529016365668  0.9736261389469492  0.9556274052818673
  0.7443182625689316  0.0447419470377157  0.5396711057961050
  0.7503006371549719  0.4525864284899991  0.5345870866435211
  0.9677131776609595  0.2524735084667002  0.0388123633051233
  0.0270763435106197  0.7468886118352467  0.9685214843248747
  0.5146833391503352  0.2481649812041425  0.9569934016344084
  0.4810841670448082  0.7490084812234233  0.0416093863560526
  0.5652668535635886  0.7525573045310585  0.4738298657843957
  0.0531350725980158  0.0429200504216904  0.7533900747434021
  0.9600719517323683  0.5412434466797745  0.2497918559276664
  0.0373034918667440  0.4598472417033174  0.7510804619834247
  0.5359127057370444  0.4622297011161602  0.2467247103789915
  0.4589160319628285  0.5334147997536514  0.7521298977241525
  0.2474520501624193  0.4706760988489797  0.0482639681700031
  0.7490060614995666  0.5263945138718832 -0.0481981385158188
  0.0407914678750899  0.2599453399975614  0.4450775139444020
  0.9588706461323174  0.7385286189958086  0.5504382527643198
  0.4507861830911004  0.2446858094447615  0.5215534832977485
  0.9545878624342480  0.9632005850384968  0.2537587516300062
  0.5472488719981746  0.0377009369170834  0.2506830498829702
  0.4504788032736644  0.9596691985830996  0.7492344733312407
 
  0.00000000E+00  0.00000000E+00  0.00000000E+00
  0.00000000E+00  0.00000000E+00  0.00000000E+00
  0.00000000E+00  0.00000000E+00  0.00000000E+00
  0.00000000E+00  0.00000000E+00  0.00000000E+00
  0.00000000E+00  0.00000000E+00  0.00000000E+00
  0.00000000E+00  0.00000000E+00  0.00000000E+00
  0.00000000E+00  0.00000000E+00  0.00000000E+00
  0.00000000E+00  0.00000000E+00  0.00000000E+00
  0.00000000E+00  0.00000000E+00  0.00000000E+00
  0.00000000E+00  0.00000000E+00  0.00000000E+00
  0.00000000E+00  0.00000000E+00  0.00000000E+00
  0.00000000E+00  0.00000000E+00  0.00000000E+00
  0.00000000E+00  0.00000000E+00  0.00000000E+00
  0.00000000E+00  0.00000000E+00  0.00000000E+00
  0.00000000E+00  0.00000000E+00  0.00000000E+00
  0.00000000E+00  0.00000000E+00  0.00000000E+00
  0.00000000E+00  0.00000000E+00  0.00000000E+00
  0.00000000E+00  0.00000000E+00  0.00000000E+00
  0.00000000E+00  0.00000000E+00  0.00000000E+00
  0.00000000E+00  0.00000000E+00  0.00000000E+00
  0.00000000E+00  0.00000000E+00  0.00000000E+00
  0.00000000E+00  0.00000000E+00  0.00000000E+00
  0.00000000E+00  0.00000000E+00  0.00000000E+00
  0.00000000E+00  0.00000000E+00  0.00000000E+00
  0.00000000E+00  0.00000000E+00  0.00000000E+00
  0.00000000E+00  0.00000000E+00  0.00000000E+00
  0.00000000E+00  0.00000000E+00  0.00000000E+00
  0.00000000E+00  0.00000000E+00  0.00000000E+00
  0.00000000E+00  0.00000000E+00  0.00000000E+00
  0.00000000E+00  0.00000000E+00  0.00000000E+00
  0.00000000E+00  0.00000000E+00  0.00000000E+00
  0.00000000E+00  0.00000000E+00  0.00000000E+00
  0.00000000E+00  0.00000000E+00  0.00000000E+00
  0.00000000E+00  0.00000000E+00  0.00000000E+00
  0.00000000E+00  0.00000000E+00  0.00000000E+00
  0.00000000E+00  0.00000000E+00  0.00000000E+00
  0.00000000E+00  0.00000000E+00  0.00000000E+00
  0.00000000E+00  0.00000000E+00  0.00000000E+00
  0.00000000E+00  0.00000000E+00  0.00000000E+00
  0.00000000E+00  0.00000000E+00  0.00000000E+00
