Mn8 O8 F16                              
   1.00000000000000     
     7.2720361777268758   -0.0387657624887739    0.0547227128200048
    -0.0058618949574620    7.0124406664079828    0.0202423059362617
     0.0242895566613053    0.0095948861914237    7.2747858669482088
   Mn   O    F 
     8     8    16
Direct
  0.9915698590624740 -0.0030734385136961  0.0023940026030637
  0.0009725802515701  0.0162161966365167  0.5011760986244831
 -0.0019800830674763  0.4969374474152725 -0.0001561520568690
  0.0001064905735035  0.4917643394262241  0.4993535012622283
  0.5106531011690809  0.9866231099120873  0.0032794074543170
  0.5043213390148649  0.9988574718273087  0.4965868741413487
  0.4979718725924029  0.5114189620659516  0.0003593396418564
  0.5035855905218629  0.5055953859067376  0.4962039720376796
  0.9411045728626637  0.4477351453003715  0.2505956021842490
  0.0586880507122399  0.5413051464632858  0.7484860638988995
  0.2475908886860926  0.0413397830199623  0.9474353681762243
  0.7482409425706245  0.9477225214664611  0.0623659652593019
  0.9316817186748264  0.2519778834868764  0.5666546063704615
  0.5537545267461362  0.2523221508987981  0.5537390239596198
  0.4324167530308857  0.7469709587813098  0.0643682605766794
  0.4462522504813978  0.7514592698055869  0.4433328231893492
  0.0557945195868609  0.0840894532537980  0.2658118214500333
  0.5484025834200812  0.9264099055779080  0.7590672322760690
  0.2405939147874403  0.0531293517803451  0.5644345461783176
  0.2398781393230094  0.4277365020509853  0.4505792174405743
  0.7325825001191677  0.5759308609818933  0.9406331717730680
  0.7632648884652152  0.5753548602342103  0.5427381775980128
  0.0611754367493930  0.7450071252611523  0.0642678981085318
  0.5554655820713642  0.2495608289305717  0.9407965851966388
  0.9512003490382102  0.9247879876870077  0.7332263074955252
  0.4555981581983311  0.0712037899280339  0.2393299022945963
  0.5705706152742250  0.4551878366712213  0.2352879951752372
  0.4350621384793745  0.5469489277022962  0.7595556154713581
  0.2660093248143623  0.4201594566977240  0.0534764516887069
  0.7664723202201490  0.9556248963039372  0.4346846220271174
  0.9313632202055561  0.2497983157095945  0.9366896717770766
  0.0596358553641026  0.7538975673302659  0.4432460267262445
 
  0.00000000E+00  0.00000000E+00  0.00000000E+00
  0.00000000E+00  0.00000000E+00  0.00000000E+00
  0.00000000E+00  0.00000000E+00  0.00000000E+00
  0.00000000E+00  0.00000000E+00  0.00000000E+00
  0.00000000E+00  0.00000000E+00  0.00000000E+00
  0.00000000E+00  0.00000000E+00  0.00000000E+00
  0.00000000E+00  0.00000000E+00  0.00000000E+00
  0.00000000E+00  0.00000000E+00  0.00000000E+00
  0.00000000E+00  0.00000000E+00  0.00000000E+00
  0.00000000E+00  0.00000000E+00  0.00000000E+00
  0.00000000E+00  0.00000000E+00  0.00000000E+00
  0.00000000E+00  0.00000000E+00  0.00000000E+00
  0.00000000E+00  0.00000000E+00  0.00000000E+00
  0.00000000E+00  0.00000000E+00  0.00000000E+00
  0.00000000E+00  0.00000000E+00  0.00000000E+00
  0.00000000E+00  0.00000000E+00  0.00000000E+00
  0.00000000E+00  0.00000000E+00  0.00000000E+00
  0.00000000E+00  0.00000000E+00  0.00000000E+00
  0.00000000E+00  0.00000000E+00  0.00000000E+00
  0.00000000E+00  0.00000000E+00  0.00000000E+00
  0.00000000E+00  0.00000000E+00  0.00000000E+00
  0.00000000E+00  0.00000000E+00  0.00000000E+00
  0.00000000E+00  0.00000000E+00  0.00000000E+00
  0.00000000E+00  0.00000000E+00  0.00000000E+00
  0.00000000E+00  0.00000000E+00  0.00000000E+00
  0.00000000E+00  0.00000000E+00  0.00000000E+00
  0.00000000E+00  0.00000000E+00  0.00000000E+00
  0.00000000E+00  0.00000000E+00  0.00000000E+00
  0.00000000E+00  0.00000000E+00  0.00000000E+00
  0.00000000E+00  0.00000000E+00  0.00000000E+00
  0.00000000E+00  0.00000000E+00  0.00000000E+00
  0.00000000E+00  0.00000000E+00  0.00000000E+00
