Ti2 O2 F4                               
    1.000000000000000     
     3.7815215940228120   -0.0000000448145026    0.0003521648986734
    -0.0000000474443663    3.9210071341672084   -0.0000000054414824
     0.0008290833807659   -0.0000000270520918    7.6829417578195995
   Ti   O    F 
     2     2     4
Direct
  0.4987227401549184  0.4999999954794397  0.2568804852724735
  0.4999446090321329  0.4999999611254793  0.7377660788942835
  0.5000528134146988  0.4999999696061490  0.5145597079149461
  0.0009591836118196  0.5000000006539951  0.2532066496285142
  0.5001518943029125  0.5000000261315996  0.9978130590125047
  0.5004313549629069  0.0000000173428358  0.2498287007488593
  0.4997952962290380 -0.0000000052585902  0.7616937927376589
  0.9999421082915730  0.5000000349190918  0.7712515257907590
 
  0.00000000E+00  0.00000000E+00  0.00000000E+00
  0.00000000E+00  0.00000000E+00  0.00000000E+00
  0.00000000E+00  0.00000000E+00  0.00000000E+00
  0.00000000E+00  0.00000000E+00  0.00000000E+00
  0.00000000E+00  0.00000000E+00  0.00000000E+00
  0.00000000E+00  0.00000000E+00  0.00000000E+00
  0.00000000E+00  0.00000000E+00  0.00000000E+00
  0.00000000E+00  0.00000000E+00  0.00000000E+00
