Na4 V4 O8 F4                            
   1.00000000000000     
     5.2575043120350440    0.0024162260584349    0.0073182676944402
     0.0134427080390268    5.3331540275746985   -0.0271134043809169
     0.0115608764328281   -0.0414460740669219    7.6696136666543007
   Na   V    O    F 
     4     4     8     4
Direct
  0.9875748340279956  0.0280754847421018  0.2555245752745258
  0.0180080000367709  0.9692558446301843  0.7640273153435576
  0.4826253647516329  0.4742020547585759  0.7467207148296313
  0.5143113897608301  0.5346172816607947  0.2558356398171688
  0.5058102165170754  0.0197566607223756  0.0231778721272742
  0.9872013534288525  0.4931954953005738  0.0000148192666257
  0.4886282476580531  0.0111841454396964  0.5231545863729951
  0.0064203326862622  0.4830061205062553  0.4999633351636764
  0.5774269783862099  0.9932579415760032  0.7385759084053226
  0.4270921277716855  0.9760655476159368  0.2389440882363558
  0.7227377969802242  0.2808773267356323  0.0393964005771895
  0.2259235695664149  0.2431719533663826  0.9610667831763341
  0.8077313764763873  0.7763849624865301  0.0324519245836742
  0.2535844734358964  0.7146071101499947  0.5300177846694929
  0.7204059689504311  0.2937104957786840  0.4653418447047865
  0.2112920866009602  0.2119603458527989  0.5416202624569879
  0.0902447940828229  0.4744848031739567  0.2479949076667272
  0.9080048644522233  0.5159214877181396  0.7485899412353775
  0.2904605276700254  0.7248754091540229  0.9454156537643591
  0.7745156967592461  0.7813895286313673  0.4421656423279447
 
  0.00000000E+00  0.00000000E+00  0.00000000E+00
  0.00000000E+00  0.00000000E+00  0.00000000E+00
  0.00000000E+00  0.00000000E+00  0.00000000E+00
  0.00000000E+00  0.00000000E+00  0.00000000E+00
  0.00000000E+00  0.00000000E+00  0.00000000E+00
  0.00000000E+00  0.00000000E+00  0.00000000E+00
  0.00000000E+00  0.00000000E+00  0.00000000E+00
  0.00000000E+00  0.00000000E+00  0.00000000E+00
  0.00000000E+00  0.00000000E+00  0.00000000E+00
  0.00000000E+00  0.00000000E+00  0.00000000E+00
  0.00000000E+00  0.00000000E+00  0.00000000E+00
  0.00000000E+00  0.00000000E+00  0.00000000E+00
  0.00000000E+00  0.00000000E+00  0.00000000E+00
  0.00000000E+00  0.00000000E+00  0.00000000E+00
  0.00000000E+00  0.00000000E+00  0.00000000E+00
  0.00000000E+00  0.00000000E+00  0.00000000E+00
  0.00000000E+00  0.00000000E+00  0.00000000E+00
  0.00000000E+00  0.00000000E+00  0.00000000E+00
  0.00000000E+00  0.00000000E+00  0.00000000E+00
  0.00000000E+00  0.00000000E+00  0.00000000E+00
