Ti4 O4 F8                               
   1.00000000000000     
     5.2738290460684212   -0.0016870228892484    0.0051557731593935
     0.0020785138892943    5.4184525222620241    0.0015840525659282
     0.0069778459113008   -0.0102747152882846    7.4225402378780592
   Ti   O    F 
     4     4     8
Direct
  0.5010848124312715  0.0019785449761824  0.9849337698237166
  0.0184868947567547  0.4750044429632040  0.9982341855970686
  0.4967530736230412  0.0065159551951736  0.4853345474988570
  0.9740533001648836  0.4865920272434017  0.4980930494022967
  0.5711123238307485  0.0075932305606314  0.7518608815959986
  0.4318380099795813  0.9864095778775251  0.2521210623765764
  0.2048426356362606  0.2158400510698894  0.9629118959302680
  0.7162085701326731  0.2948041358382151  0.4615666959112361
  0.0968681751629823  0.4966167212106938  0.2527801303475566
  0.9073568846347945  0.5244941261448394  0.7531660874477945
  0.7112612459959768  0.2958009823781875  0.0477699036282871
  0.2892835360252402  0.7044978487082427  0.9577962790522589
  0.7944474109947803  0.7787651140948897  0.0422517702236056
  0.2805579841162815  0.7118789138097658  0.5427984960659198
  0.8005528416115417  0.7924233411249381  0.4596476737220313
  0.2052923009032028  0.2207849868042275  0.5487335713765210
 
  0.00000000E+00  0.00000000E+00  0.00000000E+00
  0.00000000E+00  0.00000000E+00  0.00000000E+00
  0.00000000E+00  0.00000000E+00  0.00000000E+00
  0.00000000E+00  0.00000000E+00  0.00000000E+00
  0.00000000E+00  0.00000000E+00  0.00000000E+00
  0.00000000E+00  0.00000000E+00  0.00000000E+00
  0.00000000E+00  0.00000000E+00  0.00000000E+00
  0.00000000E+00  0.00000000E+00  0.00000000E+00
  0.00000000E+00  0.00000000E+00  0.00000000E+00
  0.00000000E+00  0.00000000E+00  0.00000000E+00
  0.00000000E+00  0.00000000E+00  0.00000000E+00
  0.00000000E+00  0.00000000E+00  0.00000000E+00
  0.00000000E+00  0.00000000E+00  0.00000000E+00
  0.00000000E+00  0.00000000E+00  0.00000000E+00
  0.00000000E+00  0.00000000E+00  0.00000000E+00
  0.00000000E+00  0.00000000E+00  0.00000000E+00
