Na2 V2 O4 F2                            
   1.00000000000000     
     3.9900929722934864    0.0000000017160863    0.0000588280490724
     0.0000000020594157    3.7137693520253583    0.0000000027388870
     0.0000781908797620    0.0000000096707449    7.4566663050006063
   Na   V    O    F 
     2     2     4     2
Direct
 -0.0000029029646012  0.0000000005246942  0.0036479135045482
 -0.0000099863194400  0.0000000004229588  0.5032191150181738
  0.5000180546710993  0.4999999970830054  0.2516176330298681
  0.5000048494337603  0.5000000001039593  0.7514246373545793
  0.5000500559060340  0.5000000045474705  0.0105597895109234
  0.5000104180863822  0.4999999963968699  0.4991453346690933
  0.4999164814013622 -0.0000000022019075  0.2560782531839323
  0.4999946162359077  0.0000000026621432  0.7567598043214315
 -0.0000120203366072  0.4999999842173056  0.2549549812040808
  0.0000304338860955  0.5000000162435005  0.7555925382033611
 
  0.00000000E+00  0.00000000E+00  0.00000000E+00
  0.00000000E+00  0.00000000E+00  0.00000000E+00
  0.00000000E+00  0.00000000E+00  0.00000000E+00
  0.00000000E+00  0.00000000E+00  0.00000000E+00
  0.00000000E+00  0.00000000E+00  0.00000000E+00
  0.00000000E+00  0.00000000E+00  0.00000000E+00
  0.00000000E+00  0.00000000E+00  0.00000000E+00
  0.00000000E+00  0.00000000E+00  0.00000000E+00
  0.00000000E+00  0.00000000E+00  0.00000000E+00
  0.00000000E+00  0.00000000E+00  0.00000000E+00
