Sodium vanado(III)vanadate(IV)          
   1.00000000000000     
     9.1472922801741881    0.0000002431858341    0.0000002614160007
     0.0000000160572437    2.8759484522613894   -0.0000146614128611
     0.0000006399316773   -0.0000521964761964   10.6921117402452772
   Na   V    O 
     4     8    16
Direct
  0.2435131424052415  0.2500004868557184  0.3466120965316080
  0.7564899338405056  0.7499999708589229  0.6533413459808628
  0.2564899032709533  0.7499998564896018  0.8466585745671225
  0.7435132032246301  0.2499999265442199  0.1533881063722973
  0.0813557516253454  0.2500026734887157  0.6039668581390885
  0.9187276822929320  0.7499985772660835  0.3961027654207712
  0.4187277304535542  0.7500015802649571  0.1038972988247622
  0.5813560585245412  0.2499975869649091  0.8960329175931037
  0.0640895875770440  0.2500012604842681  0.1129509597697975
  0.9359210466193346  0.7499983539541546  0.8870371956774648
  0.4359215189154924  0.7500013587415566  0.6129627056352618
  0.5640897187202967  0.2499987064082063  0.3870492236473240
  0.2912752172837827  0.2499993629649850  0.6495956531712679
  0.7086604721164278  0.7500005184191920  0.3503834126340166
  0.2086602549703400  0.7500001093718893  0.1496163291298345
  0.7912756169013875  0.2499996196813896  0.8504046478314180
  0.3866516532734821  0.2500016900090074  0.9792452854645219
  0.6133423195317533  0.7499963500093472  0.0207567307370837
  0.1133422176505547  0.7500053506674291  0.4792433681930603
  0.8866516617107223  0.2499977734397518  0.5207547157176293
  0.4785373634575905  0.2499968613527201  0.2189588587548883
  0.5214612580170694  0.7500047295024359  0.7810041282803866
  0.0214610897298115  0.7499926795234302  0.7189957612204765
  0.9785374678627079  0.2500047693338203  0.2810410600576319
  0.0777769678207463  0.2499985292835447  0.9293670409947126
  0.9221972643227971  0.7500010903303362  0.0706178980948309
  0.4221972629619657  0.7499989215946741  0.4293822309147046
  0.5777766129189956  0.2500013061947328  0.5706328386440518
 
  0.00000000E+00  0.00000000E+00  0.00000000E+00
  0.00000000E+00  0.00000000E+00  0.00000000E+00
  0.00000000E+00  0.00000000E+00  0.00000000E+00
  0.00000000E+00  0.00000000E+00  0.00000000E+00
  0.00000000E+00  0.00000000E+00  0.00000000E+00
  0.00000000E+00  0.00000000E+00  0.00000000E+00
  0.00000000E+00  0.00000000E+00  0.00000000E+00
  0.00000000E+00  0.00000000E+00  0.00000000E+00
  0.00000000E+00  0.00000000E+00  0.00000000E+00
  0.00000000E+00  0.00000000E+00  0.00000000E+00
  0.00000000E+00  0.00000000E+00  0.00000000E+00
  0.00000000E+00  0.00000000E+00  0.00000000E+00
  0.00000000E+00  0.00000000E+00  0.00000000E+00
  0.00000000E+00  0.00000000E+00  0.00000000E+00
  0.00000000E+00  0.00000000E+00  0.00000000E+00
  0.00000000E+00  0.00000000E+00  0.00000000E+00
  0.00000000E+00  0.00000000E+00  0.00000000E+00
  0.00000000E+00  0.00000000E+00  0.00000000E+00
  0.00000000E+00  0.00000000E+00  0.00000000E+00
  0.00000000E+00  0.00000000E+00  0.00000000E+00
  0.00000000E+00  0.00000000E+00  0.00000000E+00
  0.00000000E+00  0.00000000E+00  0.00000000E+00
  0.00000000E+00  0.00000000E+00  0.00000000E+00
  0.00000000E+00  0.00000000E+00  0.00000000E+00
  0.00000000E+00  0.00000000E+00  0.00000000E+00
  0.00000000E+00  0.00000000E+00  0.00000000E+00
  0.00000000E+00  0.00000000E+00  0.00000000E+00
  0.00000000E+00  0.00000000E+00  0.00000000E+00
