Mn4 O4 F8                               
   1.00000000000000     
     5.1475430598745948    0.1377809298633090    0.1100510113111151
    -2.3932678507664091    4.2564016303640049   -0.0197059722569737
     0.1036648494526262    0.0620417301810676    8.5440872117020827
   Mn   O    F 
     4     4     8
Direct
  0.3246528564685783  0.7862204426113754  0.6077584669384082
  0.6547971862548917  0.4178852098348352  0.3869197296694176
  0.6918478766205450  0.2161050409920716  0.0944235590141678
  0.3295005628831535  0.5767774186514056  0.9017565535831770
  0.4774645863982434  0.8133456629172009  0.0702416399272981
  0.0187356764401565  0.2652306094674149  0.0000506721956107
  0.5023791942330873  0.2055820987972639  0.5607527180758716
  0.1820802062641306  0.3867962545521167  0.6958843186387792
  0.5539165382888136  0.3536343059379304  0.9311071871471769
  0.9759633021036177  0.7027356717648883  0.4896152184183463
  0.4711609692344650  0.6542326550550465  0.4175034763466592
  0.8425908184429877  0.6207179324652098  0.1888737896670970
  0.3705491350844490  0.1789903774887917  0.2519086007136350
  0.6340890324330329  0.8481907364989674  0.7597918390594166
  0.8268933176463747  0.1807308038152358  0.3066521892990665
  0.1433787412034736  0.7928247791502614  0.8367600413058729
 
  0.00000000E+00  0.00000000E+00  0.00000000E+00
  0.00000000E+00  0.00000000E+00  0.00000000E+00
  0.00000000E+00  0.00000000E+00  0.00000000E+00
  0.00000000E+00  0.00000000E+00  0.00000000E+00
  0.00000000E+00  0.00000000E+00  0.00000000E+00
  0.00000000E+00  0.00000000E+00  0.00000000E+00
  0.00000000E+00  0.00000000E+00  0.00000000E+00
  0.00000000E+00  0.00000000E+00  0.00000000E+00
  0.00000000E+00  0.00000000E+00  0.00000000E+00
  0.00000000E+00  0.00000000E+00  0.00000000E+00
  0.00000000E+00  0.00000000E+00  0.00000000E+00
  0.00000000E+00  0.00000000E+00  0.00000000E+00
  0.00000000E+00  0.00000000E+00  0.00000000E+00
  0.00000000E+00  0.00000000E+00  0.00000000E+00
  0.00000000E+00  0.00000000E+00  0.00000000E+00
  0.00000000E+00  0.00000000E+00  0.00000000E+00
