Cr8 O8 F16                              
   1.00000000000000     
     7.6018740590333502   -0.0000422679129603    0.0000338492630206
    -0.0000425115702728    7.3246147023050368   -0.0000009442040430
     0.0000334075061515   -0.0000009553051957    7.3384374032224562
   Cr   O    F 
     8     8    16
Direct
  0.0000444557141079 -0.0000007800964859  0.0000009179177383
  0.0000425548669455 -0.0000002063169314  0.4999992436842237
  0.0000563067576411  0.5000006358490138 -0.0000036697136264
  0.0000487894719023  0.5000002972180591  0.5000010501390886
  0.5000413767860057  0.0000063086420579 -0.0000011211745750
  0.5000298773345403  0.0000026884580701  0.5000008665737042
  0.5000487002431533  0.4999926912017406  0.0000056329743150
  0.5000317368869753  0.4999971715038359  0.4999933789877569
  0.9999775388124339  0.0000003211043494  0.2500520059774747
  0.4999974787628055  0.2498505839236402 -0.0000001573281260
  0.9999764725085249  0.0000006978410793  0.7499474665715667
  0.9999802560086368  0.4999997705022829  0.2501058240675031
  0.9999787653611134  0.4999999664746018  0.7498969406287652
  0.4999987385102066  0.2499726788148141  0.5000002297422442
  0.4999972910188286  0.7501501786334376 -0.0000001221639566
  0.4999984907309213  0.7500272189547954  0.5000001775948050
  0.4999980474420250 -0.0000033528400932  0.7501116545992459
  0.2499517709759579  0.0000023863837664  0.4999993112082631
  0.2499369863607883  0.4999974857600869  0.4999877337618563
  0.7499450077158797  0.5000044985532653  0.0000128498429213
  0.7499955825072366  0.4999974337919009  0.4999876764826917
  0.0000067053424735  0.7499782658824863  0.9999968656002228
  0.4999981083291533 -0.0000033711317775  0.2498883616801843
  0.4999975994029672  0.5000034405123406  0.2498949775867200
  0.4999975642962630  0.5000033988097026  0.7501048612416001
  0.2500111304297052  0.9999956133401600  0.0000006685528257
  0.2499888015580878  0.5000045388410367  0.0000127851031912
  0.7499234355169332  0.9999954987446408  0.0000007270598508
  0.7499801554549310  0.0000023156930846  0.4999993271949837
  0.0000066141284073  0.2500216442285871  0.9999968752895096
  0.0000067650717541  0.2500111747243426  0.5000033353266415
  0.0000068956926948  0.7499888059981018  0.5000033249903971
 
  0.00000000E+00  0.00000000E+00  0.00000000E+00
  0.00000000E+00  0.00000000E+00  0.00000000E+00
  0.00000000E+00  0.00000000E+00  0.00000000E+00
  0.00000000E+00  0.00000000E+00  0.00000000E+00
  0.00000000E+00  0.00000000E+00  0.00000000E+00
  0.00000000E+00  0.00000000E+00  0.00000000E+00
  0.00000000E+00  0.00000000E+00  0.00000000E+00
  0.00000000E+00  0.00000000E+00  0.00000000E+00
  0.00000000E+00  0.00000000E+00  0.00000000E+00
  0.00000000E+00  0.00000000E+00  0.00000000E+00
  0.00000000E+00  0.00000000E+00  0.00000000E+00
  0.00000000E+00  0.00000000E+00  0.00000000E+00
  0.00000000E+00  0.00000000E+00  0.00000000E+00
  0.00000000E+00  0.00000000E+00  0.00000000E+00
  0.00000000E+00  0.00000000E+00  0.00000000E+00
  0.00000000E+00  0.00000000E+00  0.00000000E+00
  0.00000000E+00  0.00000000E+00  0.00000000E+00
  0.00000000E+00  0.00000000E+00  0.00000000E+00
  0.00000000E+00  0.00000000E+00  0.00000000E+00
  0.00000000E+00  0.00000000E+00  0.00000000E+00
  0.00000000E+00  0.00000000E+00  0.00000000E+00
  0.00000000E+00  0.00000000E+00  0.00000000E+00
  0.00000000E+00  0.00000000E+00  0.00000000E+00
  0.00000000E+00  0.00000000E+00  0.00000000E+00
  0.00000000E+00  0.00000000E+00  0.00000000E+00
  0.00000000E+00  0.00000000E+00  0.00000000E+00
  0.00000000E+00  0.00000000E+00  0.00000000E+00
  0.00000000E+00  0.00000000E+00  0.00000000E+00
  0.00000000E+00  0.00000000E+00  0.00000000E+00
  0.00000000E+00  0.00000000E+00  0.00000000E+00
  0.00000000E+00  0.00000000E+00  0.00000000E+00
  0.00000000E+00  0.00000000E+00  0.00000000E+00
