Na4 Mn4 O8 F4                           
   1.00000000000000     
     5.1612189046309842   -0.0041248246558613   -0.0167742092424584
    -0.0054574682486987    5.2355841584607381    0.0033033348331026
    -0.0192827020927360   -0.0055032375002752    7.4109879573155029
   Na   Mn   O    F 
     4     4     8     4
Direct
  0.9881283752895633  0.0399063745636383  0.2515763075286730
  0.0131475295072752  0.9481045690707431  0.7456539040887951
  0.4903026127959413  0.4677420681798027  0.7504435598742379
  0.5122572638201068  0.5450117260078117  0.2442385419080223
  0.4860409745851471  0.0145800133111831  0.0022178062132870
  0.0149445547161233  0.4871829264891950  0.0005830553061685
  0.5156409091306169  0.0143972620123707  0.5007455479711327
  0.9913030109195597  0.4824562050022908  0.5014990102016892
  0.0764792890659613  0.4919752031765800  0.2510570340565592
  0.9276433409440815  0.5148920177747331  0.7505342312620085
  0.7038005748089464  0.2822720577790497  0.0409612485546888
  0.2984635214931493  0.7131166025440119  0.9638259994484581
  0.2044694286933973  0.1987516859197987  0.9553430860763766
  0.6967448239334233  0.2953641770108717  0.4567212559818580
  0.7826888207596598  0.7957573689896020  0.4624182222167920
  0.2115676606040517  0.2037161096672022  0.5399156257332726
  0.5860184617293946  0.0161362828509794  0.7513009640074128
  0.4161427499117300  0.9825119953334102  0.2509578005432975
  0.7887398661320869  0.7926993606798561  0.0395535609266207
  0.2954762311597844  0.7134259936368699  0.5404532381006348
 
  0.00000000E+00  0.00000000E+00  0.00000000E+00
  0.00000000E+00  0.00000000E+00  0.00000000E+00
  0.00000000E+00  0.00000000E+00  0.00000000E+00
  0.00000000E+00  0.00000000E+00  0.00000000E+00
  0.00000000E+00  0.00000000E+00  0.00000000E+00
  0.00000000E+00  0.00000000E+00  0.00000000E+00
  0.00000000E+00  0.00000000E+00  0.00000000E+00
  0.00000000E+00  0.00000000E+00  0.00000000E+00
  0.00000000E+00  0.00000000E+00  0.00000000E+00
  0.00000000E+00  0.00000000E+00  0.00000000E+00
  0.00000000E+00  0.00000000E+00  0.00000000E+00
  0.00000000E+00  0.00000000E+00  0.00000000E+00
  0.00000000E+00  0.00000000E+00  0.00000000E+00
  0.00000000E+00  0.00000000E+00  0.00000000E+00
  0.00000000E+00  0.00000000E+00  0.00000000E+00
  0.00000000E+00  0.00000000E+00  0.00000000E+00
  0.00000000E+00  0.00000000E+00  0.00000000E+00
  0.00000000E+00  0.00000000E+00  0.00000000E+00
  0.00000000E+00  0.00000000E+00  0.00000000E+00
  0.00000000E+00  0.00000000E+00  0.00000000E+00
