Trisodium hexafluorochromate(III)       
   1.00000000000000     
     5.3816145888230844   -0.0000009805746929   -0.0062441577528708
    -0.0000010209772413    5.6671088977158819    0.0000001552188626
    -5.4562939464427940    0.0000011554070279    7.8001831355027278
   Cr   Na   F 
     2     6    12
Direct
  0.9999320731904149  0.9998500438398139  0.0000153095298501
  0.9999319257099231  0.5001499069825925  0.5000151865290121
  0.5000171147800287  0.0000970923909662  0.5000227933568340
  0.5000170492156499  0.4999028884835752  0.0000228147903414
  0.7641632402809435  0.9352283671137798  0.2439660655222369
  0.2359011020748767  0.0648197487853324  0.7560589309450023
  0.2359013776180703  0.4351801997454814  0.2560591463620696
  0.7641630150189940  0.5647717517739963  0.7439659106214762
  0.3495733246429680  0.0563193890114420  0.2282985817397076
  0.6504590301752984  0.9435968616857977  0.7716997423168621
  0.6504593435136456  0.5564030672169267  0.2716997683371716
  0.3495731529313559  0.4436806623091414  0.7282986432677490
  0.7644651084797616  0.1770303509014255  0.0543845778743446
  0.2355134889157640  0.8228116097216898  0.9455518001823933
  0.2355137022807767  0.6771882092505095  0.4455517680999819
  0.7644648955653253  0.3229698223382655  0.5543846691248788
  0.0949407944688616  0.2813457055392092  0.9276761189178657
  0.9050347749699768  0.7186385990470825  0.0723259928791720
  0.9050348880460248  0.7813615185492964  0.5723258846167809
  0.0949406861213404  0.2186541603136831  0.4276762759862720
 
  0.00000000E+00  0.00000000E+00  0.00000000E+00
  0.00000000E+00  0.00000000E+00  0.00000000E+00
  0.00000000E+00  0.00000000E+00  0.00000000E+00
  0.00000000E+00  0.00000000E+00  0.00000000E+00
  0.00000000E+00  0.00000000E+00  0.00000000E+00
  0.00000000E+00  0.00000000E+00  0.00000000E+00
  0.00000000E+00  0.00000000E+00  0.00000000E+00
  0.00000000E+00  0.00000000E+00  0.00000000E+00
  0.00000000E+00  0.00000000E+00  0.00000000E+00
  0.00000000E+00  0.00000000E+00  0.00000000E+00
  0.00000000E+00  0.00000000E+00  0.00000000E+00
  0.00000000E+00  0.00000000E+00  0.00000000E+00
  0.00000000E+00  0.00000000E+00  0.00000000E+00
  0.00000000E+00  0.00000000E+00  0.00000000E+00
  0.00000000E+00  0.00000000E+00  0.00000000E+00
  0.00000000E+00  0.00000000E+00  0.00000000E+00
  0.00000000E+00  0.00000000E+00  0.00000000E+00
  0.00000000E+00  0.00000000E+00  0.00000000E+00
  0.00000000E+00  0.00000000E+00  0.00000000E+00
  0.00000000E+00  0.00000000E+00  0.00000000E+00
