Mn4 O4 F8                               
   1.00000000000000     
     4.7851327849907417   -0.0007216503918312    0.1453601172429613
    -2.3928175909597855    4.0730907985360121   -0.0737959199658492
    -0.0683966092893651    0.0082335052133901    9.1563100004684870
   Mn   O    F 
     4     4     8
Direct
  0.3459397663451950  0.6578930587477768  0.6019586039016863
  0.6396592662589186  0.3060173118684709  0.3977011198935243
  0.6864461053389855  0.3420615155495779  0.1017711234065983
  0.3313063068322001  0.6935939629366149  0.8977295347312384
  0.6569546799719918  0.0118864859403064  0.9958013610482288
  0.0041807779819239  0.6730690618391136  0.0019064399652880
  0.6471818360229357  0.9880708427742420  0.4959509193401173
  0.3340404667417770  0.3269604897699899  0.5028679515707984
  0.3595641413857236  0.3682059554453633  0.0025575052728589
  0.9933565715704320  0.6313750353225333  0.5021876621225693
  0.6867805698589585  0.6286772492531417  0.2562033605611845
  0.0577552979025776  0.3713603710898444  0.7559844513247211
  0.3612514805107694  0.0446573930498522  0.2527600156852312
  0.6357220055411196  0.6925289692221547  0.7416526743314705
  0.9436045551962062  0.3079954038171555  0.2404818209184326
  0.3162561725402931  0.9556468933738694  0.7524854559260588
 
  0.00000000E+00  0.00000000E+00  0.00000000E+00
  0.00000000E+00  0.00000000E+00  0.00000000E+00
  0.00000000E+00  0.00000000E+00  0.00000000E+00
  0.00000000E+00  0.00000000E+00  0.00000000E+00
  0.00000000E+00  0.00000000E+00  0.00000000E+00
  0.00000000E+00  0.00000000E+00  0.00000000E+00
  0.00000000E+00  0.00000000E+00  0.00000000E+00
  0.00000000E+00  0.00000000E+00  0.00000000E+00
  0.00000000E+00  0.00000000E+00  0.00000000E+00
  0.00000000E+00  0.00000000E+00  0.00000000E+00
  0.00000000E+00  0.00000000E+00  0.00000000E+00
  0.00000000E+00  0.00000000E+00  0.00000000E+00
  0.00000000E+00  0.00000000E+00  0.00000000E+00
  0.00000000E+00  0.00000000E+00  0.00000000E+00
  0.00000000E+00  0.00000000E+00  0.00000000E+00
  0.00000000E+00  0.00000000E+00  0.00000000E+00
