Na4 Mn4 O8 F4                           
   1.00000000000000     
     5.2433923811904100   -0.0002306425268090   -0.0213943426807263
     0.0001954004484130    5.2684690247314894    0.0042126370669342
    -0.0300428520919404   -0.0061085630823699    7.2378799016363073
   Na   Mn   O    F 
     4     4     8     4
Direct
  0.9961538990665311  0.0393423545083195  0.2548290089707589
  0.0038876029012877  0.9606734488344834  0.7451776210685697
  0.4958386959788614  0.4611174028408780  0.7549706591974418
  0.5041828689720957  0.5389085078313535  0.2450328938846947
  0.4999930409248888 -0.0000231733875599  0.0000154877116518
 -0.0000206675854377  0.4999611093414615  0.0000158017776208
  0.5000020616804861  0.0000291621017887  0.5000245110343264
  0.0000012359573491  0.5000057669378239  0.5000113579566521
  0.0778577104376307  0.4843196133375557  0.2503092905933804
  0.9221581387298569  0.5156766869834789  0.7496858022766449
  0.5776555824099755  0.0158824486763974  0.7503150805754061
  0.4223514015160770  0.9841046113236834  0.2496816082659771
  0.7147331896841601  0.2843389399668495  0.0421459580524868
  0.2852605057700843  0.7156883887648617  0.9578243759429307
  0.7850883915240094  0.7840626911873867  0.4577314879834000
  0.2148992485420039  0.2158912885153395  0.5422302818449430
  0.2081719456192849  0.2096542630908244  0.9565731388194223
  0.7918035348626112  0.7904191081543369  0.0434337878277327
  0.2912559584762049  0.7101226412071137  0.5436636770659257
  0.7087256545320533  0.2898247397836305  0.4563281691500410
 
  0.00000000E+00  0.00000000E+00  0.00000000E+00
  0.00000000E+00  0.00000000E+00  0.00000000E+00
  0.00000000E+00  0.00000000E+00  0.00000000E+00
  0.00000000E+00  0.00000000E+00  0.00000000E+00
  0.00000000E+00  0.00000000E+00  0.00000000E+00
  0.00000000E+00  0.00000000E+00  0.00000000E+00
  0.00000000E+00  0.00000000E+00  0.00000000E+00
  0.00000000E+00  0.00000000E+00  0.00000000E+00
  0.00000000E+00  0.00000000E+00  0.00000000E+00
  0.00000000E+00  0.00000000E+00  0.00000000E+00
  0.00000000E+00  0.00000000E+00  0.00000000E+00
  0.00000000E+00  0.00000000E+00  0.00000000E+00
  0.00000000E+00  0.00000000E+00  0.00000000E+00
  0.00000000E+00  0.00000000E+00  0.00000000E+00
  0.00000000E+00  0.00000000E+00  0.00000000E+00
  0.00000000E+00  0.00000000E+00  0.00000000E+00
  0.00000000E+00  0.00000000E+00  0.00000000E+00
  0.00000000E+00  0.00000000E+00  0.00000000E+00
  0.00000000E+00  0.00000000E+00  0.00000000E+00
  0.00000000E+00  0.00000000E+00  0.00000000E+00
