Sodium chromium bis(chromate(VI))       
   1.00000000000000     
     8.4246042799074807   -0.0000000214654711    0.0696318186630292
    -0.0000000229562464    5.4666228454706260    0.0000000438487948
    -0.1283683811104744   -0.0000000033308334    6.7342098799808605
   Na   Cr   O 
     2     6    16
Direct
  0.0000758597773318  0.9999999886774457 -0.0000208754580795
  0.5000741716413856  0.5000000063110875 -0.0000185142318334
  0.9999710782558454  0.9999999933040790  0.4999967784066321
  0.4999710292716672  0.4999999984373826  0.4999977692118606
  0.6384416416267394  0.9999999963825094  0.2724029692176447
  0.3615548588415520  0.0000000045267468  0.7276065933542385
  0.1384421561921833  0.4999999895979192  0.2724009433537773
  0.8615611924027951  0.5000000051325507  0.7276136190532992
  0.2256802910875616  0.0000000179101972  0.5511845686029192
  0.7742736713468816  0.9999999813893572  0.4488784482816364
  0.7256766170725857  0.5000000180732430  0.5511873597866755
  0.2742742378814308  0.4999999828380027  0.4488795904239566
  0.7183233627936041  0.0000000229477424  0.0585024769363151
  0.2817086085293628  0.9999999690121686  0.9415132855786599
  0.2183228154346842  0.5000000229905426  0.0585030615531542
  0.7817073093178976  0.4999999768375532  0.9415184619932560
  0.0261507526620177  0.2467422492964643  0.2929912118915527
  0.9738339623624372  0.7532936329471324  0.7069712150287182
  0.9738339652919055  0.2467064130203717  0.7069711422420615
  0.0261507493238113  0.7532577228166755  0.2929912839291635
  0.5261494636772767  0.7467409550835234  0.2929934832066100
  0.4738363677946356  0.2532922113250439  0.7069707945918864
  0.4738363635209952  0.7467078396013015  0.7069707125497162
  0.5261494818934064  0.2532589735409502  0.2929935604961458
 
  0.00000000E+00  0.00000000E+00  0.00000000E+00
  0.00000000E+00  0.00000000E+00  0.00000000E+00
  0.00000000E+00  0.00000000E+00  0.00000000E+00
  0.00000000E+00  0.00000000E+00  0.00000000E+00
  0.00000000E+00  0.00000000E+00  0.00000000E+00
  0.00000000E+00  0.00000000E+00  0.00000000E+00
  0.00000000E+00  0.00000000E+00  0.00000000E+00
  0.00000000E+00  0.00000000E+00  0.00000000E+00
  0.00000000E+00  0.00000000E+00  0.00000000E+00
  0.00000000E+00  0.00000000E+00  0.00000000E+00
  0.00000000E+00  0.00000000E+00  0.00000000E+00
  0.00000000E+00  0.00000000E+00  0.00000000E+00
  0.00000000E+00  0.00000000E+00  0.00000000E+00
  0.00000000E+00  0.00000000E+00  0.00000000E+00
  0.00000000E+00  0.00000000E+00  0.00000000E+00
  0.00000000E+00  0.00000000E+00  0.00000000E+00
  0.00000000E+00  0.00000000E+00  0.00000000E+00
  0.00000000E+00  0.00000000E+00  0.00000000E+00
  0.00000000E+00  0.00000000E+00  0.00000000E+00
  0.00000000E+00  0.00000000E+00  0.00000000E+00
  0.00000000E+00  0.00000000E+00  0.00000000E+00
  0.00000000E+00  0.00000000E+00  0.00000000E+00
  0.00000000E+00  0.00000000E+00  0.00000000E+00
  0.00000000E+00  0.00000000E+00  0.00000000E+00
