Co4 O4 F8                               
   1.00000000000000     
     5.5496614573180398    0.0018597841561503   -0.0200353718308824
    -2.7733275304329066    4.7622088109720702    0.0109874189766751
    -0.0355007812567057    0.0058842233299920    9.4747094921727228
   Co   O    F 
     4     4     8
Direct
  0.3369751157187393  0.6626657362906117  0.6073306628964127
  0.6629909676721305  0.3372822690585996  0.3926547633385795
  0.6769364543664068  0.3390386619705297  0.1049721647648351
  0.3228424314763301  0.6609516967639463  0.8949337466485358
  0.9997248396106991  0.4997107040238303  0.9999164084411564
  0.5001775549644937  0.5002363063768249  0.4999921720658622
  0.8123882525799636  0.1827548649331917  0.2497391598092704
  0.1886691600687122  0.8181491461362178  0.7502739895030701
  0.4998662458371516  0.9996253328825148  0.0001961184875764
  0.4997059644569690  0.4997839895140013 -0.0000073353631833
  0.4997797170395079 -0.0001199169576193  0.4999666241460020
 -0.0000708094425108  0.4998266350372287  0.5000436667701840
  0.8209084804608325  0.6303902226199689  0.2492467695298783
  0.1792405681708233  0.3695041704784860  0.7506553604704219
  0.3770052078806349  0.1834671252420592  0.2508813770726515
  0.6228598491391235  0.8167330556296157  0.7492043514187461
 
  0.00000000E+00  0.00000000E+00  0.00000000E+00
  0.00000000E+00  0.00000000E+00  0.00000000E+00
  0.00000000E+00  0.00000000E+00  0.00000000E+00
  0.00000000E+00  0.00000000E+00  0.00000000E+00
  0.00000000E+00  0.00000000E+00  0.00000000E+00
  0.00000000E+00  0.00000000E+00  0.00000000E+00
  0.00000000E+00  0.00000000E+00  0.00000000E+00
  0.00000000E+00  0.00000000E+00  0.00000000E+00
  0.00000000E+00  0.00000000E+00  0.00000000E+00
  0.00000000E+00  0.00000000E+00  0.00000000E+00
  0.00000000E+00  0.00000000E+00  0.00000000E+00
  0.00000000E+00  0.00000000E+00  0.00000000E+00
  0.00000000E+00  0.00000000E+00  0.00000000E+00
  0.00000000E+00  0.00000000E+00  0.00000000E+00
  0.00000000E+00  0.00000000E+00  0.00000000E+00
  0.00000000E+00  0.00000000E+00  0.00000000E+00
