Na4 Co4 O8 F4                           
    1.000000000000000     
     5.2142777159555092    0.0682621897108128    0.0308508919818588
     0.0807798862208386    5.1656538034797990    0.0064040090770214
     0.0281378631172401   -0.0059753483892333    7.9595493004853139
   Na   Co   O    F 
     4     4     8     4
Direct
  0.9787005282470318  0.0271585379354207  0.2431694884952833
  0.0142934790932756  0.9756485083442783  0.7534011434947629
  0.4908344611827857  0.4666020235497115  0.7480497887360826
  0.5214116265549364  0.5315900136619121  0.2500347069052111
  0.4850215059296232  0.9787180370423911  0.9965635866954869
  0.0124253435994532  0.5061495664071174  0.0056390435445905
  0.5008254587271281  0.9994249061035774  0.4992719590669452
  0.0004394631877744  0.4970568373652142  0.4986077791094417
  0.2937394329240135  0.7204550405385959  0.9509465198273404
  0.2006379116969939  0.2327608080524968  0.9701722016029919
  0.8030651341791213  0.7667178622029382  0.0375047749068713
  0.2852754482896458  0.7498690009402793  0.5392977290068828
  0.7178396337552826  0.2486198057016367  0.4626527928382771
  0.7708685627560925  0.7623875499578574  0.4590262686704136
  0.2330260040869163  0.2362325032246630  0.5365582283331207
  0.0715779284919336  0.4967291299948471  0.2489564031150167
  0.7004475305499227  0.2738868439346831  0.0480605949757233
  0.9167064778379910  0.5161333478091095  0.7504701607948263
  0.5924374473838228  0.0328418778852893  0.7584736794656592
  0.4104266215262484  0.9810177993479812  0.2431431504150652
 
  0.00000000E+00  0.00000000E+00  0.00000000E+00
  0.00000000E+00  0.00000000E+00  0.00000000E+00
  0.00000000E+00  0.00000000E+00  0.00000000E+00
  0.00000000E+00  0.00000000E+00  0.00000000E+00
  0.00000000E+00  0.00000000E+00  0.00000000E+00
  0.00000000E+00  0.00000000E+00  0.00000000E+00
  0.00000000E+00  0.00000000E+00  0.00000000E+00
  0.00000000E+00  0.00000000E+00  0.00000000E+00
  0.00000000E+00  0.00000000E+00  0.00000000E+00
  0.00000000E+00  0.00000000E+00  0.00000000E+00
  0.00000000E+00  0.00000000E+00  0.00000000E+00
  0.00000000E+00  0.00000000E+00  0.00000000E+00
  0.00000000E+00  0.00000000E+00  0.00000000E+00
  0.00000000E+00  0.00000000E+00  0.00000000E+00
  0.00000000E+00  0.00000000E+00  0.00000000E+00
  0.00000000E+00  0.00000000E+00  0.00000000E+00
  0.00000000E+00  0.00000000E+00  0.00000000E+00
  0.00000000E+00  0.00000000E+00  0.00000000E+00
  0.00000000E+00  0.00000000E+00  0.00000000E+00
  0.00000000E+00  0.00000000E+00  0.00000000E+00
