Cr8 O8 F16                              
   1.00000000000000     
     7.4706340585877058    0.0006145848151714    0.0002716490833499
    -0.0011492737785562    7.3795650223670641    0.0000253024079607
    -0.0002722066189956    0.0000275951634426    7.4846115654682395
   Cr   O    F 
     8     8    16
Direct
  0.0000643514092046 -0.0002679409131332  0.0000036047714369
  0.0001296087704405  0.9905332903740867  0.4999993450977184
  0.0000250914483580  0.4990532280080652 -0.0000009751185830
 -0.0002539371804859  0.5191144405458752  0.4999986558473279
  0.4999914123456065  0.9951401855381509 -0.0000004709247466
  0.5000346264663470  0.0012453944583135  0.5000000815091189
  0.5000632539740943  0.5183833728509373  0.0000002155425353
  0.4999801945855413  0.5015875949789749  0.4999998487553237
 -0.0001085355340974  0.4967476138486429  0.2685204579756834
 -0.0000617932292687  0.4967750991015438  0.7314794785787210
  0.2682775360651334  0.9975852122375377  0.0000088552073779
  0.7316503262098185  0.9976848250007586 -0.0000130020768075
 -0.0003904014388529  0.7477695182775564  0.4999748656612226
  0.4996992773868783  0.2366030396475615  0.5000033628215824
  0.5000355726049475  0.7460619901927055  0.0000083977730897
  0.5003390216386215  0.7641090393751786  0.4999907367137535
  0.0000020757770618 -0.0011829241724964  0.2503600136006516
  0.4999240222618713  0.0055951448466419  0.7485347112848044
  0.2487856654380833  0.0007843881864994  0.4999767270422259
  0.2491486459320340  0.4942604907338315  0.4999386092031174
  0.7474349000518514  0.4952778997792336  0.9999615673920673
  0.7507320302460295  0.4930059823232431  0.5000696290507468
  0.9999045933333787  0.7490783161813673  0.0000148419047501
  0.4999664854390918  0.2587598083990357 -0.0000079976100254
  0.0000272020504308 -0.0012322175693586  0.7496421859323856
  0.4999951202063483  0.0056263030643156  0.2514659443540448
  0.5001936475162276  0.5014525535873413  0.2494145198872572
  0.5000968367395124  0.5014694338653136  0.7505824146445955
  0.2525499877547787  0.4953384358732434  0.0000294776785260
  0.7511960236743248  0.0017478011054586  0.5000460352723310
  0.0000626224369356  0.2493371351555709 -0.0000251711119118
  0.0005045356197532  0.2425555451180325  0.5000230333396646
 
  0.00000000E+00  0.00000000E+00  0.00000000E+00
  0.00000000E+00  0.00000000E+00  0.00000000E+00
  0.00000000E+00  0.00000000E+00  0.00000000E+00
  0.00000000E+00  0.00000000E+00  0.00000000E+00
  0.00000000E+00  0.00000000E+00  0.00000000E+00
  0.00000000E+00  0.00000000E+00  0.00000000E+00
  0.00000000E+00  0.00000000E+00  0.00000000E+00
  0.00000000E+00  0.00000000E+00  0.00000000E+00
  0.00000000E+00  0.00000000E+00  0.00000000E+00
  0.00000000E+00  0.00000000E+00  0.00000000E+00
  0.00000000E+00  0.00000000E+00  0.00000000E+00
  0.00000000E+00  0.00000000E+00  0.00000000E+00
  0.00000000E+00  0.00000000E+00  0.00000000E+00
  0.00000000E+00  0.00000000E+00  0.00000000E+00
  0.00000000E+00  0.00000000E+00  0.00000000E+00
  0.00000000E+00  0.00000000E+00  0.00000000E+00
  0.00000000E+00  0.00000000E+00  0.00000000E+00
  0.00000000E+00  0.00000000E+00  0.00000000E+00
  0.00000000E+00  0.00000000E+00  0.00000000E+00
  0.00000000E+00  0.00000000E+00  0.00000000E+00
  0.00000000E+00  0.00000000E+00  0.00000000E+00
  0.00000000E+00  0.00000000E+00  0.00000000E+00
  0.00000000E+00  0.00000000E+00  0.00000000E+00
  0.00000000E+00  0.00000000E+00  0.00000000E+00
  0.00000000E+00  0.00000000E+00  0.00000000E+00
  0.00000000E+00  0.00000000E+00  0.00000000E+00
  0.00000000E+00  0.00000000E+00  0.00000000E+00
  0.00000000E+00  0.00000000E+00  0.00000000E+00
  0.00000000E+00  0.00000000E+00  0.00000000E+00
  0.00000000E+00  0.00000000E+00  0.00000000E+00
  0.00000000E+00  0.00000000E+00  0.00000000E+00
  0.00000000E+00  0.00000000E+00  0.00000000E+00
