Pentasodium ferrate(III)                
   1.00000000000000     
    10.2527600349478192   -0.0000000327071536    0.0000000138020403
    -0.0000000162472000    5.9125803828624228    0.0000000365683076
     0.0000000373540297    0.0000001003901612   17.9022119440636196
   Na   Fe   O 
    40     8    32
Direct
  0.1729607332531629  0.1034618953809385  0.8284167642642757
  0.8270385320601363  0.8965373704387360  0.1715829076024349
  0.3270386006884394  0.8965374161860069  0.3284170337027632
  0.6729606681472262  0.1034618305800237  0.6715832906881616
  0.8270385453006455  0.6034626284740199  0.6715829259392834
  0.1729606967557658  0.3965381284349832  0.3284167384415113
  0.6729606814208680  0.3965381445623137  0.1715832782705391
  0.3270385699231326  0.6034626185640732  0.8284170557372690
  0.0642487480067757  0.0828016725580554  0.4347284221534906
  0.9357519166985497  0.9171993318476481  0.5652720737739472
  0.4357519758690245  0.9171993754180505  0.9347279453835853
  0.5642486752997513  0.0828016420360314  0.0652715421407137
  0.9357517988055051  0.5828006802367796  0.0652721915681198
  0.0642486277794632  0.4171983721729120  0.9347284958411279
  0.5642485525052408  0.4171983445061329  0.5652714116583510
  0.4357518525016602  0.5828006907812338  0.4347278757273827
  0.4173556210049014  0.1063767271574036  0.7510949652197354
  0.5826444235906649  0.8936245336448962  0.2489056408293919
  0.0826444091477043  0.8936245970215850  0.2510942978072208
  0.9173556384545023  0.1063766734249540  0.7489050996366231
  0.5826444619862130  0.6063754061552800  0.7489056209234377
  0.4173555712546957  0.3936233057526835  0.2510949830369285
  0.9173556742304569  0.3936232684685024  0.2489051210017621
  0.0826443626637428  0.6063754423032890  0.7510942778877450
  0.3382865211751422  0.0922195033589617  0.5016811874324034
  0.6617127154573197  0.9077786792413391  0.4983187857333036
  0.1617126823493180  0.9077786820820819  0.0016812003743141
  0.8382865605566252  0.0922194834771659  0.9983188473459919
  0.6617127845099233  0.5922211997212798  0.9983188975290958
  0.3382864379114423  0.4077806079589834  0.0016810675304129
  0.8382866341056285  0.4077803835201692  0.4983187217967568
  0.1617126096956270  0.5922214128236334  0.5016813109582259
  0.2997530179713124  0.0744815779389327  0.1385664974215786
  0.7002461008673535  0.9255186882944670  0.8614335952207171
  0.2002461456204543  0.9255186662019028  0.6385664557784665
  0.7997529664280520  0.0744815932179819  0.3614334543534028
  0.7002461149511632  0.5744813267416333  0.3614335555507040
  0.2997529813835769  0.4255184259848548  0.6385665519917652
  0.7997529803500782  0.4255184191965427  0.8614334935021333
  0.2002461075913473  0.5744813424579220  0.1385664017652175
  0.0399239364631399  0.1735096332261108  0.1241148580386735
  0.9600746531232573  0.8264913140772450  0.8758833815432325
  0.4600746524152299  0.8264913799339553  0.6241165998168796
  0.5399239400270019  0.1735095636617245  0.3758851720368099
  0.9600746597173710  0.6735089694524632  0.3758832671257295
  0.0399239234629150  0.3264901021906255  0.6241149546459255
  0.5399239440792201  0.3264907501434067  0.8758852814111435
  0.4600746374167741  0.6735083353051010  0.1241164964788126
  0.3623372804662566  0.2626657550550959  0.3747206129737890
  0.6376607439388664  0.7373313021954502  0.6252797924614057
  0.1376607471946443  0.7373312724585332  0.8747201941892442
  0.8623372793005757  0.2626657795962757  0.1252794034725397
  0.6376607625592570  0.7626686395272984  0.1252797655270399
  0.3623372880993116  0.2373342436736010  0.8747206548229087
  0.8623373010242759  0.2373341619942693  0.6252794276152684
  0.1376607508168561  0.7626687325095034  0.3747201535679139
  0.1274196867637372  0.2657602448354126  0.2124654191544266
  0.8725784190438972  0.7342410728096098  0.7875321577290961
  0.3725784294878451  0.7342410693413299  0.7124678239543343
  0.6274196793557962  0.2657602444215357  0.2875346052133523
  0.8725783408437096  0.7657589941919341  0.2875320713479326
  0.1274197557761596  0.2342396745319419  0.7124654865443105
  0.6274196010262685  0.2342398156287970  0.7875346930526206
  0.3725785012314802  0.7657588467257099  0.2124677526952468
  0.1338703863607407  0.1977515718660072  0.5450303840275978
  0.8661292976385297  0.8022416836332482  0.4549717411201968
  0.3661292214190297  0.8022416636398830  0.0450281568825588
  0.6338704666992214  0.1977516019529233  0.9549697135642319
  0.8661292615121923  0.6977582954291606  0.9549718075898710
  0.1338704316152928  0.3022483901789030  0.0450303486672112
  0.6338704310807231  0.3022483710886945  0.4549696443561331
  0.3661292641597100  0.6977582995005136  0.5450281972762738
  0.4511720258031104  0.1428787179471769  0.6209994831605599
  0.5488353624092426  0.8571256927016293  0.3790010421853438
  0.0488353222231197  0.8571257415520961  0.1209989613943634
  0.9511720597774058  0.1428786646645719  0.8790005206345768
  0.5488353355255597  0.6428744235609045  0.8790010709170488
  0.4511720750397643  0.3571211803817675  0.1209994681861417
  0.9511720314501488  0.3571214408643897  0.3790004942294090
  0.0488353673797377  0.6428741672268572  0.6209989728695717
 
  0.00000000E+00  0.00000000E+00  0.00000000E+00
  0.00000000E+00  0.00000000E+00  0.00000000E+00
  0.00000000E+00  0.00000000E+00  0.00000000E+00
  0.00000000E+00  0.00000000E+00  0.00000000E+00
  0.00000000E+00  0.00000000E+00  0.00000000E+00
  0.00000000E+00  0.00000000E+00  0.00000000E+00
  0.00000000E+00  0.00000000E+00  0.00000000E+00
  0.00000000E+00  0.00000000E+00  0.00000000E+00
  0.00000000E+00  0.00000000E+00  0.00000000E+00
  0.00000000E+00  0.00000000E+00  0.00000000E+00
  0.00000000E+00  0.00000000E+00  0.00000000E+00
  0.00000000E+00  0.00000000E+00  0.00000000E+00
  0.00000000E+00  0.00000000E+00  0.00000000E+00
  0.00000000E+00  0.00000000E+00  0.00000000E+00
  0.00000000E+00  0.00000000E+00  0.00000000E+00
  0.00000000E+00  0.00000000E+00  0.00000000E+00
  0.00000000E+00  0.00000000E+00  0.00000000E+00
  0.00000000E+00  0.00000000E+00  0.00000000E+00
  0.00000000E+00  0.00000000E+00  0.00000000E+00
  0.00000000E+00  0.00000000E+00  0.00000000E+00
  0.00000000E+00  0.00000000E+00  0.00000000E+00
  0.00000000E+00  0.00000000E+00  0.00000000E+00
  0.00000000E+00  0.00000000E+00  0.00000000E+00
  0.00000000E+00  0.00000000E+00  0.00000000E+00
  0.00000000E+00  0.00000000E+00  0.00000000E+00
  0.00000000E+00  0.00000000E+00  0.00000000E+00
  0.00000000E+00  0.00000000E+00  0.00000000E+00
  0.00000000E+00  0.00000000E+00  0.00000000E+00
  0.00000000E+00  0.00000000E+00  0.00000000E+00
  0.00000000E+00  0.00000000E+00  0.00000000E+00
  0.00000000E+00  0.00000000E+00  0.00000000E+00
  0.00000000E+00  0.00000000E+00  0.00000000E+00
  0.00000000E+00  0.00000000E+00  0.00000000E+00
  0.00000000E+00  0.00000000E+00  0.00000000E+00
  0.00000000E+00  0.00000000E+00  0.00000000E+00
  0.00000000E+00  0.00000000E+00  0.00000000E+00
  0.00000000E+00  0.00000000E+00  0.00000000E+00
  0.00000000E+00  0.00000000E+00  0.00000000E+00
  0.00000000E+00  0.00000000E+00  0.00000000E+00
  0.00000000E+00  0.00000000E+00  0.00000000E+00
  0.00000000E+00  0.00000000E+00  0.00000000E+00
  0.00000000E+00  0.00000000E+00  0.00000000E+00
  0.00000000E+00  0.00000000E+00  0.00000000E+00
  0.00000000E+00  0.00000000E+00  0.00000000E+00
  0.00000000E+00  0.00000000E+00  0.00000000E+00
  0.00000000E+00  0.00000000E+00  0.00000000E+00
  0.00000000E+00  0.00000000E+00  0.00000000E+00
  0.00000000E+00  0.00000000E+00  0.00000000E+00
  0.00000000E+00  0.00000000E+00  0.00000000E+00
  0.00000000E+00  0.00000000E+00  0.00000000E+00
  0.00000000E+00  0.00000000E+00  0.00000000E+00
  0.00000000E+00  0.00000000E+00  0.00000000E+00
  0.00000000E+00  0.00000000E+00  0.00000000E+00
  0.00000000E+00  0.00000000E+00  0.00000000E+00
  0.00000000E+00  0.00000000E+00  0.00000000E+00
  0.00000000E+00  0.00000000E+00  0.00000000E+00
  0.00000000E+00  0.00000000E+00  0.00000000E+00
  0.00000000E+00  0.00000000E+00  0.00000000E+00
  0.00000000E+00  0.00000000E+00  0.00000000E+00
  0.00000000E+00  0.00000000E+00  0.00000000E+00
  0.00000000E+00  0.00000000E+00  0.00000000E+00
  0.00000000E+00  0.00000000E+00  0.00000000E+00
  0.00000000E+00  0.00000000E+00  0.00000000E+00
  0.00000000E+00  0.00000000E+00  0.00000000E+00
  0.00000000E+00  0.00000000E+00  0.00000000E+00
  0.00000000E+00  0.00000000E+00  0.00000000E+00
  0.00000000E+00  0.00000000E+00  0.00000000E+00
  0.00000000E+00  0.00000000E+00  0.00000000E+00
  0.00000000E+00  0.00000000E+00  0.00000000E+00
  0.00000000E+00  0.00000000E+00  0.00000000E+00
  0.00000000E+00  0.00000000E+00  0.00000000E+00
  0.00000000E+00  0.00000000E+00  0.00000000E+00
  0.00000000E+00  0.00000000E+00  0.00000000E+00
  0.00000000E+00  0.00000000E+00  0.00000000E+00
  0.00000000E+00  0.00000000E+00  0.00000000E+00
  0.00000000E+00  0.00000000E+00  0.00000000E+00
  0.00000000E+00  0.00000000E+00  0.00000000E+00
  0.00000000E+00  0.00000000E+00  0.00000000E+00
  0.00000000E+00  0.00000000E+00  0.00000000E+00
  0.00000000E+00  0.00000000E+00  0.00000000E+00
