V8 O8 F16                               
   1.00000000000000     
     7.1698067428103478    0.0000012002228070   -0.0000000756836619
     0.0000010772569304    7.7462906633878594   -0.0000002704410024
    -0.0000001433851938   -0.0000000706653212    7.7474668158216948
   V    O    F 
     8     8    16
Direct
  0.9999285654455410  0.0000000230996571  0.0000000190433893
  0.9999286161962493  0.9999999686394854  0.4999999683897670
  0.9999285835909589  0.5000000018590025  0.0000000128597987
  0.9999285152692231  0.5000000180116734  0.5000000099458952
  0.4999287746384740  0.0000000320521684  0.0000000260385273
  0.4999287713318962  0.0000000051427493  0.4999999991957498
  0.4999286528417580  0.5000000101445188  0.0000000119334312
  0.4999286273743651  0.5000000094371900  0.4999999811954833
  0.2500588729124916 -0.0000001373358409  0.5000000304971787
  0.2500585790796857  0.5000001449191724  0.5000000324425027
  0.7500601868330058  0.5000001292676294  0.9999998076653184
  0.7500599829853135  0.4999998411038241  0.4999999645714214
  0.2500586441040793  0.0000003215688468  0.9999998902095227
  0.2500583410546680  0.4999998703836797  0.0000001700812769
  0.7500599287513846 -0.0000003245305725  0.0000000666256229
  0.7500597164491488  0.0000001497223385  0.4999999789425906
  0.0000050240384601 -0.0000000548819280  0.2500000297490375
  0.5000050506987418  0.0000000264742356  0.7499998967253855
  0.0000068830351126  0.7499995141193074 -0.0000000678074846
  0.5000069701159336  0.2500002859322115  0.9999999308147473
  0.0000050829928698  0.0000000629169488  0.7499999916361072
  0.0000050623699793  0.5000001148306208  0.2500000474568884
  0.0000050546458341  0.4999998828872783  0.7499999708497731
  0.5000050852925967  0.9999999904032990  0.2500001449816950
  0.5000050041037533  0.4999999566125943  0.2500001759378956
  0.5000051080419734  0.5000000447386057  0.7499998075634854
  0.0000071394667738  0.2500004908927972  0.0000000432155496
  0.0000069336674039  0.2500004943075425  0.4999999476815597
  0.0000071135905721  0.7499994816217065  0.5000000576128520
  0.5000070656621936  0.2500004195060093  0.5000000518090961
  0.5000070807109205  0.7499996701249925  0.0000000403951631
  0.5000069827086525  0.7499995560282772  0.4999999617407731
 
  0.00000000E+00  0.00000000E+00  0.00000000E+00
  0.00000000E+00  0.00000000E+00  0.00000000E+00
  0.00000000E+00  0.00000000E+00  0.00000000E+00
  0.00000000E+00  0.00000000E+00  0.00000000E+00
  0.00000000E+00  0.00000000E+00  0.00000000E+00
  0.00000000E+00  0.00000000E+00  0.00000000E+00
  0.00000000E+00  0.00000000E+00  0.00000000E+00
  0.00000000E+00  0.00000000E+00  0.00000000E+00
  0.00000000E+00  0.00000000E+00  0.00000000E+00
  0.00000000E+00  0.00000000E+00  0.00000000E+00
  0.00000000E+00  0.00000000E+00  0.00000000E+00
  0.00000000E+00  0.00000000E+00  0.00000000E+00
  0.00000000E+00  0.00000000E+00  0.00000000E+00
  0.00000000E+00  0.00000000E+00  0.00000000E+00
  0.00000000E+00  0.00000000E+00  0.00000000E+00
  0.00000000E+00  0.00000000E+00  0.00000000E+00
  0.00000000E+00  0.00000000E+00  0.00000000E+00
  0.00000000E+00  0.00000000E+00  0.00000000E+00
  0.00000000E+00  0.00000000E+00  0.00000000E+00
  0.00000000E+00  0.00000000E+00  0.00000000E+00
  0.00000000E+00  0.00000000E+00  0.00000000E+00
  0.00000000E+00  0.00000000E+00  0.00000000E+00
  0.00000000E+00  0.00000000E+00  0.00000000E+00
  0.00000000E+00  0.00000000E+00  0.00000000E+00
  0.00000000E+00  0.00000000E+00  0.00000000E+00
  0.00000000E+00  0.00000000E+00  0.00000000E+00
  0.00000000E+00  0.00000000E+00  0.00000000E+00
  0.00000000E+00  0.00000000E+00  0.00000000E+00
  0.00000000E+00  0.00000000E+00  0.00000000E+00
  0.00000000E+00  0.00000000E+00  0.00000000E+00
  0.00000000E+00  0.00000000E+00  0.00000000E+00
  0.00000000E+00  0.00000000E+00  0.00000000E+00
