Ni4 O4 F8                               
   1.00000000000000     
     4.7920256876594989    0.0742171058645040    0.0272416678077080
    -0.0221599118419269    5.0516827495103183    0.0018141187934928
    -0.1244999327054908   -0.0244515647219987    7.0258288353033684
   Ni   O    F 
     4     4     8
Direct
  0.5079648573440845  0.9950517816850207  0.9926392384326883
  0.9959577090622809  0.5052383682509178  0.0034065766445085
  0.5021387128538283  0.9946332292912297  0.5027663715298079
  0.9916539568764521  0.5049639932312372  0.4965846584709379
  0.8465682397705900  0.8190423867799604  0.0682798661459173
  0.8150151694254927  0.8262561913007808  0.4287957092333199
  0.1376425436913380  0.4682586612776503  0.2408301368540082
  0.6443990802100632  0.0358145520430253  0.7394376694272299
  0.6874557251500657  0.3351430714612124  0.0694719315425522
  0.3059586693868850  0.6707416135208110  0.9316757523437452
  0.1589372027294307  0.1873826490440841  0.9412021075283442
  0.3429875336183878  0.6898580411125449  0.5656519330032386
  0.6541976141614609  0.3031019547229363  0.4380867292689317
  0.1793349684269963  0.1696732521324349  0.5633872067469594
  0.8586064454600412  0.5423689939875687  0.7608909735800690
  0.3711815718326177  0.9524712601585793  0.2568931392477499
 
  0.00000000E+00  0.00000000E+00  0.00000000E+00
  0.00000000E+00  0.00000000E+00  0.00000000E+00
  0.00000000E+00  0.00000000E+00  0.00000000E+00
  0.00000000E+00  0.00000000E+00  0.00000000E+00
  0.00000000E+00  0.00000000E+00  0.00000000E+00
  0.00000000E+00  0.00000000E+00  0.00000000E+00
  0.00000000E+00  0.00000000E+00  0.00000000E+00
  0.00000000E+00  0.00000000E+00  0.00000000E+00
  0.00000000E+00  0.00000000E+00  0.00000000E+00
  0.00000000E+00  0.00000000E+00  0.00000000E+00
  0.00000000E+00  0.00000000E+00  0.00000000E+00
  0.00000000E+00  0.00000000E+00  0.00000000E+00
  0.00000000E+00  0.00000000E+00  0.00000000E+00
  0.00000000E+00  0.00000000E+00  0.00000000E+00
  0.00000000E+00  0.00000000E+00  0.00000000E+00
  0.00000000E+00  0.00000000E+00  0.00000000E+00
