Ni4 O4 F8                               
   1.00000000000000     
     4.8066572930597973    0.0121159756772429    0.0186305763987335
     0.0340967185362614    5.0408464126769035    0.0013058290628221
    -0.1176825637169322   -0.0226536482605944    7.0322542720953560
   Ni   O    F 
     4     4     8
Direct
  0.4909002047466078  0.0088758450232941  0.0076136735272283
  0.0025998866774789  0.4995654648252362  0.9966915080741017
  0.4994678576740891  0.0006309351316282  0.4979295328207095
  0.0081141869175835  0.4890402245023499  0.5028050097818031
  0.8624730953062686  0.5298321663442983  0.7586056714127570
  0.3550825336602474  0.9679287215195239  0.2612277906713191
  0.1542398393493639  0.1863025536637880  0.9318618019081074
  0.1864693889167116  0.1686160867244450  0.5706391097550337
  0.1408134705288074  0.4623995965468057  0.2388418908249306
  0.6290241156070276  0.0448261086909107  0.7435480638951546
  0.6949080355316891  0.3324940814320121  0.0687814843084909
  0.3107579139526666  0.6695176117395846  0.9306087005211255
  0.8395575022299753  0.8171892214608292  0.0582682285069056
  0.3461506687569476  0.6914129970684966  0.5609527145630462
  0.6584069257109669  0.3056746532429728  0.4341280840525137
  0.8210343744335754  0.8256937320838316  0.4374967353767586
 
  0.00000000E+00  0.00000000E+00  0.00000000E+00
  0.00000000E+00  0.00000000E+00  0.00000000E+00
  0.00000000E+00  0.00000000E+00  0.00000000E+00
  0.00000000E+00  0.00000000E+00  0.00000000E+00
  0.00000000E+00  0.00000000E+00  0.00000000E+00
  0.00000000E+00  0.00000000E+00  0.00000000E+00
  0.00000000E+00  0.00000000E+00  0.00000000E+00
  0.00000000E+00  0.00000000E+00  0.00000000E+00
  0.00000000E+00  0.00000000E+00  0.00000000E+00
  0.00000000E+00  0.00000000E+00  0.00000000E+00
  0.00000000E+00  0.00000000E+00  0.00000000E+00
  0.00000000E+00  0.00000000E+00  0.00000000E+00
  0.00000000E+00  0.00000000E+00  0.00000000E+00
  0.00000000E+00  0.00000000E+00  0.00000000E+00
  0.00000000E+00  0.00000000E+00  0.00000000E+00
  0.00000000E+00  0.00000000E+00  0.00000000E+00
