Ti4 O4 F8                               
   1.00000000000000     
     5.6203694717221655    0.0650751609585189    0.0944719143464428
    -2.7545121504694072    4.8224244024125476    0.0616109553059819
     0.1558416336307286    0.2189035651125777    9.4722467455969621
   Ti   O    F 
     4     4     8
Direct
  0.2942756882604177  0.6281730402517918  0.6068693122636212
  0.7061705538679111  0.3399067830897225  0.3922777788183283
  0.6500961541113837  0.2832629003116065  0.1073893362634454
  0.3503778670723166  0.6802815089600172  0.8920346715291574
  0.4969293641707095  0.9936736531000071  0.9969218349456936
  0.9977763002315668  0.4962545937482127  0.5002038639920339
  0.1996027714314694  0.3960572717249017  0.7582582487325614
  0.8035410571107762  0.1819562522207042  0.2491449127146488
  0.9985556564597402  0.5086334223198089  0.9991929338281890
  0.5033748403585512  0.5015354437190130  0.0032822487604718
  0.4937553787773175  0.0018133257361742  0.5050729998824834
  0.5021644342015301  0.5029346820762710  0.4952451605909967
  0.7968884844929214  0.6234130189418486  0.2458113727095408
  0.3696590732429864  0.1940063666208399  0.2539143065424114
  0.6334158847587731  0.8294604231297547  0.7444936845886263
  0.2034164914516435  0.8386373140493332  0.7498873338377907
 
  0.00000000E+00  0.00000000E+00  0.00000000E+00
  0.00000000E+00  0.00000000E+00  0.00000000E+00
  0.00000000E+00  0.00000000E+00  0.00000000E+00
  0.00000000E+00  0.00000000E+00  0.00000000E+00
  0.00000000E+00  0.00000000E+00  0.00000000E+00
  0.00000000E+00  0.00000000E+00  0.00000000E+00
  0.00000000E+00  0.00000000E+00  0.00000000E+00
  0.00000000E+00  0.00000000E+00  0.00000000E+00
  0.00000000E+00  0.00000000E+00  0.00000000E+00
  0.00000000E+00  0.00000000E+00  0.00000000E+00
  0.00000000E+00  0.00000000E+00  0.00000000E+00
  0.00000000E+00  0.00000000E+00  0.00000000E+00
  0.00000000E+00  0.00000000E+00  0.00000000E+00
  0.00000000E+00  0.00000000E+00  0.00000000E+00
  0.00000000E+00  0.00000000E+00  0.00000000E+00
  0.00000000E+00  0.00000000E+00  0.00000000E+00
