Ti8 O8 F16                              
   1.00000000000000     
     7.7827111053847498   -0.0035336379856527    0.0034528442000697
    -0.0035026923402995    7.7575831514599169    0.0036202557174925
     0.0015931501777247    0.0031123356597025    7.6036768679144915
   Ti   O    F 
     8     8    16
Direct
  0.0022097350059648  0.0031435612873136  0.0178355392859931
  0.9980578315166241  0.9712774085901980  0.4974699558685367
  0.9754185211044171  0.5034699123293649  0.9979951813841079
  0.0039762321518576  0.4731614802234893  0.4982669524580978
  0.5014560414850906  0.0030732256712773  0.0178277422696749
  0.4982419275320619  0.0025191144183310  0.5199577348345792
  0.4983755989850195  0.5029421356950048  0.0176984039601681
  0.5031708553816976  0.5026087009926175  0.5168902967253923
 -0.0000952407895272 -0.0013129036521280  0.2438144272155156
  0.5004873253947012  0.0018491885590106  0.2460897104355350
  0.5002926119900836  0.0022159205697946  0.7486047370416072
  0.4975974026123954  0.5021179128478384  0.2479193304983955
  0.5021084318071234  0.5021424413394598  0.7458324477547991
  0.7540797641166022  0.5017766763275129  0.0007511733238260
  0.0004369202844235  0.2513150505416268  0.4996869683815034
  0.9988319853194251  0.7474237947940464  0.5012385150307004
  0.9994188157864132  0.0026312420155973  0.7544608459060967
  0.0117591071395531  0.5033313512599930  0.2450862896852009
  0.0065613366178779  0.5019186580895389  0.7505643963945478
  0.2482161284498699  0.0021307803872294  0.9920289197916907
  0.2492365234058858 -0.0000494004342334  0.5005435985253540
  0.2431650267015834  0.5018692036051753  0.9952549670975400
  0.2521725014628182  0.5001503507348291  0.4979542571056224
  0.7543420871610811  0.0026656579753018  0.9924007959773876
  0.7480905199359681  0.0005796203396617  0.4999479935553593
  0.7538270363280808  0.4994526592585724  0.4930843811571139
  0.0031002481695320  0.2530507330440443  0.9943830307770671
  0.0026008533097354  0.7526800835511077  0.9918060870763330
  0.4959217877143078  0.2513258173065623  0.9935108725904613
  0.5002769059922414  0.2515677101110126  0.4938394613630374
  0.4961602940219980  0.7541354282189097  0.9933161574453692
  0.5005048839051010  0.7528364840019537  0.4939388290833793
 
  0.00000000E+00  0.00000000E+00  0.00000000E+00
  0.00000000E+00  0.00000000E+00  0.00000000E+00
  0.00000000E+00  0.00000000E+00  0.00000000E+00
  0.00000000E+00  0.00000000E+00  0.00000000E+00
  0.00000000E+00  0.00000000E+00  0.00000000E+00
  0.00000000E+00  0.00000000E+00  0.00000000E+00
  0.00000000E+00  0.00000000E+00  0.00000000E+00
  0.00000000E+00  0.00000000E+00  0.00000000E+00
  0.00000000E+00  0.00000000E+00  0.00000000E+00
  0.00000000E+00  0.00000000E+00  0.00000000E+00
  0.00000000E+00  0.00000000E+00  0.00000000E+00
  0.00000000E+00  0.00000000E+00  0.00000000E+00
  0.00000000E+00  0.00000000E+00  0.00000000E+00
  0.00000000E+00  0.00000000E+00  0.00000000E+00
  0.00000000E+00  0.00000000E+00  0.00000000E+00
  0.00000000E+00  0.00000000E+00  0.00000000E+00
  0.00000000E+00  0.00000000E+00  0.00000000E+00
  0.00000000E+00  0.00000000E+00  0.00000000E+00
  0.00000000E+00  0.00000000E+00  0.00000000E+00
  0.00000000E+00  0.00000000E+00  0.00000000E+00
  0.00000000E+00  0.00000000E+00  0.00000000E+00
  0.00000000E+00  0.00000000E+00  0.00000000E+00
  0.00000000E+00  0.00000000E+00  0.00000000E+00
  0.00000000E+00  0.00000000E+00  0.00000000E+00
  0.00000000E+00  0.00000000E+00  0.00000000E+00
  0.00000000E+00  0.00000000E+00  0.00000000E+00
  0.00000000E+00  0.00000000E+00  0.00000000E+00
  0.00000000E+00  0.00000000E+00  0.00000000E+00
  0.00000000E+00  0.00000000E+00  0.00000000E+00
  0.00000000E+00  0.00000000E+00  0.00000000E+00
  0.00000000E+00  0.00000000E+00  0.00000000E+00
  0.00000000E+00  0.00000000E+00  0.00000000E+00
