Ti4 O4 F8                               
   1.00000000000000     
     5.6053291949377311   -0.0291369965641692   -0.0000019218510846
    -2.8278984795596349    4.8979533766946703    0.0000009355418081
    -0.0000032370556525   -0.0000000501963706    9.4166188799526402
   Ti   O    F 
     4     4     8
Direct
  0.3570339023400353  0.6785162224912236  0.5960450693414580
  0.6429641135159763  0.3214847566200530  0.4039567981127657
  0.6429642045843826  0.3214847913115937  0.0960430511139101
  0.3570339082502586  0.6785162561663051  0.9039547959373595
  0.4999708345840694  0.9999944881911560  0.0000024916625856
  0.5000329220454304  0.5000256631115372 -0.0000012874491899
  0.4999708642851810  0.9999944536498437  0.4999973594592405
  0.5000329555827725  0.5000257210080874  0.5000011360907201
  0.9999991973643073  0.5000091154160190  0.0000000460640785
  0.9999991375000161  0.5000090821240537  0.4999998228580952
  0.8024240010993108  0.6113798987173185  0.2500009909817455
  0.1975789064053636  0.3886038264760322  0.7499999604274331
  0.3611284569823265  0.1805429562011377  0.2499999157254631
  0.6388717989224718  0.8194269849543396  0.7499999921625579
  0.8024175990403933  0.1910410577982678  0.2499999654205685
  0.1975771974976904  0.8089447257630317  0.7499998920912087
 
  0.00000000E+00  0.00000000E+00  0.00000000E+00
  0.00000000E+00  0.00000000E+00  0.00000000E+00
  0.00000000E+00  0.00000000E+00  0.00000000E+00
  0.00000000E+00  0.00000000E+00  0.00000000E+00
  0.00000000E+00  0.00000000E+00  0.00000000E+00
  0.00000000E+00  0.00000000E+00  0.00000000E+00
  0.00000000E+00  0.00000000E+00  0.00000000E+00
  0.00000000E+00  0.00000000E+00  0.00000000E+00
  0.00000000E+00  0.00000000E+00  0.00000000E+00
  0.00000000E+00  0.00000000E+00  0.00000000E+00
  0.00000000E+00  0.00000000E+00  0.00000000E+00
  0.00000000E+00  0.00000000E+00  0.00000000E+00
  0.00000000E+00  0.00000000E+00  0.00000000E+00
  0.00000000E+00  0.00000000E+00  0.00000000E+00
  0.00000000E+00  0.00000000E+00  0.00000000E+00
  0.00000000E+00  0.00000000E+00  0.00000000E+00
