Na4 V4 O8 F4                            
   1.00000000000000     
     5.4112585234992920    0.0030605313859016   -0.0149811124389306
     0.0224917074380485    5.4736172377819594    0.0051089537324297
    -0.0201803457698419    0.0123029777818324    7.2893146949125924
   Na   V    O    F 
     4     4     8     4
Direct
  0.0142422263763296  0.0224635679879893  0.2468609183780439
  0.0009209935840970  0.9602487303992052  0.7501310620166062
  0.5066560172680105  0.5128773996947903  0.7551012607119257
  0.4929626173033328  0.5498654900003158  0.2519950438695582
  0.5324817627602016  0.0163916232203023  0.0052510463004384
  0.9708652136249133  0.5117743330062843  0.0028668211761957
  0.4910584169623641  0.0496208603894470  0.5016288158526399
  0.0033979750545631  0.4802806381383196  0.4984794511272591
  0.0542713238544570  0.4657194466912638  0.2420186790199419
  0.9574702791162376  0.5148290822699133  0.7541113263578429
  0.5543417102316731  0.9787402087250398  0.7392025356420031
  0.4472351292161590  0.9819273217688664  0.2596023952644861
  0.6844819057097000  0.2935630964419162  0.0209647024631753
  0.7837269750355037  0.7912407132364354  0.0338984756397736
  0.6906692710307493  0.2894625219736900  0.4763308288133911
  0.2066025513667699  0.1936033620461667  0.5350241668614457
  0.2885648195222495  0.7138985044087488  0.9774810327544823
  0.1984309782788869  0.1896489901156295  0.9652300968917015
  0.3091548484796046  0.6926492351680996  0.5214648755239198
  0.8124649852241973  0.7911948743175907  0.4623564653351766
 
  0.00000000E+00  0.00000000E+00  0.00000000E+00
  0.00000000E+00  0.00000000E+00  0.00000000E+00
  0.00000000E+00  0.00000000E+00  0.00000000E+00
  0.00000000E+00  0.00000000E+00  0.00000000E+00
  0.00000000E+00  0.00000000E+00  0.00000000E+00
  0.00000000E+00  0.00000000E+00  0.00000000E+00
  0.00000000E+00  0.00000000E+00  0.00000000E+00
  0.00000000E+00  0.00000000E+00  0.00000000E+00
  0.00000000E+00  0.00000000E+00  0.00000000E+00
  0.00000000E+00  0.00000000E+00  0.00000000E+00
  0.00000000E+00  0.00000000E+00  0.00000000E+00
  0.00000000E+00  0.00000000E+00  0.00000000E+00
  0.00000000E+00  0.00000000E+00  0.00000000E+00
  0.00000000E+00  0.00000000E+00  0.00000000E+00
  0.00000000E+00  0.00000000E+00  0.00000000E+00
  0.00000000E+00  0.00000000E+00  0.00000000E+00
  0.00000000E+00  0.00000000E+00  0.00000000E+00
  0.00000000E+00  0.00000000E+00  0.00000000E+00
  0.00000000E+00  0.00000000E+00  0.00000000E+00
  0.00000000E+00  0.00000000E+00  0.00000000E+00
