Na1 V16 O16 F32                         
   1.00000000000000     
    10.4652580000000004   -0.0087760000000000   -0.0027040000000000
    -0.0091690000000000   10.5907099999999996   -0.0011580000000000
     0.0083880000000000   -0.0009070000000000    7.6565230000000000
   Na   V    O    F 
     1    16    16    32
Direct
  0.5223621969253771  0.5022874504262455  0.0948282119970619
  0.2577922795367710 -0.0011078129370837  0.0072252487949812
  0.2577899297242941  0.5025808968205862  0.0028147308001132
  0.7630436230591893  0.0041364623138518  0.0061501996188418
  0.7782292162737561  0.5005843094950092 -0.0014421605446163
  0.4797547152681087  0.2430144480953072  0.0036749891612228
  0.4841064639886454  0.7592531017846460  0.0001494615883368
  0.9891993610539047  0.2481153561843948  0.0066304219890733
  0.9856272092926187  0.7562881672611327  0.0075907647002101
  0.2343998684278636  0.4967853636040694  0.5060577662002163
  0.2356356795554121  0.9962162905901912  0.5075661622851311
  0.7381588550480126  0.4950841040107171  0.5022772524454937
  0.7376964306601970  0.9955389860551236  0.5050247471125101
  0.0144211504385745  0.2458804785535712  0.5068120971794647
  0.0138224705212056  0.7472366608414083  0.5078965374677364
  0.5145752209149378  0.2449343710816370  0.5059153547854707
  0.5152787917605721  0.7458516161575947  0.5044224070428706
  0.3672756850231925  0.1251375533534238  0.0300890437850462
  0.3684722447449498  0.6298842017375375  0.0210163691348195
  0.8700855318957232  0.1313259866332619  0.0282701401954844
  0.8766750357337831  0.6299984535774189  0.0310852298120049
  0.3729696964101694  0.3730821888775956  0.0236481447257544
  0.3735452001072594  0.8787367307366547  0.0287995344273335
  0.8876430953133990  0.3810305486608099  0.0292464373709246
  0.8774226503927092  0.8809486255748877  0.0272356167674927
  0.1295713154461048  0.3701194036092540  0.5278386654384729
  0.1294298954258536  0.8700374927230524  0.5320393138838690
  0.6310282333843324  0.3682552910143971  0.5244306332918236
  0.6306042664643650  0.8677793702352884  0.5242215911905806
  0.1195605835649480  0.1200855658964703  0.5302488750515653
  0.1188445830419398  0.6204949639118097  0.5283163810406611
  0.6170726079479566  0.1197440448053430  0.5254055156816175
  0.6175888613123692  0.6196065480058713  0.5246267832752360
  0.1307422312653729  0.3683920814834820  0.9624570242417094
  0.1279231567705887  0.8691500409657911  0.9565535079133233
  0.6370290367973896  0.3676415609338137  0.9619855398529200
  0.6239336462457443  0.8789969154463833  0.9672169328536108
  0.1177609208280361  0.1177025510019802  0.9605906592924780
  0.1177476527743399  0.6198559026480891  0.9640422372699019
  0.6181260877371445  0.1219248263747795  0.9682189301105228
  0.6331613276502309  0.6344066372779147  0.9564678858926383
  0.3676054744179344  0.1311031618107221  0.4661500628282410
  0.3684727381615051  0.6304957783944366  0.4653269085294669
  0.8670679437033736  0.1319889403545476  0.4663997634986077
  0.8671725475718565  0.6319084789312600  0.4607911162574275
  0.3825237913515883  0.3811347575385080  0.4651713615554904
  0.3811966594711707  0.8799874558787760  0.4648079783143689
  0.8824559028759332  0.3813743499311440  0.4618321686314522
  0.8816722056503502  0.8827383975017793  0.4682702822528617
  0.0383893112498332  0.2460004004124221  0.2496816116000221
  0.0371706364356939  0.7548517647234021  0.2496969620987255
  0.5320494925048469  0.2501916545340763  0.2473446591414259
  0.5325811637089719  0.7438425187703235  0.2457786601189633
  0.4650234743643296  0.2487553690306301  0.7482133358990358
  0.4642039377617638  0.7530717620381616  0.7454518930222973
  0.9635117960707545  0.2521717362253768  0.7486244168723960
  0.9603558486384414  0.7508520746062953  0.7490919666566001
  0.2861027344787231  0.0014869206015619  0.7493472420749496
  0.2855057047671836  0.5003452007010639  0.7477494190323420
  0.7824490561147914  0.0035706864547294  0.7496906795407102
  0.7905040835666596  0.5013291802847819  0.7461287851128225
  0.2128908331428469  0.4992232033579014  0.2484279574387631
  0.2084427979706440  0.9969298251307693  0.2503240428822425
  0.7118416731074926  0.4989073841833419  0.2399258875336839
  0.7151897633529379  0.9997282115709893  0.2496058579349813
 
             NaN             NaN             NaN
             NaN             NaN             NaN
             NaN             NaN             NaN
             NaN             NaN             NaN
             NaN             NaN             NaN
             NaN             NaN             NaN
             NaN             NaN             NaN
             NaN             NaN             NaN
             NaN             NaN             NaN
             NaN             NaN             NaN
             NaN             NaN             NaN
             NaN             NaN             NaN
             NaN             NaN             NaN
             NaN             NaN             NaN
             NaN             NaN             NaN
             NaN             NaN             NaN
             NaN             NaN             NaN
             NaN             NaN             NaN
             NaN             NaN             NaN
             NaN             NaN             NaN
             NaN             NaN             NaN
             NaN             NaN             NaN
             NaN             NaN             NaN
             NaN             NaN             NaN
             NaN             NaN             NaN
             NaN             NaN             NaN
             NaN             NaN             NaN
             NaN             NaN             NaN
             NaN             NaN             NaN
             NaN             NaN             NaN
             NaN             NaN             NaN
             NaN             NaN             NaN
             NaN             NaN             NaN
             NaN             NaN             NaN
             NaN             NaN             NaN
             NaN             NaN             NaN
             NaN             NaN             NaN
             NaN             NaN             NaN
             NaN             NaN             NaN
             NaN             NaN             NaN
             NaN             NaN             NaN
             NaN             NaN             NaN
             NaN             NaN             NaN
             NaN             NaN             NaN
             NaN             NaN             NaN
             NaN             NaN             NaN
             NaN             NaN             NaN
             NaN             NaN             NaN
             NaN             NaN             NaN
             NaN             NaN             NaN
             NaN             NaN             NaN
             NaN             NaN             NaN
             NaN             NaN             NaN
             NaN             NaN             NaN
             NaN             NaN             NaN
             NaN             NaN             NaN
             NaN             NaN             NaN
             NaN             NaN             NaN
             NaN             NaN             NaN
             NaN             NaN             NaN
             NaN             NaN             NaN
             NaN             NaN             NaN
             NaN             NaN             NaN
             NaN             NaN             NaN
             NaN             NaN             NaN
