Na1 V16 O16 F32
1.0
10.465258 -0.008776 -0.002704
-0.009169 10.590710 -0.001158
0.008388 -0.000907 7.656523
Na V O F
1 16 16 32
direct
0.498200 0.502043 0.086558 Na
0.261920 0.002213 0.006733 V
0.261571 0.502325 0.005382 V
0.763873 0.002205 0.006600 V
0.767690 0.501664 0.006528 V
0.484259 0.249817 0.005869 V
0.484216 0.754972 0.005949 V
0.986116 0.250773 0.007083 V
0.985663 0.753526 0.007195 V
0.232102 0.498519 0.507072 V
0.236109 0.998156 0.506838 V
0.738113 0.498038 0.508399 V
0.738226 0.998336 0.506220 V
0.014165 0.246706 0.507107 V
0.013833 0.749551 0.506954 V
0.515630 0.245470 0.507134 V
0.515845 0.750833 0.507759 V
0.367141 0.132226 0.028967 O
0.367123 0.632035 0.029093 O
0.868047 0.131935 0.029266 O
0.867891 0.632495 0.029740 O
0.381680 0.383023 0.026609 O
0.381301 0.882732 0.027451 O
0.882624 0.381999 0.028082 O
0.881786 0.882259 0.027938 O
0.131807 0.367993 0.529760 O
0.131472 0.868625 0.528939 O
0.631998 0.368725 0.529651 O
0.632428 0.868504 0.529349 O
0.118381 0.118230 0.527847 O
0.118007 0.618568 0.528181 O
0.619183 0.118206 0.527198 O
0.618698 0.617811 0.527022 O
0.132673 0.366906 0.963497 F
0.132879 0.866471 0.964409 F
0.631640 0.368651 0.964350 F
0.632623 0.865457 0.964130 F
0.116464 0.116689 0.965785 F
0.115936 0.616387 0.965817 F
0.616289 0.117207 0.966929 F
0.614302 0.613089 0.971231 F
0.367810 0.134004 0.464000 F
0.369540 0.630324 0.460724 F
0.867577 0.133286 0.463217 F
0.867739 0.632777 0.464754 F
0.384994 0.386340 0.465371 F
0.383040 0.882151 0.466951 F
0.883495 0.383360 0.467484 F
0.883107 0.883020 0.465323 F
0.036674 0.248875 0.249559 F
0.036443 0.749038 0.249374 F
0.536316 0.253728 0.249235 F
0.536243 0.745764 0.249235 F
0.462767 0.252593 0.748868 F
0.463177 0.748316 0.749463 F
0.963520 0.250499 0.749494 F
0.963631 0.751760 0.749710 F
0.285870 0.003007 0.749074 F
0.287385 0.503866 0.747974 F
0.786307 0.003177 0.749825 F
0.786940 0.503866 0.750938 F
0.213818 0.496665 0.249843 F
0.213806 0.997289 0.250108 F
0.712545 0.495938 0.249491 F
0.713586 0.996904 0.248874 F
