Co4 O4 F8                               
   1.00000000000000     
     5.4799799592423479    0.0773951221588789   -0.0011278175216221
    -2.7116951848026005    4.6875915746888097   -0.0696000468205187
     0.0412166981697311   -0.1464986605196818    9.3805822244571324
   Co   O    F 
     4     4     8
Direct
  0.3407012902167910  0.6594874710291069  0.5998317563476965
  0.6651560591226758  0.3357972144298470  0.3903726537701734
  0.6801314071498471  0.3454531027445257  0.1060166958381341
  0.3283936261084658  0.6615580959833818  0.8886516767987167
  0.9875183956055399  0.4931099499111767  0.9937057516673745
  0.5063051201978183  0.4962311932558312  0.5006209201809105
  0.6304719745420361  0.8317684652880034  0.7462660167196563
  0.8141225395924159  0.1932413136989662  0.2607181824389463
  0.5005445184459186  0.9805424542637969  0.0140260146880970
  0.4771286325324289  0.4758563051934662  0.9984949749517618
  0.4882769661067508  0.9937441010759276  0.4936234094199279
  0.9875305631968211  0.4952453125212749  0.5081991594405620
  0.8290020861009239  0.6415621416214995  0.2513060823530351
  0.1893320347848548  0.3664006735908978  0.7440502599710052
  0.3765824762592215  0.2018037417694712  0.2523187698890310
  0.1988023100374974  0.8281984636228412  0.7517976755249852
 
  0.00000000E+00  0.00000000E+00  0.00000000E+00
  0.00000000E+00  0.00000000E+00  0.00000000E+00
  0.00000000E+00  0.00000000E+00  0.00000000E+00
  0.00000000E+00  0.00000000E+00  0.00000000E+00
  0.00000000E+00  0.00000000E+00  0.00000000E+00
  0.00000000E+00  0.00000000E+00  0.00000000E+00
  0.00000000E+00  0.00000000E+00  0.00000000E+00
  0.00000000E+00  0.00000000E+00  0.00000000E+00
  0.00000000E+00  0.00000000E+00  0.00000000E+00
  0.00000000E+00  0.00000000E+00  0.00000000E+00
  0.00000000E+00  0.00000000E+00  0.00000000E+00
  0.00000000E+00  0.00000000E+00  0.00000000E+00
  0.00000000E+00  0.00000000E+00  0.00000000E+00
  0.00000000E+00  0.00000000E+00  0.00000000E+00
  0.00000000E+00  0.00000000E+00  0.00000000E+00
  0.00000000E+00  0.00000000E+00  0.00000000E+00
