Na4 Ni4 O8 F4                           
   1.00000000000000     
     5.4739518910310974   -0.0082722853873353    0.1161007612648182
    -0.0045017309233021    5.5118297115847712    0.0431420193549638
    -0.0083396199964811   -0.0419633621051905    7.0275079997772725
   Na   Ni   O    F 
     4     4     8     4
Direct
  0.9830652657207045  0.0462761279313392  0.2478894041830361
  0.0183242116626596  0.9522597008241468  0.7513649669646542
  0.4815058677375798  0.4528979492040818  0.7481814226827961
  0.5185834184892849  0.5480797607829736  0.2511263948704711
  0.4992337064598680  0.0027127276655815  0.0009628613626783
  0.0016348583258175  0.5041794375859205  0.9999938298949235
  0.5032732156484988  0.9962779817593176  0.4991266370534956
 -0.0004677257722135  0.4974538133972090  0.5008068266474200
  0.1127579397661432  0.4899351253740162  0.2544039338131227
  0.8849587781039847  0.5130643889419151  0.7457359686464998
  0.6123977326715342  0.0123558939290716  0.7543116901308233
  0.3855544283025074  0.9841604550399188  0.2459044276372757
  0.7069098402209993  0.2722723103940792  0.0310736208676761
  0.2911162495547719  0.7321456164325001  0.9708019977374026
  0.7901443549739099  0.7668077367537075  0.4715156662181406
  0.2082112284082072  0.2286009688205904  0.5299648913252887
  0.2146591638672387  0.2227787587106844  0.9267463937475635
  0.7861911623222761  0.7820984511977555  0.0719639121233162
  0.2852087757736694  0.7191858500529221  0.5737917153970621
  0.7167375277625583  0.2764569452022971  0.4243334386963469
 
  0.00000000E+00  0.00000000E+00  0.00000000E+00
  0.00000000E+00  0.00000000E+00  0.00000000E+00
  0.00000000E+00  0.00000000E+00  0.00000000E+00
  0.00000000E+00  0.00000000E+00  0.00000000E+00
  0.00000000E+00  0.00000000E+00  0.00000000E+00
  0.00000000E+00  0.00000000E+00  0.00000000E+00
  0.00000000E+00  0.00000000E+00  0.00000000E+00
  0.00000000E+00  0.00000000E+00  0.00000000E+00
  0.00000000E+00  0.00000000E+00  0.00000000E+00
  0.00000000E+00  0.00000000E+00  0.00000000E+00
  0.00000000E+00  0.00000000E+00  0.00000000E+00
  0.00000000E+00  0.00000000E+00  0.00000000E+00
  0.00000000E+00  0.00000000E+00  0.00000000E+00
  0.00000000E+00  0.00000000E+00  0.00000000E+00
  0.00000000E+00  0.00000000E+00  0.00000000E+00
  0.00000000E+00  0.00000000E+00  0.00000000E+00
  0.00000000E+00  0.00000000E+00  0.00000000E+00
  0.00000000E+00  0.00000000E+00  0.00000000E+00
  0.00000000E+00  0.00000000E+00  0.00000000E+00
  0.00000000E+00  0.00000000E+00  0.00000000E+00
