Cr4 O4 F8                               
   1.00000000000000     
     4.9348013383074925    0.0000269260146571   -0.0572678475267058
     0.0002154995174586    5.1141310068210997   -0.0003556892724589
     0.0384252808012101    0.0005169362338100    7.0970775838438893
   Cr   O    F 
     4     4     8
Direct
  0.4939077149435828  0.9796307982707527  0.9757739867869130
  0.0137752212001243  0.5023961644584359  0.0042135147168336
  0.5139176994124346  0.9975906881975928  0.5041873255030704
  0.9940816340312619  0.5203540099814333  0.4758136235107098
  0.3238686116969148  0.6876348221236761  0.9581819199214385
  0.8240647043020999  0.8123950686842932  0.4581804974555193
  0.0956288971229520  0.4631595095535491  0.2545567497387934
  0.5955622450735941  0.0368027653282096  0.7545815710316868
  0.6866797060880999  0.2987726117360438  0.0541095537653567
  0.1757729794084084  0.1749013551616037  0.9441003368220694
  0.8143235216370489  0.8079902559761216  0.0594122265778209
  0.3145248158245288  0.6919988248842821  0.5593348454218655
  0.6759479333784969  0.3250792622348546  0.4441085179907225
  0.1868639092383421  0.2012778670334080  0.5541042952563365
  0.8955473617292837  0.5210501847332691  0.7496789298857357
  0.3955330449128194  0.9789658116424741  0.2496621056151279
 
  0.00000000E+00  0.00000000E+00  0.00000000E+00
  0.00000000E+00  0.00000000E+00  0.00000000E+00
  0.00000000E+00  0.00000000E+00  0.00000000E+00
  0.00000000E+00  0.00000000E+00  0.00000000E+00
  0.00000000E+00  0.00000000E+00  0.00000000E+00
  0.00000000E+00  0.00000000E+00  0.00000000E+00
  0.00000000E+00  0.00000000E+00  0.00000000E+00
  0.00000000E+00  0.00000000E+00  0.00000000E+00
  0.00000000E+00  0.00000000E+00  0.00000000E+00
  0.00000000E+00  0.00000000E+00  0.00000000E+00
  0.00000000E+00  0.00000000E+00  0.00000000E+00
  0.00000000E+00  0.00000000E+00  0.00000000E+00
  0.00000000E+00  0.00000000E+00  0.00000000E+00
  0.00000000E+00  0.00000000E+00  0.00000000E+00
  0.00000000E+00  0.00000000E+00  0.00000000E+00
  0.00000000E+00  0.00000000E+00  0.00000000E+00
