Co4 O4 F8                               
   1.00000000000000     
     5.4555888807704207   -0.0084049159359406   -0.0000646879506467
    -2.7352425044947188    4.8179783716953697    0.0000146214007055
     0.0001004212043720   -0.0000887113733104    9.2597629538503501
   Co   O    F 
     4     4     8
Direct
  0.3331038943814664  0.6645017000567728  0.6047936754171868
  0.6668989576088010  0.3355039205221634  0.3952098030486961
  0.6669064403840831  0.3355098414064304  0.1047916282588276
  0.3331055969656893  0.6645012872697598  0.8952069404559032
  0.0000039515254366  0.5001958584915303  0.9999776038545692
  0.4998072744783607  0.4997991292030111  0.0000197334207848
 -0.0000000612851565  0.5001966330296121  0.5000232628552407
  0.4998000089035703  0.4997957670676187  0.4999806320943837
  0.5000583957660574 -0.0000033852782780 -0.0000005429738596
  0.5000599248011075 -0.0000031146563748  0.4999994947934112
  0.8120027780839147  0.6244232930598311  0.2500030065778764
  0.1879185991783238  0.3755845938878486  0.7499986901510765
  0.3676695089690182  0.1881722179279914  0.2499959190177430
  0.6324377427357423  0.8116663675881615  0.7500006381345046
  0.8194996597977626  0.1889702935066142  0.2499998012414279
  0.1807273277058291  0.8111855969173005  0.7499997136522494
 
  0.00000000E+00  0.00000000E+00  0.00000000E+00
  0.00000000E+00  0.00000000E+00  0.00000000E+00
  0.00000000E+00  0.00000000E+00  0.00000000E+00
  0.00000000E+00  0.00000000E+00  0.00000000E+00
  0.00000000E+00  0.00000000E+00  0.00000000E+00
  0.00000000E+00  0.00000000E+00  0.00000000E+00
  0.00000000E+00  0.00000000E+00  0.00000000E+00
  0.00000000E+00  0.00000000E+00  0.00000000E+00
  0.00000000E+00  0.00000000E+00  0.00000000E+00
  0.00000000E+00  0.00000000E+00  0.00000000E+00
  0.00000000E+00  0.00000000E+00  0.00000000E+00
  0.00000000E+00  0.00000000E+00  0.00000000E+00
  0.00000000E+00  0.00000000E+00  0.00000000E+00
  0.00000000E+00  0.00000000E+00  0.00000000E+00
  0.00000000E+00  0.00000000E+00  0.00000000E+00
  0.00000000E+00  0.00000000E+00  0.00000000E+00
