Na4 Mn4 O8 F4                           
   1.00000000000000     
     5.3044821790557926   -0.0310726230072011    0.0305090990614534
    -2.6884843518451471    4.6216138631607437   -0.0618686083813184
     0.0088979346076123   -0.0135918521484136    9.0142946900782910
   Na   Mn   O    F 
     4     4     8     4
Direct
  0.9921394035694604  0.9734903550960539  0.0675759065195223
  0.9934923971352561  0.0101439080143990  0.4394657153706873
  0.3491868204829274  0.6754979544098489  0.2574221128259779
  0.6776226765673030  0.3419131801121296  0.7370250689573794
  0.3323800633525664  0.6691930149197489  0.5963021387384870
  0.6850173530036514  0.3534364893690949  0.3975495415336496
  0.6884374177054298  0.3147788393301312  0.1110551188754982
  0.3182401575590745  0.6554161447099673  0.8926464890078378
  0.5667701729914540  0.9618845739640349  0.0151993972349018
  0.9787673542799240  0.5580274893637096  0.9880312881412792
  0.5869673299425457  0.0315120096114114  0.5124494637490358
  0.0041683999163737  0.6124982592273653  0.5027280353530941
  0.4122806781936248  0.4416756659511378  0.4835012896557060
  0.7460354232168669  0.6114827459968311  0.2413486473520408
  0.1359047994553180  0.3936291322803100  0.7413098788605481
  0.8789043225853774  0.2422787102523003  0.2541645384839128
  0.3954680378398052  0.3901272758156011  0.9935215954566772
  0.3489940563905023  0.0989308543373824  0.2491013338436190
  0.6434833480195081  0.7611129293859236  0.7520195480482812
  0.2657397877930521  0.9029704678526116  0.7675828919918501
 
  0.00000000E+00  0.00000000E+00  0.00000000E+00
  0.00000000E+00  0.00000000E+00  0.00000000E+00
  0.00000000E+00  0.00000000E+00  0.00000000E+00
  0.00000000E+00  0.00000000E+00  0.00000000E+00
  0.00000000E+00  0.00000000E+00  0.00000000E+00
  0.00000000E+00  0.00000000E+00  0.00000000E+00
  0.00000000E+00  0.00000000E+00  0.00000000E+00
  0.00000000E+00  0.00000000E+00  0.00000000E+00
  0.00000000E+00  0.00000000E+00  0.00000000E+00
  0.00000000E+00  0.00000000E+00  0.00000000E+00
  0.00000000E+00  0.00000000E+00  0.00000000E+00
  0.00000000E+00  0.00000000E+00  0.00000000E+00
  0.00000000E+00  0.00000000E+00  0.00000000E+00
  0.00000000E+00  0.00000000E+00  0.00000000E+00
  0.00000000E+00  0.00000000E+00  0.00000000E+00
  0.00000000E+00  0.00000000E+00  0.00000000E+00
  0.00000000E+00  0.00000000E+00  0.00000000E+00
  0.00000000E+00  0.00000000E+00  0.00000000E+00
  0.00000000E+00  0.00000000E+00  0.00000000E+00
  0.00000000E+00  0.00000000E+00  0.00000000E+00
