Na4 Cr4 O8 F4                           
   1.00000000000000     
     5.3487933728979362    0.0006677050918874   -0.0681467496365776
    -0.0000498977235347    5.4044259526037290    0.0055757289852135
     0.0731418493978670   -0.0067792294281184    7.1700554829523613
   Na   Cr   O    F 
     4     4     8     4
Direct
  0.0060971994665473  0.0326982543258531  0.2529813932422113
  0.0013375069575671  0.9624368888387141  0.7459346479087499
  0.5066312768409370  0.4669537126642956  0.7533476517838772
  0.5016677250870959  0.5370516533865914  0.2470502260614340
  0.5111121063064443  0.0289888862532479  0.0035117764239346
  0.0209417899932924  0.5243417446169676  0.9982999081187208
  0.5200490673631860  0.9759175473968235  0.4987300103176572
  0.0108431735221759  0.4713340339454538  0.5030743668322472
  0.0467634521462921  0.4917337053459744  0.2501126138261308
  0.9274595535166539  0.5160829191286177  0.7501190802439544
  0.5465973649706439  0.0094890963435241  0.7503378349983065
  0.4273314526557681  0.9828334700604546  0.2500566115959190
  0.6973678393087875  0.2907289841258728  0.0321156382451406
  0.2844598733448450  0.7084377785744221  0.9669789230400636
  0.7835846940847306  0.7913517527223701  0.4674618023408068
  0.1970200244354170  0.2091819211905296  0.5313146119731693
  0.2033101433975741  0.2156421488349814  0.9632078187237778
  0.8024211995751400  0.8116575207456971  0.0358734247682645
  0.3017500594690211  0.6888174302133828  0.5368161792633184
  0.7032544975578950  0.2843205512862264  0.4626754802923159
 
  0.00000000E+00  0.00000000E+00  0.00000000E+00
  0.00000000E+00  0.00000000E+00  0.00000000E+00
  0.00000000E+00  0.00000000E+00  0.00000000E+00
  0.00000000E+00  0.00000000E+00  0.00000000E+00
  0.00000000E+00  0.00000000E+00  0.00000000E+00
  0.00000000E+00  0.00000000E+00  0.00000000E+00
  0.00000000E+00  0.00000000E+00  0.00000000E+00
  0.00000000E+00  0.00000000E+00  0.00000000E+00
  0.00000000E+00  0.00000000E+00  0.00000000E+00
  0.00000000E+00  0.00000000E+00  0.00000000E+00
  0.00000000E+00  0.00000000E+00  0.00000000E+00
  0.00000000E+00  0.00000000E+00  0.00000000E+00
  0.00000000E+00  0.00000000E+00  0.00000000E+00
  0.00000000E+00  0.00000000E+00  0.00000000E+00
  0.00000000E+00  0.00000000E+00  0.00000000E+00
  0.00000000E+00  0.00000000E+00  0.00000000E+00
  0.00000000E+00  0.00000000E+00  0.00000000E+00
  0.00000000E+00  0.00000000E+00  0.00000000E+00
  0.00000000E+00  0.00000000E+00  0.00000000E+00
  0.00000000E+00  0.00000000E+00  0.00000000E+00
