Ti8 O8 F16                              
   1.00000000000000     
     7.4900254041113081    0.0014013379052904    0.0000000799131282
     0.0019682900604478    7.7498682730425799    0.0000001812918460
     0.0000000794399718    0.0000001826237050    7.8326110077902600
   Ti   O    F 
     8     8    16
Direct
  0.0112402959142370  0.0142888372850527  0.9999999332541697
  0.9995573172775647  0.9995711457553782  0.4999998396544683
  0.9887965447406998  0.4855790481167415  0.0000000208503533
  0.0003168231126515  0.5004205454209785  0.5000000961648727
  0.4887963814066449  0.9855790579005033  0.0000000574836704
  0.5003169068407072  0.0004205434543730  0.5000001445573107
  0.5112400629708280  0.5142888811723511  0.9999999556234443
  0.4995574459124094  0.4995711594209030  0.4999998845394921
  0.2500059831007182  0.0000883238888275 -0.0000000029867714
  0.2500494552472410  0.9999947225021636  0.5000000186547795
  0.2500481105514851  0.4999937236517509  0.5000000300393826
  0.7500481377707688  0.9999936659335134  0.5000000180546338
  0.7500060478617026  0.5000883488762470  0.9999999914759877
  0.7500494594822719  0.4999947764506606  0.5000000220373667
  0.9999204137745406  0.2500010627239486  0.9999999587639747
  0.4999203979724986  0.7500009958883374 -0.0000000176937849
  0.9952408978119820  0.9965397065702432  0.2492475633108547
  0.9952409372911047  0.9965397175479815  0.7507522886080559
  0.0047678646848932  0.5034547594809075  0.2492456416806870
  0.0047678710140387  0.5034547746899356  0.7507544813015538
  0.5047678315293062  0.0034547213518361  0.2492456976086876
  0.5047678455116165  0.0034547605684564  0.7507544451294722
  0.4952408846158467  0.4965397462699900  0.2492475808258901
  0.4952408747758537  0.4965397504087991  0.7507522976027942
  0.2499897278645468  0.5000322029984060 -0.0000000168836378
  0.7499896941631634  0.0000322173201631  0.0000000073609924
  0.0000319108137010  0.2499952602473084  0.5000000266217409
 -0.0000052635578586  0.7500495308155301 -0.0000000206405686
  0.0000312826894490  0.7499965949153543  0.5000000242195837
  0.4999947176545491  0.2500495541377690 -0.0000000148823494
  0.5000312592153702  0.2499965924936703  0.5000000259592161
  0.5000318799854826  0.7499952717419123  0.5000000217036763
 
  0.00000000E+00  0.00000000E+00  0.00000000E+00
  0.00000000E+00  0.00000000E+00  0.00000000E+00
  0.00000000E+00  0.00000000E+00  0.00000000E+00
  0.00000000E+00  0.00000000E+00  0.00000000E+00
  0.00000000E+00  0.00000000E+00  0.00000000E+00
  0.00000000E+00  0.00000000E+00  0.00000000E+00
  0.00000000E+00  0.00000000E+00  0.00000000E+00
  0.00000000E+00  0.00000000E+00  0.00000000E+00
  0.00000000E+00  0.00000000E+00  0.00000000E+00
  0.00000000E+00  0.00000000E+00  0.00000000E+00
  0.00000000E+00  0.00000000E+00  0.00000000E+00
  0.00000000E+00  0.00000000E+00  0.00000000E+00
  0.00000000E+00  0.00000000E+00  0.00000000E+00
  0.00000000E+00  0.00000000E+00  0.00000000E+00
  0.00000000E+00  0.00000000E+00  0.00000000E+00
  0.00000000E+00  0.00000000E+00  0.00000000E+00
  0.00000000E+00  0.00000000E+00  0.00000000E+00
  0.00000000E+00  0.00000000E+00  0.00000000E+00
  0.00000000E+00  0.00000000E+00  0.00000000E+00
  0.00000000E+00  0.00000000E+00  0.00000000E+00
  0.00000000E+00  0.00000000E+00  0.00000000E+00
  0.00000000E+00  0.00000000E+00  0.00000000E+00
  0.00000000E+00  0.00000000E+00  0.00000000E+00
  0.00000000E+00  0.00000000E+00  0.00000000E+00
  0.00000000E+00  0.00000000E+00  0.00000000E+00
  0.00000000E+00  0.00000000E+00  0.00000000E+00
  0.00000000E+00  0.00000000E+00  0.00000000E+00
  0.00000000E+00  0.00000000E+00  0.00000000E+00
  0.00000000E+00  0.00000000E+00  0.00000000E+00
  0.00000000E+00  0.00000000E+00  0.00000000E+00
  0.00000000E+00  0.00000000E+00  0.00000000E+00
  0.00000000E+00  0.00000000E+00  0.00000000E+00
