Na4 Cr4 O8 F4                           
   1.00000000000000     
     5.7663522589559779    0.0001063277859449    0.3510479093171175
    -2.8875977486322384    4.5685231105108182   -0.1741531855493623
     0.1714132891319946    0.0014721672119207    9.3592704502672959
   Na   Cr   O    F 
     4     4     8     4
Direct
  0.0529943785436610  0.0001028219664052  0.1000087910018931
  0.0544559708048830 -0.0003201313638574  0.5997235762498938
  0.3232304095501761  0.6141342190881366  0.2710215411197793
  0.7091350937453462  0.3862931415160776  0.7709158712531528
  0.4108934516944053  0.6653283592216976  0.5945049484200287
  0.6308735604422119  0.2968319584465124  0.3751593718075055
  0.7442931195517487  0.3338677847658015  0.0945597216064433
  0.3333708241446505  0.7030186576294710  0.8751026910021674
  0.5687322270114165  0.0237378059035761 -0.0027646241596088
  0.9896647013340258  0.5917881907181675  0.9778504044605297
  0.5431213252141447  0.9753662449046143  0.4972784139969888
  0.3981767883282850  0.4081585482670439  0.4777143089103524
  0.6771012215891553  0.5476434219485145  0.2129090541142195
  0.1297516421137993  0.4519309520574533  0.7131795409955118
  0.6340666131479125  0.7623451699682507  0.7293708257608407
  0.8715881314581193  0.2381872916616400  0.2295896366945076
  0.3620111681640856  0.4225225638251576  0.9750087978494070
  0.9391877340799293  0.5780884836109955  0.4755578071779951
  0.3221471031834733  0.0173630354711882  0.2663308337571985
  0.3052045358985712  0.9836114803931550  0.7669784879812007
 
  0.00000000E+00  0.00000000E+00  0.00000000E+00
  0.00000000E+00  0.00000000E+00  0.00000000E+00
  0.00000000E+00  0.00000000E+00  0.00000000E+00
  0.00000000E+00  0.00000000E+00  0.00000000E+00
  0.00000000E+00  0.00000000E+00  0.00000000E+00
  0.00000000E+00  0.00000000E+00  0.00000000E+00
  0.00000000E+00  0.00000000E+00  0.00000000E+00
  0.00000000E+00  0.00000000E+00  0.00000000E+00
  0.00000000E+00  0.00000000E+00  0.00000000E+00
  0.00000000E+00  0.00000000E+00  0.00000000E+00
  0.00000000E+00  0.00000000E+00  0.00000000E+00
  0.00000000E+00  0.00000000E+00  0.00000000E+00
  0.00000000E+00  0.00000000E+00  0.00000000E+00
  0.00000000E+00  0.00000000E+00  0.00000000E+00
  0.00000000E+00  0.00000000E+00  0.00000000E+00
  0.00000000E+00  0.00000000E+00  0.00000000E+00
  0.00000000E+00  0.00000000E+00  0.00000000E+00
  0.00000000E+00  0.00000000E+00  0.00000000E+00
  0.00000000E+00  0.00000000E+00  0.00000000E+00
  0.00000000E+00  0.00000000E+00  0.00000000E+00
