Na4 Fe4 O8 F4                           
   1.00000000000000     
     5.1352854489591495   -0.0000037395228622    0.0000025538279685
    -0.0000037181375506    5.1455244766764165    0.0000009996716381
     0.0000040927198819    0.0000017944999123    8.1031834731115264
   Na   Fe   O    F 
     4     4     8     4
Direct
  0.9788530857489555  0.0234264502162453  0.2499995565367904
  0.0211622280676750  0.9766176673504722  0.7500005128729520
  0.4788534894975726  0.4765741220748316  0.7500000178722154
  0.5211639307732774  0.5233843270839950  0.2499999952136557
  0.4999287967101502  0.9998549902228522  0.0000345894340512
  0.9999274269196007  0.5001548269798752 -0.0000378133261863
  0.4999254342592865  0.9998426218919051  0.4999647700358932
  0.9999277794460676  0.5001447542313135  0.5000368051548080
  0.7297919222812984  0.2698336710728684  0.0407137627122591
  0.2702396256741496  0.7300878068228096  0.9591580358174391
  0.2297909770419304  0.2301700269017034  0.9592870569884108
  0.7702395404276277  0.7699157307730737  0.0408418030997136
  0.2702367825004120  0.7300848385948836  0.5408431240876951
  0.7297893410804368  0.2698307316327446  0.4592865953859501
  0.7702404066217101  0.7699126618640471  0.4591575905320973
  0.2297908791722413  0.2301662002788321  0.5407131674656742
  0.0887192219910174  0.4871693252733932  0.2499997704022230
  0.9113491798405995  0.5129452134152851  0.7500004427851837
  0.5887181952815961  0.0128318387534679  0.7500006232170393
  0.4113517566643955  0.9870521945654013  0.2499995937121350
 
  0.00000000E+00  0.00000000E+00  0.00000000E+00
  0.00000000E+00  0.00000000E+00  0.00000000E+00
  0.00000000E+00  0.00000000E+00  0.00000000E+00
  0.00000000E+00  0.00000000E+00  0.00000000E+00
  0.00000000E+00  0.00000000E+00  0.00000000E+00
  0.00000000E+00  0.00000000E+00  0.00000000E+00
  0.00000000E+00  0.00000000E+00  0.00000000E+00
  0.00000000E+00  0.00000000E+00  0.00000000E+00
  0.00000000E+00  0.00000000E+00  0.00000000E+00
  0.00000000E+00  0.00000000E+00  0.00000000E+00
  0.00000000E+00  0.00000000E+00  0.00000000E+00
  0.00000000E+00  0.00000000E+00  0.00000000E+00
  0.00000000E+00  0.00000000E+00  0.00000000E+00
  0.00000000E+00  0.00000000E+00  0.00000000E+00
  0.00000000E+00  0.00000000E+00  0.00000000E+00
  0.00000000E+00  0.00000000E+00  0.00000000E+00
  0.00000000E+00  0.00000000E+00  0.00000000E+00
  0.00000000E+00  0.00000000E+00  0.00000000E+00
  0.00000000E+00  0.00000000E+00  0.00000000E+00
  0.00000000E+00  0.00000000E+00  0.00000000E+00
