Co4 O4 F8                               
   1.00000000000000     
     5.5116754203677871   -0.0189085646748803    0.0547953145333709
    -2.7495891057454633    4.7440316556377100   -0.0820071230809290
     0.0812084235680505   -0.0884231839204794    9.4080553617999154
   Co   O    F 
     4     4     8
Direct
  0.3330137069148655  0.6737414280217126  0.6023986429975667
  0.6716023464988305  0.3254763046987827  0.3944083812345713
  0.6743112565589365  0.3457142333198121  0.1086308846716667
  0.3350688358872194  0.6640448045040511  0.8911190536649599
  0.9846981125952678  0.4953776770054442  0.9921930273464306
  0.5005568145065473  0.9976239231913397  0.4989258376372375
  0.9953853671616861  0.4986473542387690  0.5016898646645894
  0.6336554291702454  0.8106186143193064  0.7483232330703051
  0.4911392867481811  0.9974078745757204  0.0047473055397043
  0.4846358131946825  0.4949432268365063  0.0062131783357814
  0.4985098418301296  0.4961311861537302  0.5000218619309716
  0.8228392346130300  0.6334865734276205  0.2525784986442012
  0.1854832484816274  0.3694413072742727  0.7464389708834114
  0.3754874557647513  0.1868786881233055  0.2545423866805491
  0.8182189086600723  0.1888568902641442  0.2472484636789511
  0.1953943414139206  0.8216099140454753  0.7505204090190961
 
  0.00000000E+00  0.00000000E+00  0.00000000E+00
  0.00000000E+00  0.00000000E+00  0.00000000E+00
  0.00000000E+00  0.00000000E+00  0.00000000E+00
  0.00000000E+00  0.00000000E+00  0.00000000E+00
  0.00000000E+00  0.00000000E+00  0.00000000E+00
  0.00000000E+00  0.00000000E+00  0.00000000E+00
  0.00000000E+00  0.00000000E+00  0.00000000E+00
  0.00000000E+00  0.00000000E+00  0.00000000E+00
  0.00000000E+00  0.00000000E+00  0.00000000E+00
  0.00000000E+00  0.00000000E+00  0.00000000E+00
  0.00000000E+00  0.00000000E+00  0.00000000E+00
  0.00000000E+00  0.00000000E+00  0.00000000E+00
  0.00000000E+00  0.00000000E+00  0.00000000E+00
  0.00000000E+00  0.00000000E+00  0.00000000E+00
  0.00000000E+00  0.00000000E+00  0.00000000E+00
  0.00000000E+00  0.00000000E+00  0.00000000E+00
