V8 O8 F16                               
   1.00000000000000     
     7.5837274418464684    0.0030346312728944    0.0044567052180291
     0.0061600480463842    7.6276721937611605    0.0032640115326160
     0.0030543189945499    0.0049460055007670    7.5846103301036996
   V    O    F 
     8     8    16
Direct
  0.0353147434581930  0.0016394645837811  0.9957606158178179
  0.0021283849157461  0.9659560532555113  0.4962209240208323
  0.9960775281503871  0.5007792295359617  0.0245863389352234
  0.9962223179534941  0.4659762079637386  0.5021062495107345
  0.5343946365192572  0.0007212760062295  0.9961425571590725
  0.5246043154559757  0.0007357377906503  0.4961102656187089
  0.4961564224947271  0.5007257051719110  0.0344081104623026
  0.4957358258141392  0.5015995234723756  0.5353099845180934
  0.9954161000843094  0.4977949222807743  0.2439776880818768
  0.4970897337801568  0.5017281317923729  0.2501309854163207
  0.4960806339888310  0.5024114018205273  0.7505422756952045
  0.2505852487880090  0.0023714224069891  0.9964066239397149
  0.7501603182991078  0.0017910037601646  0.9969241439169649
  0.7440937248700314  0.9977190365532699  0.4956287180082140
  0.9961435007840866  0.2516308613635034  0.5000577813891791
 -0.0000059358028004  0.7516088908403664  0.4962846518211881
  0.0003020045598907  0.0084178000505000  0.2464804570524919
  0.4924227562570179  0.0018576196203371  0.7467582787800062
  0.2553904500532663  0.0042065655818430  0.4964449908401402
  0.2458926916617758  0.5052581094538415  0.4990527544998825
  0.7453488852910028  0.5028092311077732  0.9914962215565262
  0.7464478557983307  0.5084612040020058  0.5005451970144605
  0.9959677344962828  0.7519132659058489  0.9956691448156285
  0.4962667883640252  0.2514073584808702  0.9950904127725463
  0.9994588581331778  0.0052874036178419  0.7458864349396530
  0.9967340297382090  0.5041520801549515  0.7554344229008108
  0.4917459504575736  0.0028166075169214  0.2453619994576253
  0.2467335956889931  0.5019355109258330  0.9926401910574266
  0.9948335578417091  0.2515317524891629  0.9913486721097197
  0.4957305578511827  0.2518084514078666  0.4960502287580623
  0.4951695191099791  0.7514270521355958  0.9963292283636267
  0.4913572651439462  0.7515211189506580  0.4948134507699586
 
  0.00000000E+00  0.00000000E+00  0.00000000E+00
  0.00000000E+00  0.00000000E+00  0.00000000E+00
  0.00000000E+00  0.00000000E+00  0.00000000E+00
  0.00000000E+00  0.00000000E+00  0.00000000E+00
  0.00000000E+00  0.00000000E+00  0.00000000E+00
  0.00000000E+00  0.00000000E+00  0.00000000E+00
  0.00000000E+00  0.00000000E+00  0.00000000E+00
  0.00000000E+00  0.00000000E+00  0.00000000E+00
  0.00000000E+00  0.00000000E+00  0.00000000E+00
  0.00000000E+00  0.00000000E+00  0.00000000E+00
  0.00000000E+00  0.00000000E+00  0.00000000E+00
  0.00000000E+00  0.00000000E+00  0.00000000E+00
  0.00000000E+00  0.00000000E+00  0.00000000E+00
  0.00000000E+00  0.00000000E+00  0.00000000E+00
  0.00000000E+00  0.00000000E+00  0.00000000E+00
  0.00000000E+00  0.00000000E+00  0.00000000E+00
  0.00000000E+00  0.00000000E+00  0.00000000E+00
  0.00000000E+00  0.00000000E+00  0.00000000E+00
  0.00000000E+00  0.00000000E+00  0.00000000E+00
  0.00000000E+00  0.00000000E+00  0.00000000E+00
  0.00000000E+00  0.00000000E+00  0.00000000E+00
  0.00000000E+00  0.00000000E+00  0.00000000E+00
  0.00000000E+00  0.00000000E+00  0.00000000E+00
  0.00000000E+00  0.00000000E+00  0.00000000E+00
  0.00000000E+00  0.00000000E+00  0.00000000E+00
  0.00000000E+00  0.00000000E+00  0.00000000E+00
  0.00000000E+00  0.00000000E+00  0.00000000E+00
  0.00000000E+00  0.00000000E+00  0.00000000E+00
  0.00000000E+00  0.00000000E+00  0.00000000E+00
  0.00000000E+00  0.00000000E+00  0.00000000E+00
  0.00000000E+00  0.00000000E+00  0.00000000E+00
  0.00000000E+00  0.00000000E+00  0.00000000E+00
