Ti16 O28                                
   1.00000000000000     
     5.7290719883076102   -0.0049630340991006   -0.4778570006981518
    -2.4304986527874761    6.6940959108099127   -0.6349322079954937
     0.0641809289412846    0.0233742148274212   12.6447111833785772
   Ti   O 
    16    28
Direct
  0.7729437543412683  0.8451101653885271  0.9330377744292931
  0.2270489710167570  0.1548941614668509  0.0669737359052679
  0.7833184758212547  0.3464177651797359  0.9362930064598219
  0.2167290823616983  0.6536158549452373  0.0637053165642237
  0.3124828357064001  0.5552205093384952  0.7999429116918250
  0.6875238301368852  0.4447770557105996  0.2000314720558097
  0.3072084074840615  0.0553200537202955  0.7979332635914756
  0.6928101131646532  0.9446851218348279  0.2020752975015895
  0.6875670861450646  0.9453333689637607  0.6999540660130179
  0.3124426779923520  0.0546650047112541  0.3000128568070188
  0.6925266149341224  0.4451544308836503  0.7019679455575238
  0.3074957987760556  0.5548541376192327  0.2980423076638310
  0.2269891456380024  0.6548679459244464  0.5669113736304769
  0.7729542988909441  0.3450805053644980  0.4330910974875003
  0.2166414017276998  0.1537945583667622  0.5635705165047860
  0.7834021154041947  0.8462268366276877  0.4364292940252152
  0.9083629517367238  0.6367134955916260  0.9890693340656743
  0.0916516455921735  0.3632682791213290  0.0109604051713758
  0.4191043384916295  0.7056487140350218  0.9496567441716603
  0.5808876230589091  0.2944041922689949  0.0503464862709693
  0.1330618713416669  0.0025729326950537  0.9141433410990776
  0.8669375092074123  0.9974470889637980  0.0858535502670701
  0.6607811884012493  0.0684071473817656  0.8627643543149156
  0.3392187447456700  0.9315856546528570  0.1372096697939130
  0.4764766903032271  0.3525332896931901  0.8362458322025355
  0.5234933582353423  0.6474769843807345  0.1637409374387401
  0.9453477588643098  0.4308246665751023  0.8014017664021214
  0.0546244567680745  0.5691411393333745  0.1986085528394363
  0.7024977588050998  0.7071002695834778  0.7738574596852646
  0.2975268399235724  0.2928919112164010  0.2261760415853843
  0.2976273720849721  0.7934401131634071  0.7261010467230309
  0.7023781090536183  0.2065479762567253  0.2739433475644635
  0.0544238060494026  0.0695223126452128  0.6984825679160541
  0.9455372890279513  0.9304288628288300  0.3015044160875773
  0.5232257080292985  0.1479330411182852  0.6635510068854530
  0.4767467243121615  0.8520814252122140  0.3364262621721241
  0.3388021923079573  0.4319568392055056  0.6370532334524854
  0.6611678395322647  0.5680340076179924  0.3629070393964625
  0.8663132546783073  0.4976661181715242  0.5856372422592550
  0.1336692861797459  0.5023511985997031  0.4143650571997328
  0.5812407311504616  0.7942473958572169  0.5505031864292421
  0.4187751176612868  0.2058025192342000  0.4495016166601076
  0.0918619579334307  0.8633437492480122  0.5110371341784024
  0.9081732669826816  0.1366111993025689  0.4889801318788017
 
  0.00000000E+00  0.00000000E+00  0.00000000E+00
  0.00000000E+00  0.00000000E+00  0.00000000E+00
  0.00000000E+00  0.00000000E+00  0.00000000E+00
  0.00000000E+00  0.00000000E+00  0.00000000E+00
  0.00000000E+00  0.00000000E+00  0.00000000E+00
  0.00000000E+00  0.00000000E+00  0.00000000E+00
  0.00000000E+00  0.00000000E+00  0.00000000E+00
  0.00000000E+00  0.00000000E+00  0.00000000E+00
  0.00000000E+00  0.00000000E+00  0.00000000E+00
  0.00000000E+00  0.00000000E+00  0.00000000E+00
  0.00000000E+00  0.00000000E+00  0.00000000E+00
  0.00000000E+00  0.00000000E+00  0.00000000E+00
  0.00000000E+00  0.00000000E+00  0.00000000E+00
  0.00000000E+00  0.00000000E+00  0.00000000E+00
  0.00000000E+00  0.00000000E+00  0.00000000E+00
  0.00000000E+00  0.00000000E+00  0.00000000E+00
  0.00000000E+00  0.00000000E+00  0.00000000E+00
  0.00000000E+00  0.00000000E+00  0.00000000E+00
  0.00000000E+00  0.00000000E+00  0.00000000E+00
  0.00000000E+00  0.00000000E+00  0.00000000E+00
  0.00000000E+00  0.00000000E+00  0.00000000E+00
  0.00000000E+00  0.00000000E+00  0.00000000E+00
  0.00000000E+00  0.00000000E+00  0.00000000E+00
  0.00000000E+00  0.00000000E+00  0.00000000E+00
  0.00000000E+00  0.00000000E+00  0.00000000E+00
  0.00000000E+00  0.00000000E+00  0.00000000E+00
  0.00000000E+00  0.00000000E+00  0.00000000E+00
  0.00000000E+00  0.00000000E+00  0.00000000E+00
  0.00000000E+00  0.00000000E+00  0.00000000E+00
  0.00000000E+00  0.00000000E+00  0.00000000E+00
  0.00000000E+00  0.00000000E+00  0.00000000E+00
  0.00000000E+00  0.00000000E+00  0.00000000E+00
  0.00000000E+00  0.00000000E+00  0.00000000E+00
  0.00000000E+00  0.00000000E+00  0.00000000E+00
  0.00000000E+00  0.00000000E+00  0.00000000E+00
  0.00000000E+00  0.00000000E+00  0.00000000E+00
  0.00000000E+00  0.00000000E+00  0.00000000E+00
  0.00000000E+00  0.00000000E+00  0.00000000E+00
  0.00000000E+00  0.00000000E+00  0.00000000E+00
  0.00000000E+00  0.00000000E+00  0.00000000E+00
  0.00000000E+00  0.00000000E+00  0.00000000E+00
  0.00000000E+00  0.00000000E+00  0.00000000E+00
  0.00000000E+00  0.00000000E+00  0.00000000E+00
  0.00000000E+00  0.00000000E+00  0.00000000E+00
