Na4 Cr4 O8 F4                           
   1.00000000000000     
     5.1840026720110517    0.0051551764301450    0.0222734349213074
     0.0144735692784033    5.2508752904015621    0.0076243190156776
     0.0078076746628454   -0.0026044728636622    7.5246236936500130
   Na   Cr   O    F 
     4     4     8     4
Direct
  0.9852057933273295  0.0245110258614171  0.2404764787261564
  0.0174502279994706  0.9564371847830063  0.7496667903682770
  0.4860607019026940  0.4761902168918677  0.7464221322328577
  0.5125101997629633  0.5405429652176528  0.2552265806033199
  0.5154144418647473  0.0216710595233651  0.0019678125449868
  0.9824742653596538  0.4873209791675439  0.9842830526422369
  0.4764075524568191  0.0138894963734481  0.5024474538895982
  0.0061135098775601  0.4803131340341278  0.4839855717451035
  0.7101345709112441  0.2802945457837164  0.0522003641329729
  0.2170639881811783  0.2098520401210967  0.9661901970380273
  0.7666374259906197  0.7763588748764293  0.0359574037299842
  0.2960859816179588  0.7253312616559874  0.5360060173182187
  0.7232648655903404  0.2763437602268570  0.4654262808926020
  0.2253512460791632  0.2217391008968836  0.5545356629280546
  0.0745511537840648  0.4886281722968191  0.2554515076998869
  0.9296557122967046  0.5111518497357999  0.7547783025239537
  0.2853658894730847  0.7165353281695914  0.9563248889024956
  0.7877261509041256  0.7897499778838043  0.4553619806467805
  0.5926783541891976  0.0171762922168567  0.7517065181344840
  0.4098479684310808  0.9859627342837223  0.2515850033000032
 
  0.00000000E+00  0.00000000E+00  0.00000000E+00
  0.00000000E+00  0.00000000E+00  0.00000000E+00
  0.00000000E+00  0.00000000E+00  0.00000000E+00
  0.00000000E+00  0.00000000E+00  0.00000000E+00
  0.00000000E+00  0.00000000E+00  0.00000000E+00
  0.00000000E+00  0.00000000E+00  0.00000000E+00
  0.00000000E+00  0.00000000E+00  0.00000000E+00
  0.00000000E+00  0.00000000E+00  0.00000000E+00
  0.00000000E+00  0.00000000E+00  0.00000000E+00
  0.00000000E+00  0.00000000E+00  0.00000000E+00
  0.00000000E+00  0.00000000E+00  0.00000000E+00
  0.00000000E+00  0.00000000E+00  0.00000000E+00
  0.00000000E+00  0.00000000E+00  0.00000000E+00
  0.00000000E+00  0.00000000E+00  0.00000000E+00
  0.00000000E+00  0.00000000E+00  0.00000000E+00
  0.00000000E+00  0.00000000E+00  0.00000000E+00
  0.00000000E+00  0.00000000E+00  0.00000000E+00
  0.00000000E+00  0.00000000E+00  0.00000000E+00
  0.00000000E+00  0.00000000E+00  0.00000000E+00
  0.00000000E+00  0.00000000E+00  0.00000000E+00
