Mn8 O8 F16                              
   1.00000000000000     
     6.8950137836093548   -0.1230004127492243   -0.0141965484086210
     0.1485857586305422    7.0755383143094726    0.0139758947134144
    -0.0904097599649544   -0.0057757301002569    7.4181434670111672
   Mn   O    F 
     8     8    16
Direct
  0.9986419812062763  0.9954129442696598  0.9963812521955120
  0.9939703733826235  0.9978765126164291  0.4998163413985566
  0.0139916486297906  0.5026872727385978  0.0013375651352803
  0.0041155551231284  0.4991007292454057  0.4987954895747038
  0.4979518400615319  0.9853585476092803  0.9963844865936764
  0.5013743740151781  0.9959002122894560  0.5031126515914934
  0.4923729858813246  0.5176147700526741  0.9996054155604099
  0.4942531968916981  0.4977122557592750  0.5005082551612716
  0.2468716399229081  0.9189119600112932  0.4437100047686116
  0.2473639458511769  0.5840277840255297  0.4518331720330764
  0.7513809969994583  0.4247535640383688  0.5541833624538413
  0.2485613479490993  0.9256911079958883  0.0637341941296938
  0.2496489266116555  0.5876301983291725  0.0643529047976017
  0.7502146489443859  0.0698334911288541  0.9365392306119134
  0.7515328922154652  0.0808896316854231  0.5578618685382892
  0.5550675909389966  0.7507483816204399  0.9270850295625195
  0.9566673603765636  0.0632465257815937  0.2606078063591255
  0.4190511770985665  0.0477783854691936  0.7664983067780184
  0.7534545542150184  0.4369974264712937  0.9479630463500754
  0.9180991870511548  0.7382388109681770  0.0536727670318058
  0.4527911964341982  0.2512079146881732  0.0597251895032400
  0.0378168167571360  0.9298563650675575  0.7373036568563478
  0.9672835737844423  0.4321831719818690  0.2342005805109437
  0.0403432438356077  0.5642364777089881  0.7651047842398881
  0.5770064422174244  0.9498297451308630  0.2307290422646986
  0.5719195227097131  0.5527888239090757  0.2336832524027415
  0.4235012755148304  0.4518354897908026  0.7687209423220125
  0.0866885347437787  0.2598759497490946  0.9494271733962094
  0.0872676674250314  0.2358438256172235  0.5521226619326001
  0.9093947252990802  0.7592753404157051  0.4462153335493468
  0.4295665566520839  0.2456835574436411  0.4300642871098290
  0.5718342212606444  0.7469728263910014  0.5687199452866949
 
  0.00000000E+00  0.00000000E+00  0.00000000E+00
  0.00000000E+00  0.00000000E+00  0.00000000E+00
  0.00000000E+00  0.00000000E+00  0.00000000E+00
  0.00000000E+00  0.00000000E+00  0.00000000E+00
  0.00000000E+00  0.00000000E+00  0.00000000E+00
  0.00000000E+00  0.00000000E+00  0.00000000E+00
  0.00000000E+00  0.00000000E+00  0.00000000E+00
  0.00000000E+00  0.00000000E+00  0.00000000E+00
  0.00000000E+00  0.00000000E+00  0.00000000E+00
  0.00000000E+00  0.00000000E+00  0.00000000E+00
  0.00000000E+00  0.00000000E+00  0.00000000E+00
  0.00000000E+00  0.00000000E+00  0.00000000E+00
  0.00000000E+00  0.00000000E+00  0.00000000E+00
  0.00000000E+00  0.00000000E+00  0.00000000E+00
  0.00000000E+00  0.00000000E+00  0.00000000E+00
  0.00000000E+00  0.00000000E+00  0.00000000E+00
  0.00000000E+00  0.00000000E+00  0.00000000E+00
  0.00000000E+00  0.00000000E+00  0.00000000E+00
  0.00000000E+00  0.00000000E+00  0.00000000E+00
  0.00000000E+00  0.00000000E+00  0.00000000E+00
  0.00000000E+00  0.00000000E+00  0.00000000E+00
  0.00000000E+00  0.00000000E+00  0.00000000E+00
  0.00000000E+00  0.00000000E+00  0.00000000E+00
  0.00000000E+00  0.00000000E+00  0.00000000E+00
  0.00000000E+00  0.00000000E+00  0.00000000E+00
  0.00000000E+00  0.00000000E+00  0.00000000E+00
  0.00000000E+00  0.00000000E+00  0.00000000E+00
  0.00000000E+00  0.00000000E+00  0.00000000E+00
  0.00000000E+00  0.00000000E+00  0.00000000E+00
  0.00000000E+00  0.00000000E+00  0.00000000E+00
  0.00000000E+00  0.00000000E+00  0.00000000E+00
  0.00000000E+00  0.00000000E+00  0.00000000E+00
