                                        
   1.00000000000000     
     7.4792164122942841    0.0000018594653879   -0.0082547743747494
     0.0000018020307110    7.1943390497929371    0.0000002527450784
    -0.0334949837695553    0.0000005812860763    7.3055398820301045
   Na   Mn   O 
     2    14    24
Direct
  0.0001236866972119  0.0000002360900182  0.0009934406456071
  0.5001215152194322  0.5000003408552687  0.5009906801952509
  0.0001193905985423  0.5000007044220890  0.0000569170192059
  0.5001200557540303  0.0000001799024723  0.5000490814295864
  0.5000344932706916 -0.0000004711578792 -0.0000226956359185
  0.0000257994570469  0.5000003802801862  0.5000180128335199
  0.5000795607549289  0.5000002104152195  0.9998639908804461
  0.0000829533273611  0.0000001330853891  0.4998612965615166
  0.2501205334959635  0.2501223548990572  0.2500183822921208
  0.7501177189890419  0.7501221909123406  0.7500167902634418
  0.7501174172013239  0.2498774642772434  0.7500167115227450
  0.2501202663383351  0.7498778709638050  0.2500181999757865
  0.2499955978945264  0.2498994998220502  0.7500279489499408
  0.7499976703253776  0.7499004509923970  0.2500262081634633
  0.7499978334248019  0.2500989952524459  0.2500269511597492
  0.2499953536273193  0.7501003334876932  0.7500287917747493
  0.9879025441353512  0.3114877686620046  0.1828919535015840
  0.0121348307223647  0.6889952455804443  0.8174951996865606
  0.0121348503028709  0.3110055631796306  0.8174947796575983
  0.9879024878304458  0.6885112831829328  0.1828929107025622
  0.4878966313195557  0.8114704966826788  0.6828700130390883
  0.5121354617316533  0.1889797675892393  0.3174781903956330
  0.5121354807129284  0.8110198959066585  0.3174788759447163
  0.4878965295336751  0.1885304141707305  0.6828692554773329
  0.1875742287139198  0.0000000529334113  0.3150152466902805
  0.8116345085533195 -0.0000000738514867  0.6836531986751389
  0.6875726652321105  0.4999998639132999  0.8150182780653874
  0.3116388066604481  0.5000000240671868  0.1836657105912176
  0.1740276459989939 -0.0000003785417110  0.6949737603251858
  0.8261626042700044 -0.0000001847061183  0.3045000362092765
  0.6740247824661029  0.4999997766774599  0.1949727146305225
  0.3261545727499827  0.4999998399477832  0.8045037015867651
  0.3157133062138190  0.1856629054281527  0.9958185109042166
  0.6842661434106612  0.8141524423293977  0.0042417468669036
  0.6842659022400372  0.1858475002001548  0.0042416892133714
  0.3157135808582309  0.8143370393767222  0.9958185009084362
  0.8157095613327993  0.6856558306571487  0.4958167328656529
  0.1842615947569146  0.3141429603670872  0.5042409781618326
  0.1842615137816206  0.6858573013493292  0.5042411326856363
  0.8157099110962307  0.3143437903980816  0.4958161531838951
 
  0.00000000E+00  0.00000000E+00  0.00000000E+00
  0.00000000E+00  0.00000000E+00  0.00000000E+00
  0.00000000E+00  0.00000000E+00  0.00000000E+00
  0.00000000E+00  0.00000000E+00  0.00000000E+00
  0.00000000E+00  0.00000000E+00  0.00000000E+00
  0.00000000E+00  0.00000000E+00  0.00000000E+00
  0.00000000E+00  0.00000000E+00  0.00000000E+00
  0.00000000E+00  0.00000000E+00  0.00000000E+00
  0.00000000E+00  0.00000000E+00  0.00000000E+00
  0.00000000E+00  0.00000000E+00  0.00000000E+00
  0.00000000E+00  0.00000000E+00  0.00000000E+00
  0.00000000E+00  0.00000000E+00  0.00000000E+00
  0.00000000E+00  0.00000000E+00  0.00000000E+00
  0.00000000E+00  0.00000000E+00  0.00000000E+00
  0.00000000E+00  0.00000000E+00  0.00000000E+00
  0.00000000E+00  0.00000000E+00  0.00000000E+00
  0.00000000E+00  0.00000000E+00  0.00000000E+00
  0.00000000E+00  0.00000000E+00  0.00000000E+00
  0.00000000E+00  0.00000000E+00  0.00000000E+00
  0.00000000E+00  0.00000000E+00  0.00000000E+00
  0.00000000E+00  0.00000000E+00  0.00000000E+00
  0.00000000E+00  0.00000000E+00  0.00000000E+00
  0.00000000E+00  0.00000000E+00  0.00000000E+00
  0.00000000E+00  0.00000000E+00  0.00000000E+00
  0.00000000E+00  0.00000000E+00  0.00000000E+00
  0.00000000E+00  0.00000000E+00  0.00000000E+00
  0.00000000E+00  0.00000000E+00  0.00000000E+00
  0.00000000E+00  0.00000000E+00  0.00000000E+00
  0.00000000E+00  0.00000000E+00  0.00000000E+00
  0.00000000E+00  0.00000000E+00  0.00000000E+00
  0.00000000E+00  0.00000000E+00  0.00000000E+00
  0.00000000E+00  0.00000000E+00  0.00000000E+00
  0.00000000E+00  0.00000000E+00  0.00000000E+00
  0.00000000E+00  0.00000000E+00  0.00000000E+00
  0.00000000E+00  0.00000000E+00  0.00000000E+00
  0.00000000E+00  0.00000000E+00  0.00000000E+00
  0.00000000E+00  0.00000000E+00  0.00000000E+00
  0.00000000E+00  0.00000000E+00  0.00000000E+00
  0.00000000E+00  0.00000000E+00  0.00000000E+00
  0.00000000E+00  0.00000000E+00  0.00000000E+00
