Disodium nickel oxide                   
   1.00000000000000     
     2.7970099985799015    0.0000000090328509    0.0000454035754980
     0.0000000906526662   10.0056287137677380   -0.0000213957432008
     0.0002441557055117   -0.0000174524809273    8.1696077638496636
   Na   Ni   O 
     8     4     8
Direct
  0.9999589323131772  0.1491336011301385  0.6696465924907429
  0.9999589649245166  0.8508662972623000  0.1696469802130025
  0.4999589174597503  0.6491336789616255  0.6696464977180909
  0.4999589553586929  0.3508662792355750  0.1696471355195612
  0.9999241908728891  0.3948681475254006  0.8466541478856158
  0.9999241066991900  0.6051317359194712  0.3466539490818050
  0.4999241633830138  0.8948681951474313  0.8466539939861804
  0.4999241553504774  0.1051317517656472  0.3466540338769306
  0.0002285790380228  0.1207874905024795  0.0019227658250003
  0.0002286095238091  0.8792123410917299  0.5019225899510573
  0.5002283973002193  0.6207871716327560  0.0019221027831904
  0.5002285200952059  0.3792122657104500  0.5019226451256316
  0.9999344059477053  0.4810411235490264  0.5896170872373503
  0.9999343163734125  0.5189598196572689  0.0896162570869308
  0.4999344152801157  0.9810409018837873  0.5896168554849623
  0.4999343954602011  0.0189598691778912  0.0896163538456776
  0.9999540108999341  0.2790529992985213  0.4068599331181915
  0.9999539405380133  0.7209468158061725  0.9068600047735345
  0.4999540141431140  0.7790527108357637  0.4068595901698302
  0.4999540090385395  0.2209468269065695  0.9068602878266816
 
  0.00000000E+00  0.00000000E+00  0.00000000E+00
  0.00000000E+00  0.00000000E+00  0.00000000E+00
  0.00000000E+00  0.00000000E+00  0.00000000E+00
  0.00000000E+00  0.00000000E+00  0.00000000E+00
  0.00000000E+00  0.00000000E+00  0.00000000E+00
  0.00000000E+00  0.00000000E+00  0.00000000E+00
  0.00000000E+00  0.00000000E+00  0.00000000E+00
  0.00000000E+00  0.00000000E+00  0.00000000E+00
  0.00000000E+00  0.00000000E+00  0.00000000E+00
  0.00000000E+00  0.00000000E+00  0.00000000E+00
  0.00000000E+00  0.00000000E+00  0.00000000E+00
  0.00000000E+00  0.00000000E+00  0.00000000E+00
  0.00000000E+00  0.00000000E+00  0.00000000E+00
  0.00000000E+00  0.00000000E+00  0.00000000E+00
  0.00000000E+00  0.00000000E+00  0.00000000E+00
  0.00000000E+00  0.00000000E+00  0.00000000E+00
  0.00000000E+00  0.00000000E+00  0.00000000E+00
  0.00000000E+00  0.00000000E+00  0.00000000E+00
  0.00000000E+00  0.00000000E+00  0.00000000E+00
  0.00000000E+00  0.00000000E+00  0.00000000E+00
