Co4 O4 F8                               
   1.00000000000000     
     4.9119480134361204   -0.0002047928870863    0.0002091481519620
     0.0000221962319247    5.2654116101873347    0.0038214927893355
     0.0000178727085115   -0.0004827994174112    7.2852841946849978
   Co   O    F 
     4     4     8
Direct
  0.5133982465979017  0.9976287676013982  0.0040430125080277
  0.0134719501476326  0.5024574436494618  0.9959583098031501
  0.4865480961205577  0.0024561848470839  0.5040594610268982
  0.9865162110764274  0.4975855526293742  0.4959176211067700
  0.3111795323262072  0.7000046989050048  0.9412998791188301
  0.8110311625867013  0.7998309447436327  0.0585802089170855
  0.6874059706114011  0.3015619120811763  0.4416556167940797
  0.1873690011026383  0.1984694792176356  0.5583849491679942
  0.6757445946566705  0.3188705052966228  0.0558385929019778
  0.1756392957437356  0.1809665114759866  0.9442159277586413
  0.3257177508950377  0.6799076526782244  0.5550941887410445
  0.8257840787565698  0.8201452893277761  0.4449579566632806
  0.1184811242602919  0.4786684193449844  0.2487588391595139
  0.8816445266168174  0.5209631860558375  0.7489122564816881
  0.6184188684587895  0.0214178526516235  0.7512155711958286
  0.3816495900426276  0.9790655994941773  0.2511076086551967
 
  0.00000000E+00  0.00000000E+00  0.00000000E+00
  0.00000000E+00  0.00000000E+00  0.00000000E+00
  0.00000000E+00  0.00000000E+00  0.00000000E+00
  0.00000000E+00  0.00000000E+00  0.00000000E+00
  0.00000000E+00  0.00000000E+00  0.00000000E+00
  0.00000000E+00  0.00000000E+00  0.00000000E+00
  0.00000000E+00  0.00000000E+00  0.00000000E+00
  0.00000000E+00  0.00000000E+00  0.00000000E+00
  0.00000000E+00  0.00000000E+00  0.00000000E+00
  0.00000000E+00  0.00000000E+00  0.00000000E+00
  0.00000000E+00  0.00000000E+00  0.00000000E+00
  0.00000000E+00  0.00000000E+00  0.00000000E+00
  0.00000000E+00  0.00000000E+00  0.00000000E+00
  0.00000000E+00  0.00000000E+00  0.00000000E+00
  0.00000000E+00  0.00000000E+00  0.00000000E+00
  0.00000000E+00  0.00000000E+00  0.00000000E+00
