Na4 Fe4 O8 F4                           
   1.00000000000000     
     5.4398540598425589    0.0742764252096675   -0.0179459443812653
    -2.6496932704021741    4.5545223949635911    0.0524456310859858
     0.0351407114997781    0.0841459802798257    9.0941275396556325
   Na   Fe   O    F 
     4     4     8     4
Direct
  0.0092166803333847  0.9324103992084685  0.0095253430500435
  0.9991805103822550  0.0419874982780853  0.4682241012166287
  0.2934144424910116  0.6417386000998435  0.2575792439190642
  0.7000962530441865  0.3605798317159847  0.7390739547412359
  0.3184493113026954  0.7226941348371710  0.6128844167474601
  0.6653998230757575  0.3548919756733525  0.3940275626245293
  0.6441951240300584  0.2799287143422683  0.1077971720515763
  0.3606854013275121  0.6428954251090252  0.8942165297262089
  0.4515537213462932  0.9102902563430463  0.0390703127288028
  0.5779136449913143  0.4782817732449910  0.9636510099388793
  0.4327597830360192  0.0838994065518824  0.5278003792744240
  0.0072584852970855  0.5131798368825179  0.4992319047462583
  0.8225839976030866  0.5994300475458860  0.2273300992140631
  0.2682992573159277  0.4113097420323232  0.7285168051396526
  0.7124368241905068  0.1081441366652009  0.2773092650872603
  0.1752478886260077  0.7977610738291323  0.7939152832689538
  0.0141137785084439  0.3548380526308744  0.0119717991383318
  0.5638936352755608  0.6363298545617149  0.4674529411765847
  0.2985103058141010  0.2144233185918219  0.2482875465403551
  0.6847911320087993  0.9149859218564024  0.7321343296697013
 
  0.00000000E+00  0.00000000E+00  0.00000000E+00
  0.00000000E+00  0.00000000E+00  0.00000000E+00
  0.00000000E+00  0.00000000E+00  0.00000000E+00
  0.00000000E+00  0.00000000E+00  0.00000000E+00
  0.00000000E+00  0.00000000E+00  0.00000000E+00
  0.00000000E+00  0.00000000E+00  0.00000000E+00
  0.00000000E+00  0.00000000E+00  0.00000000E+00
  0.00000000E+00  0.00000000E+00  0.00000000E+00
  0.00000000E+00  0.00000000E+00  0.00000000E+00
  0.00000000E+00  0.00000000E+00  0.00000000E+00
  0.00000000E+00  0.00000000E+00  0.00000000E+00
  0.00000000E+00  0.00000000E+00  0.00000000E+00
  0.00000000E+00  0.00000000E+00  0.00000000E+00
  0.00000000E+00  0.00000000E+00  0.00000000E+00
  0.00000000E+00  0.00000000E+00  0.00000000E+00
  0.00000000E+00  0.00000000E+00  0.00000000E+00
  0.00000000E+00  0.00000000E+00  0.00000000E+00
  0.00000000E+00  0.00000000E+00  0.00000000E+00
  0.00000000E+00  0.00000000E+00  0.00000000E+00
  0.00000000E+00  0.00000000E+00  0.00000000E+00
