Na4 V4 O8 F4                            
   1.00000000000000     
     5.2615799225158186   -0.0129628836244309   -0.0202420048734904
    -0.0082459438721010    5.3116729945713566    0.0149568292511567
    -0.0268221561147175    0.0158315680232638    7.6474170029567983
   Na   V    O    F 
     4     4     8     4
Direct
  0.9906323436346582  0.0409792146526442  0.2495644298484549
  0.0123537074563203  0.9847813525966131  0.7383148061900187
  0.4798508781686337  0.4620140401405166  0.7550985997890081
  0.5065362384880743  0.5220197074951898  0.2466209240572184
  0.5061613111901409  0.9863640428598117  0.0126204789711579
  0.9765889082292105  0.5220389659768401  0.9837981837268401
  0.5056824245812734  0.0198883865775770  0.4768619376430152
  0.9845789919143755  0.4951893696258693  0.5099903658805047
  0.6977186676693350  0.2705980191346171  0.0317443451546069
  0.2828724303474033  0.7303579301815191  0.9633317810371551
  0.7868729147518536  0.7755922818956833  0.0492758337156900
  0.7246910107042055  0.2775660393434478  0.4598261534130330
  0.8063721523292173  0.7763558573423879  0.4691464690107026
  0.2292695180935880  0.2389724119244931  0.5306601915140092
  0.9280578758194409  0.5009785760490502  0.7553696988402763
  0.4232931059986811  0.9690073018901160  0.2575569028092701
  0.2036269044762378  0.2146494732062862  0.9627098419077669
  0.2954655914645699  0.7252549762343605  0.5557483970942130
  0.0804894775066174  0.4747080637757932  0.2439852764169075
  0.5788855471761636  0.0126839890971908  0.7477753829801443
 
  0.00000000E+00  0.00000000E+00  0.00000000E+00
  0.00000000E+00  0.00000000E+00  0.00000000E+00
  0.00000000E+00  0.00000000E+00  0.00000000E+00
  0.00000000E+00  0.00000000E+00  0.00000000E+00
  0.00000000E+00  0.00000000E+00  0.00000000E+00
  0.00000000E+00  0.00000000E+00  0.00000000E+00
  0.00000000E+00  0.00000000E+00  0.00000000E+00
  0.00000000E+00  0.00000000E+00  0.00000000E+00
  0.00000000E+00  0.00000000E+00  0.00000000E+00
  0.00000000E+00  0.00000000E+00  0.00000000E+00
  0.00000000E+00  0.00000000E+00  0.00000000E+00
  0.00000000E+00  0.00000000E+00  0.00000000E+00
  0.00000000E+00  0.00000000E+00  0.00000000E+00
  0.00000000E+00  0.00000000E+00  0.00000000E+00
  0.00000000E+00  0.00000000E+00  0.00000000E+00
  0.00000000E+00  0.00000000E+00  0.00000000E+00
  0.00000000E+00  0.00000000E+00  0.00000000E+00
  0.00000000E+00  0.00000000E+00  0.00000000E+00
  0.00000000E+00  0.00000000E+00  0.00000000E+00
  0.00000000E+00  0.00000000E+00  0.00000000E+00
