Na4 Ni4 O8 F4                           
   1.00000000000000     
     5.1191560343576876    0.0781017536068536   -0.0766300712881522
     0.0706564048430871    5.1787886003423234    0.0144905785531042
     0.2036669956152771    0.1807539015276934    7.9098302487759957
   Na   Ni   O    F 
     4     4     8     4
Direct
  0.9970226217304045  0.0198969556823518  0.2341666952410779
  0.9808037737035017  0.9722108663175130  0.7489331475745257
  0.4927608981020213  0.4717934627646440  0.7598098699892497
  0.5241068883810368  0.5488627593531599  0.2531169692299597
  0.4682953873486451  0.0172232261417179  0.0016632416906341
  0.9960013632462992  0.5022447575085002  0.9973296176416115
  0.5101484076631332  0.0024611778715745  0.5023237691934709
  0.0029681312052157  0.5014306053897695  0.5055469980159687
  0.0597389615608725  0.4848452746735689  0.2225213357780428
  0.9688789480176971  0.5173087331827861  0.7614940732468735
  0.6864265084595870  0.3209258166961383  0.0256535449668919
  0.3042824240470643  0.6669379261484664  0.0004865185628324
  0.1470163001331844  0.1999513604005791  0.9558890921087617
  0.7053350776377637  0.2974874359569289  0.4725320578863483
  0.8257541864288537  0.8331317325539221  0.4714172652160326
  0.1984013428508448  0.1794924192459389  0.5380868246616218
  0.5430184747296106  0.9897421024573125  0.7537037079921002
  0.4385980683064797  0.9897136700380624  0.2530804294681473
  0.8043951286504207  0.8125431624655888  0.0249730485281905
  0.3460471077973851  0.6717965551514689  0.5172717930076727
 
  0.00000000E+00  0.00000000E+00  0.00000000E+00
  0.00000000E+00  0.00000000E+00  0.00000000E+00
  0.00000000E+00  0.00000000E+00  0.00000000E+00
  0.00000000E+00  0.00000000E+00  0.00000000E+00
  0.00000000E+00  0.00000000E+00  0.00000000E+00
  0.00000000E+00  0.00000000E+00  0.00000000E+00
  0.00000000E+00  0.00000000E+00  0.00000000E+00
  0.00000000E+00  0.00000000E+00  0.00000000E+00
  0.00000000E+00  0.00000000E+00  0.00000000E+00
  0.00000000E+00  0.00000000E+00  0.00000000E+00
  0.00000000E+00  0.00000000E+00  0.00000000E+00
  0.00000000E+00  0.00000000E+00  0.00000000E+00
  0.00000000E+00  0.00000000E+00  0.00000000E+00
  0.00000000E+00  0.00000000E+00  0.00000000E+00
  0.00000000E+00  0.00000000E+00  0.00000000E+00
  0.00000000E+00  0.00000000E+00  0.00000000E+00
  0.00000000E+00  0.00000000E+00  0.00000000E+00
  0.00000000E+00  0.00000000E+00  0.00000000E+00
  0.00000000E+00  0.00000000E+00  0.00000000E+00
  0.00000000E+00  0.00000000E+00  0.00000000E+00
