V4 O4 F8                                
   1.00000000000000     
     5.1685620824136143    0.0004555338771724    0.0555059303910098
    -0.0097709133600656    5.2795698393148873    0.0156806733240576
    -0.0103926830134375   -0.0070245731860117    7.3207542052325065
   V    O    F 
     4     4     8
Direct
  0.5046200502748086  0.9983093366794052  0.9796204512560363
  0.9809920709037162  0.5231554464561858  0.0085762807832021
  0.5230472942164820  0.0303393384371786  0.4985363005390607
  0.0124957626419822  0.5000653029434244  0.4809589745452647
  0.7934146099938635  0.7782811116039440  0.0335843718970454
  0.7051842638224909  0.2859200449667452  0.4647467449528618
  0.0745187477649633  0.4858700952317504  0.2563765731208761
  0.5666994582294077  0.0198618059437922  0.7559580798551165
  0.6968272156115412  0.2896208927472786  0.0532355331017902
  0.3004127200380771  0.6940078912097731  0.9572917364193735
  0.1901979244118285  0.2058415924340926  0.9697314018757246
  0.3062799340530375  0.7114317704541200  0.5430078276949397
  0.8032668258491314  0.7973393150598402  0.4608936470099427
  0.1997233216994891  0.1992188509444558  0.5446812945451890
  0.9253382885318489  0.5044066608072154  0.7457581752445716
  0.4169815119573179  0.9763305440808129  0.2470426071590048
 
  0.00000000E+00  0.00000000E+00  0.00000000E+00
  0.00000000E+00  0.00000000E+00  0.00000000E+00
  0.00000000E+00  0.00000000E+00  0.00000000E+00
  0.00000000E+00  0.00000000E+00  0.00000000E+00
  0.00000000E+00  0.00000000E+00  0.00000000E+00
  0.00000000E+00  0.00000000E+00  0.00000000E+00
  0.00000000E+00  0.00000000E+00  0.00000000E+00
  0.00000000E+00  0.00000000E+00  0.00000000E+00
  0.00000000E+00  0.00000000E+00  0.00000000E+00
  0.00000000E+00  0.00000000E+00  0.00000000E+00
  0.00000000E+00  0.00000000E+00  0.00000000E+00
  0.00000000E+00  0.00000000E+00  0.00000000E+00
  0.00000000E+00  0.00000000E+00  0.00000000E+00
  0.00000000E+00  0.00000000E+00  0.00000000E+00
  0.00000000E+00  0.00000000E+00  0.00000000E+00
  0.00000000E+00  0.00000000E+00  0.00000000E+00
