Na4 V4 O8 F4                            
   1.00000000000000     
     5.3783056553107143    0.0239850871704893    0.0041517884672985
     0.0265956613927794    5.4809489193120218   -0.0007081875417202
     0.0047907030882619   -0.0092444526568623    7.3123186223292134
   Na   V    O    F 
     4     4     8     4
Direct
  0.0002462243187549  0.0306069584687074  0.2424496454946517
  0.9950800008307826  0.9580063861276700  0.7463499487108661
  0.5067119155680785  0.4670133964928705  0.7525379695114205
  0.5015927649405959  0.5368414776154388  0.2499952891508816
  0.5140849395192620  0.9758363539319163  0.0004119161734983
  0.0187125710010170  0.5370515633469579 -0.0006467490497601
  0.4916187644602697  0.0177721926099720  0.4997699397377980
  0.9859441994921674  0.4512748425303776  0.5002951975083506
  0.2948382105523898  0.6925985311257170  0.9738636494764416
  0.7956321381200545  0.7870301750877023  0.0305148608169209
  0.7048726761894026  0.3044985101411541  0.4698043926329836
  0.1916153109455155  0.2078052706839713  0.5346397601823500
  0.0548707451307910  0.4933093117895671  0.2614573949454998
  0.9435987213694029  0.5243235323478270  0.7397912817395513
  0.5493365516330940  0.0146732746836907  0.7442276876609411
  0.4409445481916073  0.9959738253140388  0.2561937938237072
  0.7144511148622498  0.2953117981570569  0.0317774700066953
  0.1956468938790549  0.2008027918828251  0.9680404376287997
  0.3006518923030881  0.7026196551579790  0.5335816358157985
  0.7995498166924218  0.8066501525045534  0.4649444780326049
 
  0.00000000E+00  0.00000000E+00  0.00000000E+00
  0.00000000E+00  0.00000000E+00  0.00000000E+00
  0.00000000E+00  0.00000000E+00  0.00000000E+00
  0.00000000E+00  0.00000000E+00  0.00000000E+00
  0.00000000E+00  0.00000000E+00  0.00000000E+00
  0.00000000E+00  0.00000000E+00  0.00000000E+00
  0.00000000E+00  0.00000000E+00  0.00000000E+00
  0.00000000E+00  0.00000000E+00  0.00000000E+00
  0.00000000E+00  0.00000000E+00  0.00000000E+00
  0.00000000E+00  0.00000000E+00  0.00000000E+00
  0.00000000E+00  0.00000000E+00  0.00000000E+00
  0.00000000E+00  0.00000000E+00  0.00000000E+00
  0.00000000E+00  0.00000000E+00  0.00000000E+00
  0.00000000E+00  0.00000000E+00  0.00000000E+00
  0.00000000E+00  0.00000000E+00  0.00000000E+00
  0.00000000E+00  0.00000000E+00  0.00000000E+00
  0.00000000E+00  0.00000000E+00  0.00000000E+00
  0.00000000E+00  0.00000000E+00  0.00000000E+00
  0.00000000E+00  0.00000000E+00  0.00000000E+00
  0.00000000E+00  0.00000000E+00  0.00000000E+00
