Na4 Ti4 O8 F4                           
   1.00000000000000     
     5.4200278838383706    0.1234025888167710    0.0000000552128202
     0.1230809368749402    5.4978541556096561   -0.0000000975652175
     0.0000000613430407   -0.0000001316075118    7.5028191380405733
   Na   Ti   O    F 
     4     4     8     4
Direct
  0.0036362953189732  0.0121946689967410  0.2499998809529370
  0.9963660522828193  0.9878024259592744  0.7500001087308789
  0.4960591289379911  0.4536210818328046  0.7500000288437265
  0.5039337597839395  0.5463810419566079  0.2499999350340512
  0.5000374979743704  0.9999808641402779 -0.0000058351821563
 -0.0000012959825966  0.4999866919414786 -0.0000110435759431
  0.5000375846658667  0.9999806637025543  0.5000055142519769
 -0.0000012064212717  0.4999865276995801  0.5000111321671252
  0.2111322348508135  0.2118920171987587  0.9714014402384910
  0.7888752058205729  0.7881369813916610  0.0285963380857025
  0.7888751406521460  0.7881368781214082  0.4714037670363537
  0.2111322700765383  0.2118920143908958  0.5285985854358929
  0.0735323138518358  0.5024300021108511  0.2499999899818059
  0.9264541295964849  0.4975701815511333  0.7500000556701373
  0.5684423025589127  0.0309565423507345  0.7499999971698633
  0.4315256003740058  0.9690432273590984  0.2499999965666934
  0.7038444489808215  0.2944935187151714  0.0504300314936259
  0.2961370956418025  0.7055105937017727  0.9495586504273259
  0.2961370387595758  0.7055106384416878  0.5504414234251253
  0.7038444022763982  0.2944934384375085  0.4495700032463937
 
  0.00000000E+00  0.00000000E+00  0.00000000E+00
  0.00000000E+00  0.00000000E+00  0.00000000E+00
  0.00000000E+00  0.00000000E+00  0.00000000E+00
  0.00000000E+00  0.00000000E+00  0.00000000E+00
  0.00000000E+00  0.00000000E+00  0.00000000E+00
  0.00000000E+00  0.00000000E+00  0.00000000E+00
  0.00000000E+00  0.00000000E+00  0.00000000E+00
  0.00000000E+00  0.00000000E+00  0.00000000E+00
  0.00000000E+00  0.00000000E+00  0.00000000E+00
  0.00000000E+00  0.00000000E+00  0.00000000E+00
  0.00000000E+00  0.00000000E+00  0.00000000E+00
  0.00000000E+00  0.00000000E+00  0.00000000E+00
  0.00000000E+00  0.00000000E+00  0.00000000E+00
  0.00000000E+00  0.00000000E+00  0.00000000E+00
  0.00000000E+00  0.00000000E+00  0.00000000E+00
  0.00000000E+00  0.00000000E+00  0.00000000E+00
  0.00000000E+00  0.00000000E+00  0.00000000E+00
  0.00000000E+00  0.00000000E+00  0.00000000E+00
  0.00000000E+00  0.00000000E+00  0.00000000E+00
  0.00000000E+00  0.00000000E+00  0.00000000E+00
