Mn4 O4 F8                               
   1.00000000000000     
     4.9235505555732075   -0.0508396250844777    0.0279196938548367
    -0.0248391226206520    5.1957038263625233   -0.0287390295292604
     0.0578554516750319   -0.0519415649351404    6.9538492762245401
   Mn   O    F 
     4     4     8
Direct
  0.5021856484842223  0.0002096788308386  0.0061095649020467
  0.0071926451072796  0.4990092398149741  0.0133986339232926
  0.5058791406585978  0.0088883384800395  0.4885349654108722
  0.9876250061238984  0.4843332887171957  0.4860625211072160
  0.1318159813951387  0.4667029004470453  0.2499753673201477
  0.6185279367623947  0.0236355597176252  0.7497395672587417
  0.3825285040192640  0.9702887164573989  0.2509431232678294
  0.6817163341737784  0.3098633844157067  0.4411692042095864
  0.8821072832138641  0.5264592331398823  0.7529607500060775
  0.6871071458354070  0.3321351644155218  0.0637123800303880
  0.3169098889651115  0.6692100271992713  0.9361921106326068
  0.1641099501297908  0.1960102329589573  0.9394340315647152
  0.8419348837067927  0.8045810643782496  0.0635717967949799
  0.2944712598835931  0.7075840834751282  0.5576935381858902
  0.8083645316328684  0.8007381163954983  0.4409620988427406
  0.1875238599079917  0.2003509711566674  0.5595403465428616
 
  0.00000000E+00  0.00000000E+00  0.00000000E+00
  0.00000000E+00  0.00000000E+00  0.00000000E+00
  0.00000000E+00  0.00000000E+00  0.00000000E+00
  0.00000000E+00  0.00000000E+00  0.00000000E+00
  0.00000000E+00  0.00000000E+00  0.00000000E+00
  0.00000000E+00  0.00000000E+00  0.00000000E+00
  0.00000000E+00  0.00000000E+00  0.00000000E+00
  0.00000000E+00  0.00000000E+00  0.00000000E+00
  0.00000000E+00  0.00000000E+00  0.00000000E+00
  0.00000000E+00  0.00000000E+00  0.00000000E+00
  0.00000000E+00  0.00000000E+00  0.00000000E+00
  0.00000000E+00  0.00000000E+00  0.00000000E+00
  0.00000000E+00  0.00000000E+00  0.00000000E+00
  0.00000000E+00  0.00000000E+00  0.00000000E+00
  0.00000000E+00  0.00000000E+00  0.00000000E+00
  0.00000000E+00  0.00000000E+00  0.00000000E+00
