Disodium hexafluorotitanate             
   1.00000000000000     
     9.1244426571432165    0.0005382808636556    0.0019967314700001
    -4.5617491878725023    7.9027938629907073   -0.0013398724406524
     0.0012238565415075   -0.0001675990583182    5.0288128617980163
   Ti   Na   F 
     3     6    18
Direct
  0.9999134165254873  0.0010779341472968  0.0000200221286946
  0.3335620839812421  0.6684802874782534  0.4969275359855914
  0.6664954166377086  0.3347670870801451  0.5029678610343069
  0.6279162754695662  0.0014177620478790  0.9984167724202706
  0.3719198625202083  0.3735407659557737  0.0012699458383665
  0.9998544244780234  0.6294041954499718  0.9999624548762256
  0.2918802977061574  0.0010448342869296  0.5001457890826089
  0.7079534273631083  0.7084638657227060  0.4996405856355608
  0.0004219982633273  0.2937582144731223  0.5014304660098787
  0.1110869982353506  0.1971821703280909  0.2132517954691977
  0.8888291882038004  0.0859472303902393  0.7867254462494202
  0.8039009937540769  0.9167598371529664  0.2133116158194213
  0.1959400265581550  0.1128866164606848  0.7867498584595864
  0.0842627716969560  0.8897231174734870  0.2137479640995323
  0.9156666862729352  0.8054361354166701  0.7859598878432266
  0.1380509996690051  0.5488796086568115  0.2837340407523428
  0.8619125044903768  0.4108797023000079  0.7164829243323041
  0.4529686291319024  0.5927472349996776  0.2827475000186936
  0.5469855185215451  0.1398259781466180  0.7170917558883829
  0.4091934383818057  0.8636499778465421  0.2829787140367230
  0.5906808171262199  0.4543957974644357  0.7166597086622772
  0.2476842581385128  0.4719336192614207  0.7106155738093847
  0.7525329083229551  0.2240591799895952  0.2897195876081753
  0.2231336422232886  0.7545019101796342  0.7110594929879568
  0.7770483143284892  0.5310911565113088  0.2887579263807893
  0.5300569185832984  0.7788253952941133  0.7103727789103687
  0.4701482054164998  0.2488203674855995  0.2892519576607029
 
  0.00000000E+00  0.00000000E+00  0.00000000E+00
  0.00000000E+00  0.00000000E+00  0.00000000E+00
  0.00000000E+00  0.00000000E+00  0.00000000E+00
  0.00000000E+00  0.00000000E+00  0.00000000E+00
  0.00000000E+00  0.00000000E+00  0.00000000E+00
  0.00000000E+00  0.00000000E+00  0.00000000E+00
  0.00000000E+00  0.00000000E+00  0.00000000E+00
  0.00000000E+00  0.00000000E+00  0.00000000E+00
  0.00000000E+00  0.00000000E+00  0.00000000E+00
  0.00000000E+00  0.00000000E+00  0.00000000E+00
  0.00000000E+00  0.00000000E+00  0.00000000E+00
  0.00000000E+00  0.00000000E+00  0.00000000E+00
  0.00000000E+00  0.00000000E+00  0.00000000E+00
  0.00000000E+00  0.00000000E+00  0.00000000E+00
  0.00000000E+00  0.00000000E+00  0.00000000E+00
  0.00000000E+00  0.00000000E+00  0.00000000E+00
  0.00000000E+00  0.00000000E+00  0.00000000E+00
  0.00000000E+00  0.00000000E+00  0.00000000E+00
  0.00000000E+00  0.00000000E+00  0.00000000E+00
  0.00000000E+00  0.00000000E+00  0.00000000E+00
  0.00000000E+00  0.00000000E+00  0.00000000E+00
  0.00000000E+00  0.00000000E+00  0.00000000E+00
  0.00000000E+00  0.00000000E+00  0.00000000E+00
  0.00000000E+00  0.00000000E+00  0.00000000E+00
  0.00000000E+00  0.00000000E+00  0.00000000E+00
  0.00000000E+00  0.00000000E+00  0.00000000E+00
  0.00000000E+00  0.00000000E+00  0.00000000E+00
