Tetrasodium cobaltate(IV)               
   1.00000000000000     
     8.5361857337600977   -0.0068819097493548   -0.0016378225042261
    -0.9036096825809428    5.5487267737658010   -0.0054587795374366
    -0.8884399863451075   -3.7133535839483049    5.0320260367679142
   Na   Co   O 
     8     2     8
Direct
  0.9263048358255261  0.0940709020811141  0.5648598094977118
  0.1439202714612193  0.6276098942157162  0.1085568352724735
  0.5680207863903775  0.7794850471214758  0.7560673026514095
  0.7318676930277448  0.4515311977503913  0.9208477742744776
  0.3166992914872111  0.2266842230764681  0.6792571274482384
  0.7616923218096403  0.4193680512959901  0.3941087991360561
  0.3518704061302813  0.2463286423901323  0.2102115134829319
  0.1778045905100285  0.6485204658065555  0.6386974750893373
  0.9938530610622252  0.0013191877862440  0.0042307594936375
  0.5017622950558120  0.8711853162185861  0.3144466952920766
  0.6753306049880621  0.7354433512164391  0.3139661947311652
  0.5512172244933424  0.2732742464735551  0.5227146396691751
  0.3871016727645014  0.7467762504551985  0.9918219651276274
  0.3644264992903885  0.7540803823951521  0.4518515725548866
  0.1077954961031864  0.1262792983956516  0.3273930392979310
  0.9430393170640841  0.5990878168574767  0.7939306335990324
  0.8203140396647939  0.1373400127257867  0.0016519777343902
  0.1313795898715924  0.1192155987380801  0.8670859786474381
 
  0.00000000E+00  0.00000000E+00  0.00000000E+00
  0.00000000E+00  0.00000000E+00  0.00000000E+00
  0.00000000E+00  0.00000000E+00  0.00000000E+00
  0.00000000E+00  0.00000000E+00  0.00000000E+00
  0.00000000E+00  0.00000000E+00  0.00000000E+00
  0.00000000E+00  0.00000000E+00  0.00000000E+00
  0.00000000E+00  0.00000000E+00  0.00000000E+00
  0.00000000E+00  0.00000000E+00  0.00000000E+00
  0.00000000E+00  0.00000000E+00  0.00000000E+00
  0.00000000E+00  0.00000000E+00  0.00000000E+00
  0.00000000E+00  0.00000000E+00  0.00000000E+00
  0.00000000E+00  0.00000000E+00  0.00000000E+00
  0.00000000E+00  0.00000000E+00  0.00000000E+00
  0.00000000E+00  0.00000000E+00  0.00000000E+00
  0.00000000E+00  0.00000000E+00  0.00000000E+00
  0.00000000E+00  0.00000000E+00  0.00000000E+00
  0.00000000E+00  0.00000000E+00  0.00000000E+00
  0.00000000E+00  0.00000000E+00  0.00000000E+00
