Ti4 O4 F8                               
   1.00000000000000     
     5.3147474471059510   -0.0339576829644521   -0.0032599160820218
    -0.0326953752348480    5.4437101485361099   -0.0177933637085139
    -0.0005903197467622   -0.0363162723620546    7.3411718518011142
   Ti   O    F 
     4     4     8
Direct
  0.5035842207599508  0.0000200349935402  0.9953287911946934
  0.9965669784503336  0.5024826291174520  0.9849694695969542
  0.5036346121582808  0.0094596073323719  0.4898021424866246
  0.9768821719193385  0.4864852657698596  0.5024589372628442
  0.9202044737841897  0.5173127776780501  0.7555226277990850
  0.5627227456420887  0.0075614712204079  0.7562383900589483
  0.4275911967239217  0.9861362527076017  0.2474194902374454
  0.7204487765039438  0.2839180670049893  0.4605078249234016
  0.0884854702567741  0.4937398192544268  0.2475636203437377
  0.7115752615188963  0.2963167232405861  0.0503248078265627
  0.3020924027692688  0.6940791048951058  0.9627704613118359
  0.1991249747169456  0.2081946232026690  0.9642313735885725
  0.8043165566733409  0.7923700977860040  0.0473184962063107
  0.2792789165392761  0.7163657215037252  0.5370549950860730
  0.7905506683418653  0.7839954680143201  0.4569404515255348
  0.2129405732415853  0.2215623362788760  0.5415481205513685
 
  0.00000000E+00  0.00000000E+00  0.00000000E+00
  0.00000000E+00  0.00000000E+00  0.00000000E+00
  0.00000000E+00  0.00000000E+00  0.00000000E+00
  0.00000000E+00  0.00000000E+00  0.00000000E+00
  0.00000000E+00  0.00000000E+00  0.00000000E+00
  0.00000000E+00  0.00000000E+00  0.00000000E+00
  0.00000000E+00  0.00000000E+00  0.00000000E+00
  0.00000000E+00  0.00000000E+00  0.00000000E+00
  0.00000000E+00  0.00000000E+00  0.00000000E+00
  0.00000000E+00  0.00000000E+00  0.00000000E+00
  0.00000000E+00  0.00000000E+00  0.00000000E+00
  0.00000000E+00  0.00000000E+00  0.00000000E+00
  0.00000000E+00  0.00000000E+00  0.00000000E+00
  0.00000000E+00  0.00000000E+00  0.00000000E+00
  0.00000000E+00  0.00000000E+00  0.00000000E+00
  0.00000000E+00  0.00000000E+00  0.00000000E+00
