Disodium trimanganate(IV)               
   1.00000000000000     
     6.5815979972880490    0.0361460908690812    0.0136875086113238
    -2.4705507770914634    6.3309351772698959   -0.0179000386924607
    -2.1984964128745248   -3.0596639278698032    6.5315177434881884
   Na   Mn   O 
     4     6    14
Direct
  0.2565902444517079  0.6900871149445607  0.4922564744186033
  0.7434738571032682  0.3098921936357399  0.5078213271298537
  0.3393457651224381  0.8266958322854521  0.0807363231370317
  0.6607511019167873  0.1733987678031141  0.9192830615215470
  0.0751240132643787  0.0809156506687785  0.2204741128298409
  0.9248678708223821  0.9190472616196956  0.7795153798960754
  0.3579146138914524  0.3611323143367926  0.0810997182400186
  0.6420193076242597  0.6388588650453499  0.9188944012121141
  0.2193185019441586  0.2193663206720586  0.6417341430688097
  0.7806464337767736  0.7805478328752429  0.3582112468565128
  0.3875116246105250  0.2008357813949573  0.2412663671373068
  0.6124857890431059  0.7992405107116625  0.7588133089481204
  0.7361152212750994  0.9134941265553920  0.1597639533947302
  0.2639079618116114  0.0864944381583399  0.8402078345837580
  0.0268568793227857  0.2066633750063076  0.0234983080835676
  0.9732140821472868  0.7933474147276698  0.9765341866590163
  0.1253483975113596  0.3199927149540827  0.4436051817209545
  0.8745017584692079  0.6799280741636835  0.5563668239573687
  0.6900595965595073  0.5101697035399866  0.1265599836224709
  0.3099130740498452  0.4898627960338047  0.8733668239962356
  0.1238533523731888  0.9441690187673473  0.4077252180017297
  0.8762131044857213  0.0557986047179213  0.5922811669152850
  0.4523905067713301  0.6445296660420539  0.2861509714963972
  0.5475769976518023  0.3555316863400293  0.7138336821726554
 
  0.00000000E+00  0.00000000E+00  0.00000000E+00
  0.00000000E+00  0.00000000E+00  0.00000000E+00
  0.00000000E+00  0.00000000E+00  0.00000000E+00
  0.00000000E+00  0.00000000E+00  0.00000000E+00
  0.00000000E+00  0.00000000E+00  0.00000000E+00
  0.00000000E+00  0.00000000E+00  0.00000000E+00
  0.00000000E+00  0.00000000E+00  0.00000000E+00
  0.00000000E+00  0.00000000E+00  0.00000000E+00
  0.00000000E+00  0.00000000E+00  0.00000000E+00
  0.00000000E+00  0.00000000E+00  0.00000000E+00
  0.00000000E+00  0.00000000E+00  0.00000000E+00
  0.00000000E+00  0.00000000E+00  0.00000000E+00
  0.00000000E+00  0.00000000E+00  0.00000000E+00
  0.00000000E+00  0.00000000E+00  0.00000000E+00
  0.00000000E+00  0.00000000E+00  0.00000000E+00
  0.00000000E+00  0.00000000E+00  0.00000000E+00
  0.00000000E+00  0.00000000E+00  0.00000000E+00
  0.00000000E+00  0.00000000E+00  0.00000000E+00
  0.00000000E+00  0.00000000E+00  0.00000000E+00
  0.00000000E+00  0.00000000E+00  0.00000000E+00
  0.00000000E+00  0.00000000E+00  0.00000000E+00
  0.00000000E+00  0.00000000E+00  0.00000000E+00
  0.00000000E+00  0.00000000E+00  0.00000000E+00
  0.00000000E+00  0.00000000E+00  0.00000000E+00
