Na4 V4 O8 F4                            
   1.00000000000000     
     5.3992597032198288   -0.0199313144066972   -0.0085004683442235
    -0.0087493999948504    5.4372185147255712   -0.0026434542981842
    -0.0275068376176760   -0.0024140111599996    7.3094658793028149
   Na   V    O    F 
     4     4     8     4
Direct
  0.0087045833917275  0.0437203004879632  0.2470846860867998
  0.0008860264345668  0.9896562528696440  0.7498150033406977
  0.4923437212913087  0.4546051289743157  0.7532106763759637
  0.4805641842613523  0.5177321051273778  0.2554249018555903
  0.4993198964166379  0.9590904465613571  0.9979448089475397
  0.9931435670564882  0.5286880795528666  0.0003953395716615
  0.5312504871617613  0.0101623658990525  0.4962010435358513
  0.9667346367240489  0.5153431487072885  0.4956896852893268
  0.2944005016192297  0.7153251698015943  0.9699223289921085
  0.7952342541903912  0.8036246197059446  0.0271352967370169
  0.7150838444424843  0.2940305720642216  0.4695760105743119
  0.8163383027928715  0.7960294616988026  0.4740520721864190
  0.0515585066700556  0.4789595969491951  0.2435268802089785
  0.9497412530156991  0.4977454313097778  0.7553895731378463
  0.5514994552387954  0.0113075070149711  0.7456796438341246
  0.4485178083098242  0.9787848479351535  0.2564449463871409
  0.6821550891663448  0.3003743496418264  0.0309169736676114
  0.2060820236529785  0.2038563568986720  0.9706507575581881
  0.3056202103094969  0.6904985203970914  0.5322277599525815
  0.2108216478539442  0.2104657384028775  0.5287116117602485
 
  0.00000000E+00  0.00000000E+00  0.00000000E+00
  0.00000000E+00  0.00000000E+00  0.00000000E+00
  0.00000000E+00  0.00000000E+00  0.00000000E+00
  0.00000000E+00  0.00000000E+00  0.00000000E+00
  0.00000000E+00  0.00000000E+00  0.00000000E+00
  0.00000000E+00  0.00000000E+00  0.00000000E+00
  0.00000000E+00  0.00000000E+00  0.00000000E+00
  0.00000000E+00  0.00000000E+00  0.00000000E+00
  0.00000000E+00  0.00000000E+00  0.00000000E+00
  0.00000000E+00  0.00000000E+00  0.00000000E+00
  0.00000000E+00  0.00000000E+00  0.00000000E+00
  0.00000000E+00  0.00000000E+00  0.00000000E+00
  0.00000000E+00  0.00000000E+00  0.00000000E+00
  0.00000000E+00  0.00000000E+00  0.00000000E+00
  0.00000000E+00  0.00000000E+00  0.00000000E+00
  0.00000000E+00  0.00000000E+00  0.00000000E+00
  0.00000000E+00  0.00000000E+00  0.00000000E+00
  0.00000000E+00  0.00000000E+00  0.00000000E+00
  0.00000000E+00  0.00000000E+00  0.00000000E+00
  0.00000000E+00  0.00000000E+00  0.00000000E+00
