Na2 Fe2 O4 F2                           
   1.00000000000000     
     3.6852600327957692    0.0000000027051766    0.0000164745388681
     0.0000000039810165    4.0858124412575130    0.0000000022070005
     0.0000308543185793    0.0000000106212211    7.3749506796890412
   Na   Fe   O    F 
     2     2     4     2
Direct
 -0.0000005221662580 -0.0000000004254155  0.0000893264406040
 -0.0000005187364480 -0.0000000001871759  0.5000894120208557
  0.4999957246985145  0.5000000020455837  0.2552985684885203
  0.4999957246791820  0.5000000017604402  0.7552985993269875
  0.4999946304324639  0.4999999981296327  0.0051092936481567
  0.4999946169014832  0.4999999966603249  0.5051093042513515
  0.0000015760369316  0.4999999991463328  0.2553240016172462
  0.0000015763267587  0.5000000013483982  0.7553239992040910
  0.5000085930449933  0.9999999990850139  0.2556787431588406
  0.5000085987823787  0.0000000024368650  0.7556787518433246
 
  0.00000000E+00  0.00000000E+00  0.00000000E+00
  0.00000000E+00  0.00000000E+00  0.00000000E+00
  0.00000000E+00  0.00000000E+00  0.00000000E+00
  0.00000000E+00  0.00000000E+00  0.00000000E+00
  0.00000000E+00  0.00000000E+00  0.00000000E+00
  0.00000000E+00  0.00000000E+00  0.00000000E+00
  0.00000000E+00  0.00000000E+00  0.00000000E+00
  0.00000000E+00  0.00000000E+00  0.00000000E+00
  0.00000000E+00  0.00000000E+00  0.00000000E+00
  0.00000000E+00  0.00000000E+00  0.00000000E+00
