Ti4 O4 F8                               
   1.00000000000000     
     5.3847803351178989    0.0000000013476399    0.0000000198931639
     0.0000000007234126    5.4919399326034428    0.0016201598545931
     0.0000000258412387   -0.0085648225797009    7.2341944138102381
   Ti   O    F 
     4     4     8
Direct
  0.5000024605746347  0.0000011369253770  0.0000003722332522
  0.0000024627930983  0.4999988646330564  0.9999996338464072
  0.5000003272745630  0.9999998119890208  0.4999995090619365
  0.0000003300613685  0.5000001848400331  0.5000004796371087
  0.0681238658943499  0.4892175905318012  0.2499419314815228
  0.9318743322629572  0.5107837980461198  0.7500585063228797
  0.5681238681220009  0.0107824093858184  0.7500580636883427
  0.4318743356276329  0.9892162053876348  0.2499414996893847
  0.7094938514872524  0.2889562400752226  0.0405000088864256
  0.2905047163199583  0.7110451528822423  0.9594994563196266
  0.2094938540699545  0.2110437651426764  0.9594999843113712
  0.7905047120630613  0.7889548436436016  0.0405005545945158
  0.2877950860057510  0.7138892241432515  0.5407942173799825
  0.7122053553385257  0.2861154529947569  0.4592054248135398
  0.7877950892002517  0.7861107763231274  0.4592057890458250
  0.2122053529046397  0.2138845430562668  0.5407945686878719
 
  0.00000000E+00  0.00000000E+00  0.00000000E+00
  0.00000000E+00  0.00000000E+00  0.00000000E+00
  0.00000000E+00  0.00000000E+00  0.00000000E+00
  0.00000000E+00  0.00000000E+00  0.00000000E+00
  0.00000000E+00  0.00000000E+00  0.00000000E+00
  0.00000000E+00  0.00000000E+00  0.00000000E+00
  0.00000000E+00  0.00000000E+00  0.00000000E+00
  0.00000000E+00  0.00000000E+00  0.00000000E+00
  0.00000000E+00  0.00000000E+00  0.00000000E+00
  0.00000000E+00  0.00000000E+00  0.00000000E+00
  0.00000000E+00  0.00000000E+00  0.00000000E+00
  0.00000000E+00  0.00000000E+00  0.00000000E+00
  0.00000000E+00  0.00000000E+00  0.00000000E+00
  0.00000000E+00  0.00000000E+00  0.00000000E+00
  0.00000000E+00  0.00000000E+00  0.00000000E+00
  0.00000000E+00  0.00000000E+00  0.00000000E+00
