Sodium manganate(VII)                   
   1.00000000000000     
     5.6197682999178147    0.0000354622369508    0.0223053628258320
     0.0000524765167941    8.2603612564544129   -0.0000474286523462
    -0.2635287508119268   -0.0000420951588264    7.0180938340012382
   Na   Mn   O 
     4     4    16
Direct
  0.2505153597983550  0.0358124934963980  0.1570166052369091
  0.7494793225916018  0.9641970752735117  0.8429681104066801
  0.2494804917453060  0.5358087749067755  0.3429847982522226
  0.7505104350019903  0.4641839479161858  0.6570057688661469
  0.2532604871234524  0.1867379074107688  0.6592568261303334
  0.7467350762186706  0.8132586130221814  0.3407502846585746
  0.2467424199922645  0.6867491261403494  0.8407399740401755
  0.7532582418257470  0.3132573174213531  0.1592606234810441
  0.2489174311497883  0.0584977165618012  0.4901519180354286
  0.7511467173840342  0.9414651647224276  0.5098496155112404
  0.2511523135249450  0.5585445375670621  0.0098309442612797
  0.7489093244446191  0.4415024676483535  0.9901562186525583
  0.9858145495831273  0.2235186771793605  0.7176094272536545
  0.0141170859476872  0.7764235786175530  0.2823935131805804
  0.5141072775646626  0.7235632632959740  0.7823919433967473
  0.4858164296750438  0.2764754370471640  0.2176130593875359
  0.8790986466596562  0.1499486479404848  0.0903380420347567
  0.1208750082864664  0.8500261109190094  0.9096315573499371
  0.6208553219759992  0.6499718262974271  0.4096414835716122
  0.3790907804265918  0.3500509924746872  0.5903470026617627
  0.4016131371184755  0.1158017199194164  0.8398902915180545
  0.5984402959027422  0.8842424839477075  0.1601374340417994
  0.0984518504058570  0.6157645800000545  0.6601422247243848
  0.9016119956529164  0.3841975512739905  0.3398923193465667
 
  0.00000000E+00  0.00000000E+00  0.00000000E+00
  0.00000000E+00  0.00000000E+00  0.00000000E+00
  0.00000000E+00  0.00000000E+00  0.00000000E+00
  0.00000000E+00  0.00000000E+00  0.00000000E+00
  0.00000000E+00  0.00000000E+00  0.00000000E+00
  0.00000000E+00  0.00000000E+00  0.00000000E+00
  0.00000000E+00  0.00000000E+00  0.00000000E+00
  0.00000000E+00  0.00000000E+00  0.00000000E+00
  0.00000000E+00  0.00000000E+00  0.00000000E+00
  0.00000000E+00  0.00000000E+00  0.00000000E+00
  0.00000000E+00  0.00000000E+00  0.00000000E+00
  0.00000000E+00  0.00000000E+00  0.00000000E+00
  0.00000000E+00  0.00000000E+00  0.00000000E+00
  0.00000000E+00  0.00000000E+00  0.00000000E+00
  0.00000000E+00  0.00000000E+00  0.00000000E+00
  0.00000000E+00  0.00000000E+00  0.00000000E+00
  0.00000000E+00  0.00000000E+00  0.00000000E+00
  0.00000000E+00  0.00000000E+00  0.00000000E+00
  0.00000000E+00  0.00000000E+00  0.00000000E+00
  0.00000000E+00  0.00000000E+00  0.00000000E+00
  0.00000000E+00  0.00000000E+00  0.00000000E+00
  0.00000000E+00  0.00000000E+00  0.00000000E+00
  0.00000000E+00  0.00000000E+00  0.00000000E+00
  0.00000000E+00  0.00000000E+00  0.00000000E+00
