Mn4 O4 F8                               
   1.00000000000000     
     4.7743288102774910    0.0575737525190196    0.0199328596409431
     0.0626130502962985    5.0647531532761780   -0.0562435000279444
     0.0356533223154011   -0.1264070894790786    7.1923677821700629
   Mn   O    F 
     4     4     8
Direct
  0.5109795100655556  0.9958458805636815  0.0010196604951012
  0.9978988774963103  0.5053940320529275  0.0001519178337062
  0.4985822176916516  0.0246279189335499  0.5007958316351184
  0.9966195895749844  0.4753953398920565  0.5014213243378660
  0.1661515164166700  0.1719465245005189  0.9390790323057145
  0.8353352384925488  0.8343566402177046  0.0572432598696380
  0.6845315438635787  0.3042949655219469  0.4334272868891355
  0.1844055741913306  0.1903423200889996  0.5753605318134253
  0.1296586115317900  0.4583137155584852  0.2599467673254365
  0.8668959891369218  0.5350072124575272  0.7411433331884608
  0.6261593863008694  0.0362404687902475  0.7518359933904545
  0.3798917386816686  0.9666442220850999  0.2477223310763045
  0.6511948203915952  0.3166375847922498  0.0618055113389867
  0.3508416767181310  0.6853521914103746  0.9331397061976984
  0.3089415475142810  0.6981415907092637  0.5550027198827102
  0.8119121619321268  0.8014593924253594  0.4409047924202431
 
  0.00000000E+00  0.00000000E+00  0.00000000E+00
  0.00000000E+00  0.00000000E+00  0.00000000E+00
  0.00000000E+00  0.00000000E+00  0.00000000E+00
  0.00000000E+00  0.00000000E+00  0.00000000E+00
  0.00000000E+00  0.00000000E+00  0.00000000E+00
  0.00000000E+00  0.00000000E+00  0.00000000E+00
  0.00000000E+00  0.00000000E+00  0.00000000E+00
  0.00000000E+00  0.00000000E+00  0.00000000E+00
  0.00000000E+00  0.00000000E+00  0.00000000E+00
  0.00000000E+00  0.00000000E+00  0.00000000E+00
  0.00000000E+00  0.00000000E+00  0.00000000E+00
  0.00000000E+00  0.00000000E+00  0.00000000E+00
  0.00000000E+00  0.00000000E+00  0.00000000E+00
  0.00000000E+00  0.00000000E+00  0.00000000E+00
  0.00000000E+00  0.00000000E+00  0.00000000E+00
  0.00000000E+00  0.00000000E+00  0.00000000E+00
