Ti4 O4 F8                               
   1.00000000000000     
     5.2685281117705163    0.1647842856049169    0.0000001109035567
     0.1632547754415109    5.3536325198251316    0.0000000704176727
     0.0000001622768556    0.0000001001213445    7.7208335114380287
   Ti   O    F 
     4     4     8
Direct
  0.4999983785364606  0.9999926303668332  0.0000009793122047
  0.0000008773779712  0.4999888291361145  0.0000027944559591
  0.4999983444633926  0.9999926289975889  0.4999990423880192
  0.0000008760488797  0.4999888613508432  0.4999971571223938
  0.2241675251115822  0.2249518352276709  0.9689611863377152
  0.7758026223819812  0.7750335932752606  0.0310360982755213
  0.7758026325956777  0.7750335702436715  0.4689639158136387
  0.2241675430544774  0.2249518260307326  0.5310387965796011
  0.7187694087065069  0.2804091680656029  0.0352944918506779
  0.2812451800804325  0.7196155850588539  0.9647269168702621
  0.2812452138231336  0.7196155464544134  0.5352731036706260
  0.7187694327525236  0.2804091308505363  0.4647055057120468
  0.0732299957269191  0.4917174784016680  0.2499999997113491
  0.9267924620685406  0.5082886730109095  0.7500000195891019
  0.5717677695654260  0.0050428348291760  0.7500000047824429
  0.4282417377060810  0.9949678087001317  0.2499999875284402
 
  0.00000000E+00  0.00000000E+00  0.00000000E+00
  0.00000000E+00  0.00000000E+00  0.00000000E+00
  0.00000000E+00  0.00000000E+00  0.00000000E+00
  0.00000000E+00  0.00000000E+00  0.00000000E+00
  0.00000000E+00  0.00000000E+00  0.00000000E+00
  0.00000000E+00  0.00000000E+00  0.00000000E+00
  0.00000000E+00  0.00000000E+00  0.00000000E+00
  0.00000000E+00  0.00000000E+00  0.00000000E+00
  0.00000000E+00  0.00000000E+00  0.00000000E+00
  0.00000000E+00  0.00000000E+00  0.00000000E+00
  0.00000000E+00  0.00000000E+00  0.00000000E+00
  0.00000000E+00  0.00000000E+00  0.00000000E+00
  0.00000000E+00  0.00000000E+00  0.00000000E+00
  0.00000000E+00  0.00000000E+00  0.00000000E+00
  0.00000000E+00  0.00000000E+00  0.00000000E+00
  0.00000000E+00  0.00000000E+00  0.00000000E+00
