Fe8 O8 F16                              
    1.000000000000000     
     7.6094074975380153    0.0002507696461255    0.0067511087244766
     0.0006264546130642    7.6951653021276805    0.0022871394643131
     0.0063286334718963    0.0027545380951892    7.7563507799226876
   Fe   O    F 
     8     8    16
Direct
  0.9914276039068042  0.0000201891737368  0.9997427851845713
  0.0000012845009005  0.0000030682189383  0.4998178887790002
  0.0085376774834930  0.4999882611408540  0.0002119051200103
  0.9999956123458511  0.5000194797472974  0.5001746037828987
  0.5051599449298905  0.9997021756206809  0.9988244345020084
  0.4996389553120852  0.9999605885590671  0.4986084270625075
  0.4948542414964183  0.5002386279064051  0.0011836811917615
  0.5003502621490112  0.5000391809977095  0.5013875316430547
  0.4999698185918127  0.2500402922743836  0.0000031364949661
  0.2649734427558769  0.5001147012170355  0.0006307392397750
  0.7350703808411185  0.9998737397384169  0.9993778050975023
  0.9998992575420187  0.2499967031485571  0.5000540904515878
  0.0000099369413147  0.7500000838503000  0.5000057201337661
  0.5000198494516251  0.2499965642335621  0.4999981734359413
  0.4999743755397671  0.7499288892772945  0.0000160799839839
  0.5000115784400463  0.7500126926492334  0.4999986888708212
  0.0002527509654502  0.0002047907095711  0.2473978707155282
  0.4925626025707074  0.0002757340901946  0.7431334364759847
  0.2475176530313969  0.9995309388153412  0.5009328968039102
  0.2487972873496246  0.5002531512047576  0.5019378564496499
  0.7469240655015587  0.5000216588650701  0.0001337422280167
  0.7524813580674746  0.5005229420200787  0.4990655874330809
  0.0000166362957940  0.7499993038706436  0.0000043015704284
  0.0025750260041384  0.0002436861426466  0.7522109748788031
  0.9974280154951263  0.4997458071440348  0.2477702954443982
  0.9997694793003632  0.4998185544935419  0.7525918862061158
  0.4915942835979232  0.9999044837874037  0.2552212279667906
  0.5074722817975100  0.4997358700194091  0.2568887170369574
  0.5084412566799589  0.5001039340997927  0.7447525535986517
  0.2530677732864272  0.9999782320816291  0.9998649302241195
  0.7511886403537400  0.9997210401633178  0.4980623191492939
  0.0000166674747797  0.2500046347390948  0.9999957128441215
 
  0.00000000E+00  0.00000000E+00  0.00000000E+00
  0.00000000E+00  0.00000000E+00  0.00000000E+00
  0.00000000E+00  0.00000000E+00  0.00000000E+00
  0.00000000E+00  0.00000000E+00  0.00000000E+00
  0.00000000E+00  0.00000000E+00  0.00000000E+00
  0.00000000E+00  0.00000000E+00  0.00000000E+00
  0.00000000E+00  0.00000000E+00  0.00000000E+00
  0.00000000E+00  0.00000000E+00  0.00000000E+00
  0.00000000E+00  0.00000000E+00  0.00000000E+00
  0.00000000E+00  0.00000000E+00  0.00000000E+00
  0.00000000E+00  0.00000000E+00  0.00000000E+00
  0.00000000E+00  0.00000000E+00  0.00000000E+00
  0.00000000E+00  0.00000000E+00  0.00000000E+00
  0.00000000E+00  0.00000000E+00  0.00000000E+00
  0.00000000E+00  0.00000000E+00  0.00000000E+00
  0.00000000E+00  0.00000000E+00  0.00000000E+00
  0.00000000E+00  0.00000000E+00  0.00000000E+00
  0.00000000E+00  0.00000000E+00  0.00000000E+00
  0.00000000E+00  0.00000000E+00  0.00000000E+00
  0.00000000E+00  0.00000000E+00  0.00000000E+00
  0.00000000E+00  0.00000000E+00  0.00000000E+00
  0.00000000E+00  0.00000000E+00  0.00000000E+00
  0.00000000E+00  0.00000000E+00  0.00000000E+00
  0.00000000E+00  0.00000000E+00  0.00000000E+00
  0.00000000E+00  0.00000000E+00  0.00000000E+00
  0.00000000E+00  0.00000000E+00  0.00000000E+00
  0.00000000E+00  0.00000000E+00  0.00000000E+00
  0.00000000E+00  0.00000000E+00  0.00000000E+00
  0.00000000E+00  0.00000000E+00  0.00000000E+00
  0.00000000E+00  0.00000000E+00  0.00000000E+00
  0.00000000E+00  0.00000000E+00  0.00000000E+00
  0.00000000E+00  0.00000000E+00  0.00000000E+00
