Mn4 O4 F8                               
   1.00000000000000     
     4.9556578949275716   -0.0502364603662629   -0.0443406464177627
    -0.0373169671685690    5.1345630194003045    0.1668089736767971
    -0.0858045856611958    0.1054905922000101    7.1528505071120483
   Mn   O    F 
     4     4     8
Direct
  0.4914558919301028  0.9798084293549434  0.0024795841307362
  0.0222265917754440  0.5026715102349367  0.0158648435056105
  0.4988918880393372  0.0118171586202528  0.5001921310181763
  0.9952097113090432  0.5170340301564116  0.4918828892941610
  0.1337232218469151  0.4626460820954886  0.2617610472184204
  0.3091892727588380  0.6882041278325588  0.9407599457679230
  0.8334433750552632  0.8406465222606297  0.4372990572785406
  0.1462571365884416  0.1724802978020762  0.5300036435135188
  0.8881612966550442  0.5230692638634374  0.7484599934540607
  0.6157403995020287  0.0462592189018993  0.7425214717755043
  0.3771789666851557  0.9543794994023946  0.2599440585387582
  0.7024450964777076  0.2844845678711876  0.0588202964616173
  0.1773487489516403  0.2003035968894114  0.9433539981106766
  0.8252874785349832  0.7846849022023293  0.0673042225720994
  0.3117659014887684  0.6649265056259495  0.5686834779146331
  0.6716750224012787  0.3665842868860861  0.4306693394455633
 
  0.00000000E+00  0.00000000E+00  0.00000000E+00
  0.00000000E+00  0.00000000E+00  0.00000000E+00
  0.00000000E+00  0.00000000E+00  0.00000000E+00
  0.00000000E+00  0.00000000E+00  0.00000000E+00
  0.00000000E+00  0.00000000E+00  0.00000000E+00
  0.00000000E+00  0.00000000E+00  0.00000000E+00
  0.00000000E+00  0.00000000E+00  0.00000000E+00
  0.00000000E+00  0.00000000E+00  0.00000000E+00
  0.00000000E+00  0.00000000E+00  0.00000000E+00
  0.00000000E+00  0.00000000E+00  0.00000000E+00
  0.00000000E+00  0.00000000E+00  0.00000000E+00
  0.00000000E+00  0.00000000E+00  0.00000000E+00
  0.00000000E+00  0.00000000E+00  0.00000000E+00
  0.00000000E+00  0.00000000E+00  0.00000000E+00
  0.00000000E+00  0.00000000E+00  0.00000000E+00
  0.00000000E+00  0.00000000E+00  0.00000000E+00
