V2 O2 F4                                
   1.00000000000000     
    -2.6353256815414592   -4.4588687038173420    0.0315428919473468
    -5.1791601110491801   -0.0528225166120608    0.0315695105095505
    -2.5745399165134244   -1.4864362467385799   -4.3617438875106735
   V    O    F 
     2     2     4
Direct
  0.0185460386286707  0.9730818147538258  0.0229175068073815
  0.5269309096601447  0.4814448254349131  0.4770732950815315
  0.2405583680735432  0.6856438849781199  0.2462906283038251
  0.8143450416844402  0.2594526685346068  0.2537173845131022
  0.6537046853214079  0.8462956931453007  0.2500010730871196
  0.3303402402055653  0.1696610790161159  0.7499982319079876
  0.1665573238751676  0.7509837683518086  0.7425270740872065
  0.7490173925510533  0.3334362657853092  0.7574748062118388
 
  0.00000000E+00  0.00000000E+00  0.00000000E+00
  0.00000000E+00  0.00000000E+00  0.00000000E+00
  0.00000000E+00  0.00000000E+00  0.00000000E+00
  0.00000000E+00  0.00000000E+00  0.00000000E+00
  0.00000000E+00  0.00000000E+00  0.00000000E+00
  0.00000000E+00  0.00000000E+00  0.00000000E+00
  0.00000000E+00  0.00000000E+00  0.00000000E+00
  0.00000000E+00  0.00000000E+00  0.00000000E+00
