Na4 Ni4 O8 F4                           
   1.00000000000000     
     5.4759736964472543   -0.3732058538775761   -0.0000265725034890
    -3.0612068940685151    4.5555201006787911   -0.0000003724545940
    -0.0000909769740695   -0.0001314941655207    9.4530089082906468
   Na   Ni   O    F 
     4     4     8     4
Direct
  0.0000061965008465  0.0000052719485049  0.9999976258521426
  0.0000210511661803 -0.0000052040169346  0.4999975879744244
  0.3603022606866423  0.6392107521928519  0.2500003132548982
  0.6392795572410196  0.3603767024545906  0.7499988935988571
  0.3286393341172871  0.6714173657025966  0.6185109268227239
  0.6714557913957241  0.3286807099433627  0.3814859733775687
  0.6714074615420905  0.3286362440708954  0.1185089391143232
  0.3286723935810689  0.6714418466041627  0.8814834436411022
  0.4999751147981026  0.0004573236042189  0.9996154214973884
  0.0004666717657673  0.4999767199446090  0.0003840316775431
  0.4999780203534589  0.0004902955932735  0.5003966620544743
  0.0004661110101967  0.4999882862604814  0.4996215400923130
  0.8348064739140041  0.6385006147500348  0.2499954854011574
  0.1650273252479402  0.3612240972883622  0.7499998368389591
  0.3612243746808758  0.1650407656999385  0.2500021593824212
  0.6385157793244122  0.8347927088132342  0.7499966450978187
  0.5002542730879357  0.5002524728016249  0.0000004115338242
  0.5002505998719372  0.5002631923552543  0.4999951759825391
  0.8376273601361208  0.1616436321653892  0.2500019253222818
  0.1616238495784036  0.8376062018235489  0.7500070014832397
 
  0.00000000E+00  0.00000000E+00  0.00000000E+00
  0.00000000E+00  0.00000000E+00  0.00000000E+00
  0.00000000E+00  0.00000000E+00  0.00000000E+00
  0.00000000E+00  0.00000000E+00  0.00000000E+00
  0.00000000E+00  0.00000000E+00  0.00000000E+00
  0.00000000E+00  0.00000000E+00  0.00000000E+00
  0.00000000E+00  0.00000000E+00  0.00000000E+00
  0.00000000E+00  0.00000000E+00  0.00000000E+00
  0.00000000E+00  0.00000000E+00  0.00000000E+00
  0.00000000E+00  0.00000000E+00  0.00000000E+00
  0.00000000E+00  0.00000000E+00  0.00000000E+00
  0.00000000E+00  0.00000000E+00  0.00000000E+00
  0.00000000E+00  0.00000000E+00  0.00000000E+00
  0.00000000E+00  0.00000000E+00  0.00000000E+00
  0.00000000E+00  0.00000000E+00  0.00000000E+00
  0.00000000E+00  0.00000000E+00  0.00000000E+00
  0.00000000E+00  0.00000000E+00  0.00000000E+00
  0.00000000E+00  0.00000000E+00  0.00000000E+00
  0.00000000E+00  0.00000000E+00  0.00000000E+00
  0.00000000E+00  0.00000000E+00  0.00000000E+00
