Na4 Cr4 O8 F4                           
   1.00000000000000     
     5.3681068382102390    0.0204955011602034   -0.0099105278419550
    -0.0144707330831524    5.4194837879626414    0.0396618728009210
     0.0120385105332140   -0.0312534691519685    7.1325621699285042
   Na   Cr   O    F 
     4     4     8     4
Direct
  0.0121748734255197  0.0461640503764496  0.2471741703392909
  0.0031635765813239  0.9763640629409281  0.7481733630721070
  0.4812489346205208  0.4467677895407373  0.7510013464202444
  0.4774624138434908  0.5075059190781196  0.2502198527612558
  0.4871236769437412  0.9627213148071558  0.0001651756150032
  0.9858476732611541  0.5452408364367985  0.0030714263391706
  0.5457890558707159  0.9860788888398642  0.4967432316455689
  0.9638304108372063  0.4878460426485012  0.4977488412317909
  0.3028642017251164  0.6974072185910123  0.9761526580770681
  0.8038966338271092  0.8108153010005148  0.0308131178160674
  0.6986102493111321  0.3005884590085632  0.4743167071632132
  0.8113676856472930  0.8024438705929571  0.4670875698585357
  0.0523241385683637  0.4836054265492586  0.2501134352979778
  0.9594632521137623  0.5166506742114331  0.7511201299539014
  0.5512426024645651  0.0136450247452384  0.7511151263182450
  0.4496678874365636  0.0016710722810472  0.2518325531336085
  0.7001516846216964  0.3139238821536028  0.0262192816561611
  0.2025188734068711  0.1953083681407748  0.9690618764249294
  0.3158037467052037  0.7007649465761668  0.5270521568209636
  0.1954484287886435  0.2044868514808770  0.5308179800549049
 
  0.00000000E+00  0.00000000E+00  0.00000000E+00
  0.00000000E+00  0.00000000E+00  0.00000000E+00
  0.00000000E+00  0.00000000E+00  0.00000000E+00
  0.00000000E+00  0.00000000E+00  0.00000000E+00
  0.00000000E+00  0.00000000E+00  0.00000000E+00
  0.00000000E+00  0.00000000E+00  0.00000000E+00
  0.00000000E+00  0.00000000E+00  0.00000000E+00
  0.00000000E+00  0.00000000E+00  0.00000000E+00
  0.00000000E+00  0.00000000E+00  0.00000000E+00
  0.00000000E+00  0.00000000E+00  0.00000000E+00
  0.00000000E+00  0.00000000E+00  0.00000000E+00
  0.00000000E+00  0.00000000E+00  0.00000000E+00
  0.00000000E+00  0.00000000E+00  0.00000000E+00
  0.00000000E+00  0.00000000E+00  0.00000000E+00
  0.00000000E+00  0.00000000E+00  0.00000000E+00
  0.00000000E+00  0.00000000E+00  0.00000000E+00
  0.00000000E+00  0.00000000E+00  0.00000000E+00
  0.00000000E+00  0.00000000E+00  0.00000000E+00
  0.00000000E+00  0.00000000E+00  0.00000000E+00
  0.00000000E+00  0.00000000E+00  0.00000000E+00
