Co4 O4 F8                               
   1.00000000000000     
     4.9761749983649395   -0.0031633252104913   -0.0113858304212311
    -0.0213665503344795    5.2128457535229042   -0.0154571867550857
     0.0438489177487512   -0.0712598753256533    7.2169300104221215
   Co   O    F 
     4     4     8
Direct
  0.5115004235193018  0.0021274429526194  0.0029984874005940
  0.0034088749339735  0.5022015618566636 -0.0003490942352292
  0.4897548739266764  0.9791979680600132  0.5054541192826405
  0.9921377680904847  0.4824066143036910  0.4937792289389009
  0.1821269910286536  0.1929338050706203  0.9525142245949810
  0.8368708045867694  0.8279895702371922  0.0551807192073034
  0.3132015734132814  0.6739033757718327  0.5575704389551254
  0.1193219394713253  0.4889065338547738  0.2492098338840562
  0.6725075248261700  0.3248992329413321  0.0559196221204568
  0.3307527265185319  0.6967630541710367  0.9351465173480392
  0.6779496955781203  0.3032638123171201  0.4432043485982908
  0.8047279953169258  0.8010390349914736  0.4325875157851975
  0.1790660438187079  0.1746003247893365  0.5659038960665456
  0.8869918750802837  0.5399426902483163  0.7500583577134567
  0.6281758058102717  0.0294924300892764  0.7475780969770188
  0.3715050840805159  0.9803325483447013  0.2532436873626225
 
  0.00000000E+00  0.00000000E+00  0.00000000E+00
  0.00000000E+00  0.00000000E+00  0.00000000E+00
  0.00000000E+00  0.00000000E+00  0.00000000E+00
  0.00000000E+00  0.00000000E+00  0.00000000E+00
  0.00000000E+00  0.00000000E+00  0.00000000E+00
  0.00000000E+00  0.00000000E+00  0.00000000E+00
  0.00000000E+00  0.00000000E+00  0.00000000E+00
  0.00000000E+00  0.00000000E+00  0.00000000E+00
  0.00000000E+00  0.00000000E+00  0.00000000E+00
  0.00000000E+00  0.00000000E+00  0.00000000E+00
  0.00000000E+00  0.00000000E+00  0.00000000E+00
  0.00000000E+00  0.00000000E+00  0.00000000E+00
  0.00000000E+00  0.00000000E+00  0.00000000E+00
  0.00000000E+00  0.00000000E+00  0.00000000E+00
  0.00000000E+00  0.00000000E+00  0.00000000E+00
  0.00000000E+00  0.00000000E+00  0.00000000E+00
