Na4 Mn4 O8 F4                           
   1.00000000000000     
     5.3483130845065636   -0.0048355275443761   -0.0000003001206961
    -2.6809201000680152    4.6904651424173265    0.0000000401893667
    -0.0000007173507322   -0.0000002116613620    9.1107016919114105
   Na   Mn   O    F 
     4     4     8     4
Direct
  0.9999680060927645  0.9999970375505001  0.0000637109289912
  0.9999685569174872  0.9999970952826871  0.4999371101098404
  0.3384999057778373  0.6894830217780878  0.2499999492048843
  0.6615269277606046  0.3105670458182246  0.7499999767635899
  0.3160282882814940  0.6740599953624979  0.6119466220126952
  0.6839644042351694  0.3259304036705046  0.3881519473343786
  0.6839638148260789  0.3259308824007832  0.1118476596368865
  0.3160275788147260  0.6740603970658867  0.8880529557581767
  0.4998700523503459  0.9999894183912943  0.0000522295922920
  0.9999831218837940  0.4997394599562739  0.0000185310604905
  0.4998703699557723  0.9999893902147292  0.4999478921829379
  0.9999828440494980  0.4997392854575224  0.4999816679592612
  0.8009767711923388  0.6154147115492350  0.2499999935775961
  0.1992097996791244  0.3846819931623031  0.7500000118366614
  0.8138108628096674  0.1714510468583583  0.2499996615550231
  0.1860428690089790  0.8284553987535972  0.7499996801045796
  0.5001575475619902  0.5000848823776494  0.9999542643098636
  0.5001580591266332  0.5000847489105524  0.5000459025505677
  0.3467374683374018  0.1648950245677909  0.2500000767532455
  0.6532527513382931  0.8354487608715218  0.7500001567680457
 
  0.00000000E+00  0.00000000E+00  0.00000000E+00
  0.00000000E+00  0.00000000E+00  0.00000000E+00
  0.00000000E+00  0.00000000E+00  0.00000000E+00
  0.00000000E+00  0.00000000E+00  0.00000000E+00
  0.00000000E+00  0.00000000E+00  0.00000000E+00
  0.00000000E+00  0.00000000E+00  0.00000000E+00
  0.00000000E+00  0.00000000E+00  0.00000000E+00
  0.00000000E+00  0.00000000E+00  0.00000000E+00
  0.00000000E+00  0.00000000E+00  0.00000000E+00
  0.00000000E+00  0.00000000E+00  0.00000000E+00
  0.00000000E+00  0.00000000E+00  0.00000000E+00
  0.00000000E+00  0.00000000E+00  0.00000000E+00
  0.00000000E+00  0.00000000E+00  0.00000000E+00
  0.00000000E+00  0.00000000E+00  0.00000000E+00
  0.00000000E+00  0.00000000E+00  0.00000000E+00
  0.00000000E+00  0.00000000E+00  0.00000000E+00
  0.00000000E+00  0.00000000E+00  0.00000000E+00
  0.00000000E+00  0.00000000E+00  0.00000000E+00
  0.00000000E+00  0.00000000E+00  0.00000000E+00
  0.00000000E+00  0.00000000E+00  0.00000000E+00
