Na2 Co2 O4 F2                           
   1.00000000000000     
    -2.6982146397722166   -4.5089636837420040    0.1252892328393764
    -5.4490973308042427    0.0084855103540676    0.0140878692689138
    -2.6816334143343941   -1.3875007624682132   -4.2858762126529317
   Na   Co   O    F 
     2     2     4     2
Direct
  0.2640991726188798  0.2615830315532313  0.2229064802997618
  0.7575084725291255  0.7366683711726367  0.7282536366890562
  0.0409236682455529  0.9964831618833738  0.9458410441773905
  0.4900417559267738  0.5044659084246829  0.5023022444205818
  0.2674091728981325  0.7072549508471885  0.2504775860570046
  0.3036907595923939  0.1862388804326673  0.7149316004213898
  0.1769027487051323  0.7317551943318586  0.7709700208681985
  0.7244392951789931  0.3061814762909981  0.7432496578312499
  0.6938728153582345  0.8351263658428296  0.2681594380445960
  0.8271121389467883  0.2802426592205466  0.2149082911907516
 
  0.00000000E+00  0.00000000E+00  0.00000000E+00
  0.00000000E+00  0.00000000E+00  0.00000000E+00
  0.00000000E+00  0.00000000E+00  0.00000000E+00
  0.00000000E+00  0.00000000E+00  0.00000000E+00
  0.00000000E+00  0.00000000E+00  0.00000000E+00
  0.00000000E+00  0.00000000E+00  0.00000000E+00
  0.00000000E+00  0.00000000E+00  0.00000000E+00
  0.00000000E+00  0.00000000E+00  0.00000000E+00
  0.00000000E+00  0.00000000E+00  0.00000000E+00
  0.00000000E+00  0.00000000E+00  0.00000000E+00
