Na4 Fe4 O8 F4                           
   1.00000000000000     
     5.3550134640365492   -0.0000052145149127    0.0008097250562054
    -0.0000437277389434    5.4818424873116740    0.0027148988422040
     0.0009727908730945   -0.0029093487048706    7.1687176878562378
   Na   Fe   O    F 
     4     4     8     4
Direct
  0.9973710509276816  0.0204631478250056  0.2500621541473353
  0.0034824141577494  0.9480104522679345  0.7500821228766664
  0.4973499525471569  0.4795078694128934  0.7500620971739222
  0.5034211456219930  0.5519936765625134  0.2500192087696958
  0.4959509253621282  0.0303898153542915 -0.0001415999422529
  0.9953516574042601  0.4683995233409166  0.9998621820402788
  0.4952271356333468  0.0316312617765747  0.4997258417858298
  0.9958790569613520  0.4695534928146100  0.5000124102018512
  0.0694220139961039  0.4917230126712141  0.2491346753602802
  0.9315125462610857  0.5182062562048095  0.7508854925059326
  0.5694147272903906  0.0083518576280130  0.7490365322511866
  0.4314916541082077  0.9817504854728800  0.2507963990035094
  0.7139469396692011  0.2884356489604457  0.0412384655643255
  0.2132073775121634  0.2123716076188212  0.9588216980392879
  0.7131351860198251  0.2874889701951027  0.4587481442726306
  0.2138659912460499  0.2116952494245833  0.5412555961885885
  0.2901924246632612  0.7107445523931820  0.9641415598269711
  0.7901175338064188  0.7897750716520981  0.0360398095528773
  0.2897948264562170  0.7105043303987336  0.5361022605053031
  0.7898654403554003  0.7890037180253838  0.4641149498757812
 
  0.00000000E+00  0.00000000E+00  0.00000000E+00
  0.00000000E+00  0.00000000E+00  0.00000000E+00
  0.00000000E+00  0.00000000E+00  0.00000000E+00
  0.00000000E+00  0.00000000E+00  0.00000000E+00
  0.00000000E+00  0.00000000E+00  0.00000000E+00
  0.00000000E+00  0.00000000E+00  0.00000000E+00
  0.00000000E+00  0.00000000E+00  0.00000000E+00
  0.00000000E+00  0.00000000E+00  0.00000000E+00
  0.00000000E+00  0.00000000E+00  0.00000000E+00
  0.00000000E+00  0.00000000E+00  0.00000000E+00
  0.00000000E+00  0.00000000E+00  0.00000000E+00
  0.00000000E+00  0.00000000E+00  0.00000000E+00
  0.00000000E+00  0.00000000E+00  0.00000000E+00
  0.00000000E+00  0.00000000E+00  0.00000000E+00
  0.00000000E+00  0.00000000E+00  0.00000000E+00
  0.00000000E+00  0.00000000E+00  0.00000000E+00
  0.00000000E+00  0.00000000E+00  0.00000000E+00
  0.00000000E+00  0.00000000E+00  0.00000000E+00
  0.00000000E+00  0.00000000E+00  0.00000000E+00
  0.00000000E+00  0.00000000E+00  0.00000000E+00
