Na4 Mn4 O8 F4                           
   1.00000000000000     
     5.3376887888867275   -0.0441118928339667    0.0035910091424931
    -2.6993970590200131    4.6020692413868556   -0.0165507789716093
    -0.0025125186327631    0.0256659989904379    8.9996311696487172
   Na   Mn   O    F 
     4     4     8     4
Direct
  0.0017145663362913  0.9970753128030287  0.9311455732661847
  0.0025718221316261  0.0109349606256940  0.5634668644462005
  0.3428248766762357  0.6697077040584981  0.2625280244511696
  0.6708254864398375  0.3351376784495370  0.7415646314066009
  0.3173662228648493  0.6621677240077072  0.6023164368865385
  0.6690719888857636  0.3347269691104734  0.4026657752926072
  0.6860718244312279  0.3094523871279353  0.1076151032298970
  0.3118115720711567  0.6663065018608664  0.8902002977786095
  0.5904761161992816  0.9874423296751249  0.0034905182080191
  0.9925258797836857  0.5790862983196995  0.9982670204851550
  0.5890356861271715  0.0193851470760996  0.5099447144279234
  0.9961478953332028  0.6006570327489152  0.5006301464405231
  0.4109122482166211  0.4308703064562464  0.4901516283284174
  0.1284712077539955  0.3734763242039527  0.7490218397290757
  0.8744209341255292  0.2555331271610419  0.2557085904659430
  0.2574073262670488  0.8809106928461364  0.7542570193294115
  0.4118173652341095  0.4024794177707707  0.9974284775999069
  0.7363800950429185  0.6258128817606324  0.2416331969786112
  0.3608171669775742  0.1072732596425118  0.2465243630161820
  0.6493297191018665  0.7515639442951213  0.7514397782330238
 
  0.00000000E+00  0.00000000E+00  0.00000000E+00
  0.00000000E+00  0.00000000E+00  0.00000000E+00
  0.00000000E+00  0.00000000E+00  0.00000000E+00
  0.00000000E+00  0.00000000E+00  0.00000000E+00
  0.00000000E+00  0.00000000E+00  0.00000000E+00
  0.00000000E+00  0.00000000E+00  0.00000000E+00
  0.00000000E+00  0.00000000E+00  0.00000000E+00
  0.00000000E+00  0.00000000E+00  0.00000000E+00
  0.00000000E+00  0.00000000E+00  0.00000000E+00
  0.00000000E+00  0.00000000E+00  0.00000000E+00
  0.00000000E+00  0.00000000E+00  0.00000000E+00
  0.00000000E+00  0.00000000E+00  0.00000000E+00
  0.00000000E+00  0.00000000E+00  0.00000000E+00
  0.00000000E+00  0.00000000E+00  0.00000000E+00
  0.00000000E+00  0.00000000E+00  0.00000000E+00
  0.00000000E+00  0.00000000E+00  0.00000000E+00
  0.00000000E+00  0.00000000E+00  0.00000000E+00
  0.00000000E+00  0.00000000E+00  0.00000000E+00
  0.00000000E+00  0.00000000E+00  0.00000000E+00
  0.00000000E+00  0.00000000E+00  0.00000000E+00
