V16 O2                                  
   1.00000000000000     
     8.7216281344050710   -0.0001757895278621   -0.0000000474436473
    -0.0001759584516855    8.7215386016617167   -0.0000000648653415
    -0.0000000183175699   -0.0000000235650623    2.9672391878419115
   V    O 
    16     2
Direct
  0.3819351438319018  0.1289266423320723  0.4999999990835503
  0.6180663683235166  0.8710675265366751  0.4999999899417152
  0.1180748675619208  0.6289151243084437  0.9999999870077904
  0.8819292583244890  0.3710959533233620  0.0000000173443890
  0.1289378289535503  0.3819385613653217  0.5000000180562233
  0.8710667165273428  0.6180723581556494  0.4999999864488074
  0.6289074712255555  0.1180698990896845  0.9999999789533809
  0.3710849626154593  0.8819273842377368  0.0000000136405894
  0.3448633021061766  0.6551440933841763  0.5000000002650702
  0.6551469676759291  0.3448502936346554  0.5000000004374232
  0.1551380662784487  0.1551358367803379  0.9999999639483729
  0.8448598016541528  0.8448562302692884  0.0000000369476925
  0.1194275497213180  0.8805699438229149  0.5000000007641378
  0.8805720136469464  0.1194226104344567  0.4999999995057752
  0.3805733326206023  0.3805795589770277  0.0000000523550069
  0.6194154153695730  0.6194245866958005  0.9999999524518549
  0.4999973437861470  0.5000029479897764  0.5000000022678958
  0.0000035897769771  0.0000004486626131  0.0000000005803109
 
  0.00000000E+00  0.00000000E+00  0.00000000E+00
  0.00000000E+00  0.00000000E+00  0.00000000E+00
  0.00000000E+00  0.00000000E+00  0.00000000E+00
  0.00000000E+00  0.00000000E+00  0.00000000E+00
  0.00000000E+00  0.00000000E+00  0.00000000E+00
  0.00000000E+00  0.00000000E+00  0.00000000E+00
  0.00000000E+00  0.00000000E+00  0.00000000E+00
  0.00000000E+00  0.00000000E+00  0.00000000E+00
  0.00000000E+00  0.00000000E+00  0.00000000E+00
  0.00000000E+00  0.00000000E+00  0.00000000E+00
  0.00000000E+00  0.00000000E+00  0.00000000E+00
  0.00000000E+00  0.00000000E+00  0.00000000E+00
  0.00000000E+00  0.00000000E+00  0.00000000E+00
  0.00000000E+00  0.00000000E+00  0.00000000E+00
  0.00000000E+00  0.00000000E+00  0.00000000E+00
  0.00000000E+00  0.00000000E+00  0.00000000E+00
  0.00000000E+00  0.00000000E+00  0.00000000E+00
  0.00000000E+00  0.00000000E+00  0.00000000E+00
