Na4 Fe4 O8 F4                           
   1.00000000000000     
     5.2177176647847103   -0.0002706648291495   -0.0087562149031033
     0.0009609407655968    5.2769885117096660    0.0301917536231090
    -0.0125777020569184    0.0315006223558526    7.5935180861283520
   Na   Fe   O    F 
     4     4     8     4
Direct
  0.9880506860629485  0.0320157891377262  0.2483160774312306
  0.0161290460625244  0.9595440822005907  0.7420241423996571
  0.4881280625986862  0.4682974525073763  0.7548704829827472
  0.5137633724766496  0.5388233192232673  0.2459472027350290
  0.4795300754105669  0.0094699363223306  0.9988353006127670
  0.9977940132256813  0.4874690691514557  0.9916028621291523
  0.5130423776477354  0.0143239550419314  0.4992841372807170
  0.9949977544127866  0.4891534276019144  0.4911214510590568
  0.0712988348623072  0.4931058037615252  0.2535496188758122
  0.9274814079555506  0.5202869002916589  0.7510884428240047
  0.7071226739107062  0.2908414912659001  0.0343989817727552
  0.2794355507494595  0.7134824099767471  0.9676619598607463
  0.2025047809810756  0.2098056636138843  0.9591375168022621
  0.7154655008143186  0.2847088099969997  0.4560263662294357
  0.7964234521441012  0.7806055900179857  0.4694813449548296
  0.2222487833975298  0.2194457282875191  0.5367352607144474
  0.5921706089136620  0.0098184902664734  0.7525474929327727
  0.4123817442406343  0.9685758983769179  0.2529262705221542
  0.7803445530683125  0.7945262797484695  0.0462474227636817
  0.3016867210647567  0.7156999032093262  0.5481976651167411
 
  0.00000000E+00  0.00000000E+00  0.00000000E+00
  0.00000000E+00  0.00000000E+00  0.00000000E+00
  0.00000000E+00  0.00000000E+00  0.00000000E+00
  0.00000000E+00  0.00000000E+00  0.00000000E+00
  0.00000000E+00  0.00000000E+00  0.00000000E+00
  0.00000000E+00  0.00000000E+00  0.00000000E+00
  0.00000000E+00  0.00000000E+00  0.00000000E+00
  0.00000000E+00  0.00000000E+00  0.00000000E+00
  0.00000000E+00  0.00000000E+00  0.00000000E+00
  0.00000000E+00  0.00000000E+00  0.00000000E+00
  0.00000000E+00  0.00000000E+00  0.00000000E+00
  0.00000000E+00  0.00000000E+00  0.00000000E+00
  0.00000000E+00  0.00000000E+00  0.00000000E+00
  0.00000000E+00  0.00000000E+00  0.00000000E+00
  0.00000000E+00  0.00000000E+00  0.00000000E+00
  0.00000000E+00  0.00000000E+00  0.00000000E+00
  0.00000000E+00  0.00000000E+00  0.00000000E+00
  0.00000000E+00  0.00000000E+00  0.00000000E+00
  0.00000000E+00  0.00000000E+00  0.00000000E+00
  0.00000000E+00  0.00000000E+00  0.00000000E+00
