V8 O8 F16                               
   1.00000000000000     
     7.4972695668979465    0.0101319701722447   -0.1074498240333488
     0.0312242029947775    7.4057440316817438    0.0119395032016788
    -0.0184530860073878    0.0034090628035143    7.3752963372122613
   V    O    F 
     8     8    16
Direct
  0.9633000450651975 -0.0037231233655995  0.9871604261022675
  0.0012121200376755  0.9690407872023835  0.4899393010647045
 -0.0008454051089590  0.4977280094676378  0.0205395672504593
  0.0016365090579743  0.4671193064720522  0.5035837207084073
  0.4633119735601512  0.0129736916163223  0.0041661615116387
  0.5013869341776128  0.9780219276061179  0.5024790947301683
  0.5068913917297319  0.5110841212217919  0.0316956349342126
  0.4964795408548880  0.4950332498761999  0.5345149676636751
 -0.0310074710958760  0.4636141169737741  0.2410968665864944
  0.5312350694428546  0.5411091410500248  0.2510841039966293
  0.4715414523894423  0.4636126199552761  0.7527535114486019
  0.2514250913402507  0.0443624181541586  0.0401790543625198
  0.7506036390983492 -0.0379770394195193  0.9536937775532440
  0.0087515927242132  0.2474043252131939  0.5323548316260960
 -0.0063015658465002  0.7492925940813256  0.4614533122671907
  0.4952405354494029  0.7564966981831222  0.5397266030553448
 -0.0491765561222596  0.0467247255002260  0.2436828860252497
  0.4576367193848633  0.0562414399219492  0.7463095126676910
  0.2511875822759897  0.0046586551818724  0.4399897194176527
  0.2511142009799275  0.5009947002018971  0.4586786606236074
  0.7517631306545411  0.5535715677999273  0.9603998126587490
  0.7521211115408749  0.5007344702633555  0.5404972803935854
  0.0445318481674341  0.7533474119937585  0.0422939799207306
  0.5575634227894288  0.2534308703323931  0.0349449617917049
  0.0571277419147358 -0.0387768587897504  0.7474073199252128
  0.0393988227285768  0.5398526539992579  0.7553030595585200
  0.5502201897693161 -0.0395031613838917  0.2473444386114398
  0.2546257804440143  0.4529035321460475  0.0303671590319401
  0.7537173309992696  0.0065742609442198  0.5519394576156778
 -0.0361629350793008  0.2529870176149983  0.9404406651359047
  0.5072989057970397  0.2448057641657984  0.4566818213203644
  0.4521712508791274  0.7562601058196736  0.9572983304403084
 
  0.00000000E+00  0.00000000E+00  0.00000000E+00
  0.00000000E+00  0.00000000E+00  0.00000000E+00
  0.00000000E+00  0.00000000E+00  0.00000000E+00
  0.00000000E+00  0.00000000E+00  0.00000000E+00
  0.00000000E+00  0.00000000E+00  0.00000000E+00
  0.00000000E+00  0.00000000E+00  0.00000000E+00
  0.00000000E+00  0.00000000E+00  0.00000000E+00
  0.00000000E+00  0.00000000E+00  0.00000000E+00
  0.00000000E+00  0.00000000E+00  0.00000000E+00
  0.00000000E+00  0.00000000E+00  0.00000000E+00
  0.00000000E+00  0.00000000E+00  0.00000000E+00
  0.00000000E+00  0.00000000E+00  0.00000000E+00
  0.00000000E+00  0.00000000E+00  0.00000000E+00
  0.00000000E+00  0.00000000E+00  0.00000000E+00
  0.00000000E+00  0.00000000E+00  0.00000000E+00
  0.00000000E+00  0.00000000E+00  0.00000000E+00
  0.00000000E+00  0.00000000E+00  0.00000000E+00
  0.00000000E+00  0.00000000E+00  0.00000000E+00
  0.00000000E+00  0.00000000E+00  0.00000000E+00
  0.00000000E+00  0.00000000E+00  0.00000000E+00
  0.00000000E+00  0.00000000E+00  0.00000000E+00
  0.00000000E+00  0.00000000E+00  0.00000000E+00
  0.00000000E+00  0.00000000E+00  0.00000000E+00
  0.00000000E+00  0.00000000E+00  0.00000000E+00
  0.00000000E+00  0.00000000E+00  0.00000000E+00
  0.00000000E+00  0.00000000E+00  0.00000000E+00
  0.00000000E+00  0.00000000E+00  0.00000000E+00
  0.00000000E+00  0.00000000E+00  0.00000000E+00
  0.00000000E+00  0.00000000E+00  0.00000000E+00
  0.00000000E+00  0.00000000E+00  0.00000000E+00
  0.00000000E+00  0.00000000E+00  0.00000000E+00
  0.00000000E+00  0.00000000E+00  0.00000000E+00
