Na4 Co4 O8 F4                           
   1.00000000000000     
     5.3406072805564637   -0.0099489792809932   -0.0264187073028282
    -2.6947717876826194    4.6226607951608640    0.0924478468545917
     0.0311261790408550    0.1488408420045348    8.8824205699149150
   Na   Co   O    F 
     4     4     8     4
Direct
  0.9647973683136055  0.9898903883537369  0.9450380538906729
  0.0471452554064883  0.0125954346664571  0.5145496791789760
  0.3364165037014797  0.6735485561488054  0.2470446432850840
  0.6739760283341621  0.3362400291097282  0.7445200082677089
  0.3609490435482935  0.6790863393392372  0.5867800458156482
  0.6995562810760713  0.3416103990212072  0.3929958758552483
  0.6352703079307989  0.3250488211262887  0.1092936395922927
  0.3007614011144792  0.6629100223153496  0.9136030666443226
  0.5239055853656769  0.9811826359835469  0.0097092319732681
  0.9277267317005780  0.5418695639685848  0.9797808358789835
  0.3819576075023667  0.3909227439721373  0.0246378450642781
  0.6404969549356984  0.0501471974361012  0.5182128158654887
  0.0533576430854541  0.5856345540949461  0.4773209642623108
  0.5095599814775984  0.4675467747573568  0.5077038282808313
  0.7531691860251136  0.6145961284909626  0.2441510584050021
  0.8570420463167913  0.2453105920156195  0.2372024874598127
  0.1197519598186501  0.3594431579602571  0.7538794011886228
  0.3495605908821511  0.1038222296897668  0.2852731066838478
  0.6300112326216655  0.7477946560509208  0.7674022633448987
  0.2345882908429056  0.8907997754989969  0.7409011490626947
 
  0.00000000E+00  0.00000000E+00  0.00000000E+00
  0.00000000E+00  0.00000000E+00  0.00000000E+00
  0.00000000E+00  0.00000000E+00  0.00000000E+00
  0.00000000E+00  0.00000000E+00  0.00000000E+00
  0.00000000E+00  0.00000000E+00  0.00000000E+00
  0.00000000E+00  0.00000000E+00  0.00000000E+00
  0.00000000E+00  0.00000000E+00  0.00000000E+00
  0.00000000E+00  0.00000000E+00  0.00000000E+00
  0.00000000E+00  0.00000000E+00  0.00000000E+00
  0.00000000E+00  0.00000000E+00  0.00000000E+00
  0.00000000E+00  0.00000000E+00  0.00000000E+00
  0.00000000E+00  0.00000000E+00  0.00000000E+00
  0.00000000E+00  0.00000000E+00  0.00000000E+00
  0.00000000E+00  0.00000000E+00  0.00000000E+00
  0.00000000E+00  0.00000000E+00  0.00000000E+00
  0.00000000E+00  0.00000000E+00  0.00000000E+00
  0.00000000E+00  0.00000000E+00  0.00000000E+00
  0.00000000E+00  0.00000000E+00  0.00000000E+00
  0.00000000E+00  0.00000000E+00  0.00000000E+00
  0.00000000E+00  0.00000000E+00  0.00000000E+00
