Na4 Fe4 O8 F4                           
   1.00000000000000     
     5.2535153878032634    0.1694689795043982    0.0005214263545302
     0.1718655406616789    5.3059246253485259    0.0031964527640370
     0.0008551204867539   -0.0059143741267616    7.5560333567630629
   Na   Fe   O    F 
     4     4     8     4
Direct
  0.9807363311824533  0.0341332672318327  0.2410094243346299
  0.0190040185539427  0.9663821834132060  0.7411471600232787
  0.4918794535650789  0.4592074824371454  0.7499669741709101
  0.5095801308313739  0.5407840038136045  0.2495848384185580
  0.4836578614589592  0.9788672502980832  0.9983472169189617
  0.0114992233173896  0.5082631847609835  0.9940310979841560
  0.5167502548328902  0.0209387792341161  0.4979790676104489
  0.9890561523088331  0.4925517724974383  0.4975788346100223
  0.0710790556827507  0.4770809003256669  0.2502216054449181
  0.9283738104441280  0.5234794838132538  0.7503236613382117
  0.2889664843581103  0.7135836677007044  0.9605681326185692
  0.2032351391650810  0.2112538153367519  0.9623298080616688
  0.7758679261512513  0.7725385018757563  0.0427334348982822
  0.7108472345049773  0.2872986323222487  0.4616924436455587
  0.7966763259139757  0.7888352767980985  0.4605214418275634
  0.2238593124197154  0.2263728475654660  0.5413002003649907
  0.5976382828505146  0.0268165895148688  0.7536843121831179
  0.4015970054507888  0.9722255272985905  0.2538399191457623
  0.6920527865400208  0.2720292864966746  0.0462533252159972
  0.3076432104677796  0.7273575472655099  0.5468871011844153
 
  0.00000000E+00  0.00000000E+00  0.00000000E+00
  0.00000000E+00  0.00000000E+00  0.00000000E+00
  0.00000000E+00  0.00000000E+00  0.00000000E+00
  0.00000000E+00  0.00000000E+00  0.00000000E+00
  0.00000000E+00  0.00000000E+00  0.00000000E+00
  0.00000000E+00  0.00000000E+00  0.00000000E+00
  0.00000000E+00  0.00000000E+00  0.00000000E+00
  0.00000000E+00  0.00000000E+00  0.00000000E+00
  0.00000000E+00  0.00000000E+00  0.00000000E+00
  0.00000000E+00  0.00000000E+00  0.00000000E+00
  0.00000000E+00  0.00000000E+00  0.00000000E+00
  0.00000000E+00  0.00000000E+00  0.00000000E+00
  0.00000000E+00  0.00000000E+00  0.00000000E+00
  0.00000000E+00  0.00000000E+00  0.00000000E+00
  0.00000000E+00  0.00000000E+00  0.00000000E+00
  0.00000000E+00  0.00000000E+00  0.00000000E+00
  0.00000000E+00  0.00000000E+00  0.00000000E+00
  0.00000000E+00  0.00000000E+00  0.00000000E+00
  0.00000000E+00  0.00000000E+00  0.00000000E+00
  0.00000000E+00  0.00000000E+00  0.00000000E+00
