Cr2 O2 F4                               
   1.00000000000000     
     3.7537103476445721    0.0080836807502288    0.0030581406699356
     0.0060792663071712    3.7539425331365828    0.0032126148815897
     0.0074924162884706    0.0055647501864058    7.5777957637568969
   Cr   O    F 
     2     2     4
Direct
  0.4473225139942640  0.4471755781796337  0.2557715824246015
  0.4981309553288785  0.4983641724450861  0.7548608558590334
  0.5271594112181683  0.0221591481477442  0.2556419923808204
  0.0222348628746225  0.5267112859768380  0.2557549774896459
  0.5031539804584602  0.5042932263877196  0.0067581194539148
  0.5043389234089752  0.5047363082187633  0.5036735221200127
  0.4987899455961734 -0.0007776016463298  0.7554849111372403
 -0.0011305928795425  0.4973378822905376  0.7550540391347175
 
  0.00000000E+00  0.00000000E+00  0.00000000E+00
  0.00000000E+00  0.00000000E+00  0.00000000E+00
  0.00000000E+00  0.00000000E+00  0.00000000E+00
  0.00000000E+00  0.00000000E+00  0.00000000E+00
  0.00000000E+00  0.00000000E+00  0.00000000E+00
  0.00000000E+00  0.00000000E+00  0.00000000E+00
  0.00000000E+00  0.00000000E+00  0.00000000E+00
  0.00000000E+00  0.00000000E+00  0.00000000E+00
