Na4 Co4 O8 F4                           
    1.000000000000000     
     5.4785854765105970    0.3323647589697419   -0.0000149765405868
     0.3271780571491618    5.4667877259478743    0.0008556123411580
    -0.0020275974774882    0.0011167414379609    7.0953560054256020
   Na   Co   O    F 
     4     4     8     4
Direct
  0.9940197911911058  0.0292842016242261  0.2500326464031264
  0.0060834229340017  0.9709561440372879  0.7500343707352389
  0.4921324295083274  0.4578436113412082  0.7502253947648442
  0.5070272801375918  0.5418747139044632  0.2504861725798517
  0.5008251622184710  0.0000673878659762 -0.0007275873718981
  0.0003906187468653  0.4987149571887081 -0.0029252509926949
  0.5002986159218981 -0.0009473484218984  0.4988690684124016
  0.0003500929906495  0.4982392840569808  0.5031722031342493
  0.2018825386707205  0.2332861506150642  0.9669491171306138
  0.8016956740549253  0.7678474874442598  0.0341545951259017
  0.8011198040724662  0.7671538978682362  0.4662181759851048
  0.2021414893261773  0.2330536646489060  0.5333181261450832
  0.0921418429272799  0.5037205711768181  0.2501626581921711
  0.8982114842448107  0.5011944745515854  0.7501378311072135
  0.5646781088563700  0.0189787018499099  0.7495882044930464
  0.4355864936078127  0.9799833950936911  0.2496641022872853
  0.7072523842443272  0.2788889803497299  0.0477773408498709
  0.2933845340799501  0.7209312983983200  0.9525364539292016
  0.2930501830229443  0.7206089310904665  0.5477853801940946
  0.7077280492433201  0.2783194953160536  0.4525409968952949
 
  0.00000000E+00  0.00000000E+00  0.00000000E+00
  0.00000000E+00  0.00000000E+00  0.00000000E+00
  0.00000000E+00  0.00000000E+00  0.00000000E+00
  0.00000000E+00  0.00000000E+00  0.00000000E+00
  0.00000000E+00  0.00000000E+00  0.00000000E+00
  0.00000000E+00  0.00000000E+00  0.00000000E+00
  0.00000000E+00  0.00000000E+00  0.00000000E+00
  0.00000000E+00  0.00000000E+00  0.00000000E+00
  0.00000000E+00  0.00000000E+00  0.00000000E+00
  0.00000000E+00  0.00000000E+00  0.00000000E+00
  0.00000000E+00  0.00000000E+00  0.00000000E+00
  0.00000000E+00  0.00000000E+00  0.00000000E+00
  0.00000000E+00  0.00000000E+00  0.00000000E+00
  0.00000000E+00  0.00000000E+00  0.00000000E+00
  0.00000000E+00  0.00000000E+00  0.00000000E+00
  0.00000000E+00  0.00000000E+00  0.00000000E+00
  0.00000000E+00  0.00000000E+00  0.00000000E+00
  0.00000000E+00  0.00000000E+00  0.00000000E+00
  0.00000000E+00  0.00000000E+00  0.00000000E+00
  0.00000000E+00  0.00000000E+00  0.00000000E+00
