Na4 Ni4 O8 F4                           
   1.00000000000000     
     5.4520655568610694   -0.1490211644896560    0.1059030317482561
    -2.8878104245049045    4.6228235704661254    0.1161962382988826
     0.4123668682509914    0.1422783721576680    8.8900576273303269
   Na   Ni   O    F 
     4     4     8     4
Direct
  0.9502220742104684  0.9567709167262080  0.9480629786130607
  0.0640065879816532  0.0533666716246506  0.5529413156008508
  0.3595502120826413  0.6187707972599636  0.2313863997051417
  0.6371669540481311  0.3515372922034071  0.7632127022086701
  0.3705502429320146  0.7124269995226088  0.6077993341257484
  0.7399979367933722  0.3683192522229985  0.3878367140674795
  0.6339717744403610  0.2817184554053410  0.1171193126470048
  0.2730514748261392  0.6390625736123434  0.8934740746923733
  0.3474158859283620  0.9316722510413854  0.0219933444043250
  0.8997537300157639  0.3362682810591109  0.9681005184362097
  0.5249043500465227  0.0899456942599467  0.5395084041731231
  0.1176626708332500  0.5206424247695974  0.4678739637073885
  0.8820257132250215  0.6105696713670863  0.2127170606120473
  0.2307496209333040  0.3936111062427030  0.7395985446369250
  0.6076208961941277  0.8858962993313679  0.7628483314917799
  0.7541528041381788  0.1213814837161776  0.2499295808493069
  0.5076168457663746  0.5035040516466476  0.0054721562687162
  0.6717423503941935  0.6362999248270250  0.4977812679712275
  0.3475100326996598  0.2103535351394324  0.2840297670904229
  0.0803278425104670  0.7778823180219904  0.7483142286982080
 
  0.00000000E+00  0.00000000E+00  0.00000000E+00
  0.00000000E+00  0.00000000E+00  0.00000000E+00
  0.00000000E+00  0.00000000E+00  0.00000000E+00
  0.00000000E+00  0.00000000E+00  0.00000000E+00
  0.00000000E+00  0.00000000E+00  0.00000000E+00
  0.00000000E+00  0.00000000E+00  0.00000000E+00
  0.00000000E+00  0.00000000E+00  0.00000000E+00
  0.00000000E+00  0.00000000E+00  0.00000000E+00
  0.00000000E+00  0.00000000E+00  0.00000000E+00
  0.00000000E+00  0.00000000E+00  0.00000000E+00
  0.00000000E+00  0.00000000E+00  0.00000000E+00
  0.00000000E+00  0.00000000E+00  0.00000000E+00
  0.00000000E+00  0.00000000E+00  0.00000000E+00
  0.00000000E+00  0.00000000E+00  0.00000000E+00
  0.00000000E+00  0.00000000E+00  0.00000000E+00
  0.00000000E+00  0.00000000E+00  0.00000000E+00
  0.00000000E+00  0.00000000E+00  0.00000000E+00
  0.00000000E+00  0.00000000E+00  0.00000000E+00
  0.00000000E+00  0.00000000E+00  0.00000000E+00
  0.00000000E+00  0.00000000E+00  0.00000000E+00
