Na15 Mn16 O16 F32                       
   1.00000000000000     
    -5.7568070000000002   -9.5129190000000001    0.1840240000000000
   -11.1188559999999992   -0.2694970000000000    0.1626210000000000
    -5.4360359999999996   -3.1680869999999999   -8.9472439999999995
   Na   Mn   O    F 
    15    16    16    32
Direct
  0.5306902943384668  0.2043101563415794  0.5517427952602915
  0.1254831771402991  0.1379674016295422  0.1180591115063162
  0.1198458368437608  0.1391991295945892  0.6146149015649063
  0.1239429770952251  0.6359313388803294  0.1224258603432038
  0.1223030309612734  0.6356780860294131  0.6144370013737711
  0.6087805558016965  0.1470590831937460  0.1245755854076234
  0.6090305665289605  0.6396772623317272  0.1129432790675851
  0.6141431835735810  0.6339864035262439  0.6211605387632181
  0.3967898919535933  0.3600199177614821  0.8592785843121249
  0.3894518936583795  0.8764223024309243  0.3583816223996117
  0.3887141338348132  0.8646501354442656  0.8671492956104454
  0.8905013792484093  0.3632523041953941  0.3719724434299093
  0.8817610829307249  0.3630998485605423  0.8729314173950798
  0.8847952226890101  0.8706606639905502  0.3759964336767920
  0.8894392223666913  0.8745885330779104  0.8622957857958401
 -0.0029020296668603  0.0059766837680574  0.4774741857269256
 -0.0013859457841254 -0.0015547659270206  0.9830746906707922
  0.0049535556783263  0.5039814832882001  0.4780154863730813
  0.0002643046463027  0.5105772149254197  0.9735769215841390
  0.4985682404539253 -0.0062053812389245  0.4806476861496510
  0.5057453068513160  0.0019481376400461  0.9716787788677237
  0.5079832886145474  0.5100485196776599  0.4669223020697778
  0.5025915210299791  0.4999951793012750  0.9792049127398592
  0.2516460701074509  0.2548248612297661  0.2589729571652947
  0.2391101848838685  0.2463271921558176  0.7684107585625322
  0.2530082798575018  0.7458829015999149  0.2635640080011414
  0.2512641887178295  0.7479717239468928  0.7588505703752160
  0.7581390711591974  0.2601798282601496  0.2500228037486134
  0.7524555424570888  0.2525071076398305  0.7564637595760538
  0.7575162227798276  0.7526331912827658  0.2548575689245992
  0.7535088924845625  0.7568830343503399  0.7563183788463597
  0.0999087135836534  0.3565357642020255  0.3912004042869812
  0.0938783535447067  0.3581635503433831  0.8931350950702520
  0.1060475674653190  0.8540136193172821  0.3934842736766743
  0.1044166754116844  0.8489211888458563  0.8947160291580892
  0.6160190413695019  0.3749583051214384  0.3753018679916998
  0.6021651284605853  0.3501764353084814  0.8929426255434565
  0.6062710922231941  0.8449235855503299  0.3947430858137508
  0.6036247832198416  0.8519752729785742  0.8908878423079009
  0.3997186570431776  0.1384314312431612  0.3464836946136209
  0.3961749701315987  0.1530184762122074  0.8422252281554876
  0.4101575716250340  0.6573459224560831  0.3428600702113452
  0.4015559434366493  0.6492592987845089  0.8429147347631175
  0.9085433893093291  0.1602937628799155  0.3332908745163533
  0.9033629347530412  0.1492570151330554  0.8446610443502401
  0.9064962943735811  0.6559926165363485  0.3425562481854829
  0.9025447971446893  0.6622206068844575  0.8396402141857181
  0.1028228757910588  0.3643120109113180  0.1318930628361378
  0.0969177684111701  0.3531407207521803  0.6490890130815224
  0.0993577234279605  0.8500741648173811  0.1480250060913613
  0.0996911150352302  0.8566397338738653  0.6418771713450003
  0.6156631109694949  0.3558934922102061  0.1334171961131921
  0.6057390322163535  0.3674906752854399  0.6318700116074191
  0.6110117129970966  0.8532854987527991  0.1349026150506717
  0.6073896232431566  0.8448941836342677  0.6457574192678117
  0.3331505338267075  0.4168857861610958  0.1141913168776928
  0.3499132673533958  0.4265833994354077  0.5991569642150445
  0.3326740757437734  0.9159822046255486  0.1209039400443244
  0.3287254816360150  0.9126598717158211  0.6121729628636443
  0.8299019026805892  0.4391645501159497  0.1061283899170132
  0.8315774089961715  0.4265410620682365  0.6186536561542819
  0.8257690925213759  0.9326315051625186  0.1163028614831192
  0.8266087239368334  0.9399865861816571  0.6021116595548581
  0.1697627452529199  0.0873000917549981  0.3654438556315405
  0.1635820900652937  0.0704081766227195  0.8949743092590938
  0.1726519147960140  0.5835087167139742  0.3773803680997596
  0.1809028392268287  0.5774977445749384  0.8591551816105604
  0.6602325816494438  0.0820681821309686  0.3801981862401721
  0.6733787472066194  0.0827445679298865  0.8689516615041597
  0.6755732891406800  0.5777717584453140  0.3696940812911990
  0.6726447528441648  0.5745720039495820  0.8715035998319139
  0.3986263301547049  0.1421331215697753  0.0940330504649698
  0.3638546311890883  0.1180096931112714  0.6286687899806505
  0.3967255398666303  0.6488438585132154  0.0953597180515508
  0.4010838717166856  0.6479468228002175  0.5904238360378448
  0.8935269439376865  0.1480046873489426  0.1038431419958466
  0.9025309028414649  0.1533665120377236  0.5943693558562450
  0.9082514875268951  0.6555566205366556  0.0900108447384673
  0.8996669897658615  0.6542390932931244  0.6003689012113064
 
             NaN             NaN             NaN
             NaN             NaN             NaN
             NaN             NaN             NaN
             NaN             NaN             NaN
             NaN             NaN             NaN
             NaN             NaN             NaN
             NaN             NaN             NaN
             NaN             NaN             NaN
             NaN             NaN             NaN
             NaN             NaN             NaN
             NaN             NaN             NaN
             NaN             NaN             NaN
             NaN             NaN             NaN
             NaN             NaN             NaN
             NaN             NaN             NaN
             NaN             NaN             NaN
             NaN             NaN             NaN
             NaN             NaN             NaN
             NaN             NaN             NaN
             NaN             NaN             NaN
             NaN             NaN             NaN
             NaN             NaN             NaN
             NaN             NaN             NaN
             NaN             NaN             NaN
             NaN             NaN             NaN
             NaN             NaN             NaN
             NaN             NaN             NaN
             NaN             NaN             NaN
             NaN             NaN             NaN
             NaN             NaN             NaN
             NaN             NaN             NaN
             NaN             NaN             NaN
             NaN             NaN             NaN
             NaN             NaN             NaN
             NaN             NaN             NaN
             NaN             NaN             NaN
             NaN             NaN             NaN
             NaN             NaN             NaN
             NaN             NaN             NaN
             NaN             NaN             NaN
             NaN             NaN             NaN
             NaN             NaN             NaN
             NaN             NaN             NaN
             NaN             NaN             NaN
             NaN             NaN             NaN
             NaN             NaN             NaN
             NaN             NaN             NaN
             NaN             NaN             NaN
             NaN             NaN             NaN
             NaN             NaN             NaN
             NaN             NaN             NaN
             NaN             NaN             NaN
             NaN             NaN             NaN
             NaN             NaN             NaN
             NaN             NaN             NaN
             NaN             NaN             NaN
             NaN             NaN             NaN
             NaN             NaN             NaN
             NaN             NaN             NaN
             NaN             NaN             NaN
             NaN             NaN             NaN
             NaN             NaN             NaN
             NaN             NaN             NaN
             NaN             NaN             NaN
             NaN             NaN             NaN
             NaN             NaN             NaN
             NaN             NaN             NaN
             NaN             NaN             NaN
             NaN             NaN             NaN
             NaN             NaN             NaN
             NaN             NaN             NaN
             NaN             NaN             NaN
             NaN             NaN             NaN
             NaN             NaN             NaN
             NaN             NaN             NaN
             NaN             NaN             NaN
             NaN             NaN             NaN
             NaN             NaN             NaN
             NaN             NaN             NaN
