Na15 Mn16 O16 F32
1.0
-5.756807 -9.512919 0.184024
-11.118856 -0.269497 0.162621
-5.436036 -3.168087 -8.947244
Na Mn O F
15 16 16 32
direct
0.537088 0.214856 0.534769 Na
0.116938 0.140022 0.115667 Na
0.115909 0.141295 0.617407 Na
0.115710 0.639313 0.118703 Na
0.114700 0.639318 0.617593 Na
0.613365 0.142915 0.120208 Na
0.613455 0.637702 0.119792 Na
0.614330 0.638405 0.618907 Na
0.391274 0.364384 0.866424 Na
0.390339 0.867973 0.367934 Na
0.391283 0.866662 0.865545 Na
0.886574 0.363766 0.368907 Na
0.888183 0.363941 0.869647 Na
0.890221 0.864224 0.368835 Na
0.889239 0.865747 0.867552 Na
0.000739 0.002628 0.477617 Mn
0.002219 0.001873 0.978083 Mn
0.005672 0.501893 0.476403 Mn
0.002441 0.502126 0.977261 Mn
0.502145 0.004293 0.478277 Mn
0.502450 0.002573 0.977042 Mn
0.500889 0.501525 0.477807 Mn
0.501960 0.501819 0.979654 Mn
0.252362 0.253648 0.259134 Mn
0.253577 0.252779 0.755974 Mn
0.253036 0.748872 0.260136 Mn
0.252260 0.752202 0.758627 Mn
0.750549 0.251905 0.259585 Mn
0.751780 0.252681 0.757812 Mn
0.752172 0.752375 0.259359 Mn
0.752501 0.753915 0.757425 Mn
0.098893 0.351043 0.393679 O
0.099939 0.353635 0.891651 O
0.102226 0.850816 0.393963 O
0.100314 0.850852 0.894517 O
0.608547 0.354886 0.390928 O
0.601375 0.352223 0.893519 O
0.603930 0.850352 0.395391 O
0.601320 0.850836 0.895057 O
0.403371 0.146427 0.341546 O
0.398494 0.154245 0.847063 O
0.403070 0.656340 0.343149 O
0.402399 0.653932 0.843204 O
0.905739 0.151432 0.339241 O
0.903216 0.152578 0.842076 O
0.904779 0.652484 0.341770 O
0.902877 0.655106 0.842043 O
0.104997 0.355256 0.139174 F
0.104191 0.354883 0.640765 F
0.105886 0.853661 0.140443 F
0.104330 0.855614 0.640409 F
0.612952 0.356258 0.132982 F
0.605358 0.360547 0.639631 F
0.604932 0.855131 0.140787 F
0.606867 0.853503 0.640248 F
0.328531 0.424514 0.113775 F
0.329891 0.426271 0.621777 F
0.329412 0.923219 0.118807 F
0.328852 0.924428 0.617921 F
0.830733 0.425079 0.116978 F
0.830842 0.425704 0.617963 F
0.828142 0.925240 0.118717 F
0.831333 0.924455 0.616690 F
0.172904 0.079878 0.368622 F
0.174062 0.078747 0.870387 F
0.171922 0.583281 0.368354 F
0.175084 0.578935 0.868252 F
0.675788 0.079445 0.365646 F
0.674513 0.079249 0.871164 F
0.674642 0.581458 0.368539 F
0.675841 0.580618 0.866440 F
0.398071 0.148465 0.097199 F
0.394650 0.140823 0.604484 F
0.400414 0.649831 0.095187 F
0.397928 0.650194 0.597383 F
0.900169 0.147013 0.096224 F
0.899257 0.150117 0.595727 F
0.899403 0.649125 0.096318 F
0.900420 0.648944 0.596069 F
