Ti4 O4 F8                               
   1.00000000000000     
     5.5617454074525101    0.0249132438439860    0.0000000370569250
    -2.7583883063624244    4.8799217530036634    0.0000001008557305
     0.0000000583786185    0.0000000406583754    9.5051892487706429
   Ti   O    F 
     4     4     8
Direct
  0.3404023147928980  0.6719770263709863  0.6067068155047910
  0.6586981107810976  0.2911731963281304  0.3924554614113640
  0.6586980626487378  0.2911731520629886  0.1075445494128771
  0.3404022671124926  0.6719770131431101  0.8932931995415451
  0.4989008093194233  0.0014008515709865  0.9927765817392417
  0.4989007749093088  0.0014009401093183  0.5072234585671086
  0.2125164198412354  0.4144137013204087  0.7499999890054689
  0.7974005685491222  0.1718520006862211  0.2499999902205363
  0.0005617582093079  0.5064982826044403  0.0011807608628653
  0.5023456422632862  0.5038286334838625  0.0059939879157491
  0.0005618936125925  0.5064983633623666  0.4988191611011444
  0.5023460455071784  0.5038290016784516  0.4940060068567497
  0.7854921103609089  0.6043712610681500  0.2499999584545171
  0.3569042150409538  0.1807530882223131  0.2500000192473777
  0.6449875902517758  0.8390362479761067  0.7500000289130240
  0.2008814167996740  0.8398172400121734  0.7500000312456401
 
  0.00000000E+00  0.00000000E+00  0.00000000E+00
  0.00000000E+00  0.00000000E+00  0.00000000E+00
  0.00000000E+00  0.00000000E+00  0.00000000E+00
  0.00000000E+00  0.00000000E+00  0.00000000E+00
  0.00000000E+00  0.00000000E+00  0.00000000E+00
  0.00000000E+00  0.00000000E+00  0.00000000E+00
  0.00000000E+00  0.00000000E+00  0.00000000E+00
  0.00000000E+00  0.00000000E+00  0.00000000E+00
  0.00000000E+00  0.00000000E+00  0.00000000E+00
  0.00000000E+00  0.00000000E+00  0.00000000E+00
  0.00000000E+00  0.00000000E+00  0.00000000E+00
  0.00000000E+00  0.00000000E+00  0.00000000E+00
  0.00000000E+00  0.00000000E+00  0.00000000E+00
  0.00000000E+00  0.00000000E+00  0.00000000E+00
  0.00000000E+00  0.00000000E+00  0.00000000E+00
  0.00000000E+00  0.00000000E+00  0.00000000E+00
