Mn2 O2 F4                               
    1.000000000000000     
     3.7575583792286067   -0.0000000082296424    0.0000169893982449
    -0.0000000070758058    3.6973712910066436    0.0000001296564575
    -0.0000087356137169    0.0000001876262450    7.7372495165920183
   Mn   O    F 
     2     2     4
Direct
  0.4997861468169454  0.4999999881647544  0.2555365790236005
  0.4998620449934771  0.4999999913598285  0.7556793596949115
  0.5004343641453465  0.0000000014946836  0.2548433993343923
  0.0002920576527111  0.5000000013662889  0.2551921430613785
  0.4998801498724647  0.5000000431879034  0.0161833513667461
  0.4999052749584315  0.4999999769182575  0.4947436592299919
  0.4998943454756524 -0.0000000066263740  0.7554081528207934
 -0.0000543839150287  0.5000000041346577  0.7554133554681637
 
  0.00000000E+00  0.00000000E+00  0.00000000E+00
  0.00000000E+00  0.00000000E+00  0.00000000E+00
  0.00000000E+00  0.00000000E+00  0.00000000E+00
  0.00000000E+00  0.00000000E+00  0.00000000E+00
  0.00000000E+00  0.00000000E+00  0.00000000E+00
  0.00000000E+00  0.00000000E+00  0.00000000E+00
  0.00000000E+00  0.00000000E+00  0.00000000E+00
  0.00000000E+00  0.00000000E+00  0.00000000E+00
