V2 O2 F4                                
   1.00000000000000     
     3.8115751248519767   -0.0000000059044135   -0.0029985393853509
    -0.0000000025056150    3.8386926049970329    0.0000000080050331
    -0.0106518242502822   -0.0000001047753581    7.4539966130381892
   V    O    F 
     2     2     4
Direct
  0.5101884909081493  0.4999999876833363  0.2353481889605684
  0.4338871697802536  0.5000000010822033  0.7552701527047417
  0.5046761960695221  0.5000000028731961  0.0119879243074933
  0.0053035071147001  0.4999999916420683  0.7568323774106461
  0.5137853995356682  0.5000000105728701  0.5008092081111991
  0.5099212362751471 -0.0000000038999351  0.2651482578190035
  0.5118737671616076  0.0000000001195366  0.7501502114724045
  0.0103642331549516  0.5000000099267247  0.2674536792139356
 
  0.00000000E+00  0.00000000E+00  0.00000000E+00
  0.00000000E+00  0.00000000E+00  0.00000000E+00
  0.00000000E+00  0.00000000E+00  0.00000000E+00
  0.00000000E+00  0.00000000E+00  0.00000000E+00
  0.00000000E+00  0.00000000E+00  0.00000000E+00
  0.00000000E+00  0.00000000E+00  0.00000000E+00
  0.00000000E+00  0.00000000E+00  0.00000000E+00
  0.00000000E+00  0.00000000E+00  0.00000000E+00
