Co8 O8 F16                              
   1.00000000000000     
     7.6183589052340279    0.0207547952991532   -0.0017722874703322
     0.0356960511193924    7.6634228603321413    0.0009970686031200
    -0.0024621691230347    0.0058065831344833    7.5667164532372899
   Co   O    F 
     8     8    16
Direct
  0.0003816592183191  0.0007834650563496  0.9988758294272556
  0.9915816167613363  0.0006301991719838  0.4985202909956221
  0.0005234478956371  0.5010127880385031  0.9994535540090054
  0.0038226613618402  0.5008790442782071  0.4998257001382674
  0.5001759834600307  0.9997741971862563  0.0023418028456158
  0.4931522965977035  0.0003645126313815  0.5028714303820372
  0.5008202418079268  0.5007397030123182 -0.0000144070151358
  0.5051283013584763  0.4931611983185242  0.4998645984596847
  0.0022931122276909  0.5007628314633278  0.2501572569846601
  0.0022179295254295  0.5009191205001394  0.7489389915068625
  0.5017110069886951  0.4980155241790690  0.2518624210338893
  0.5022461109549838  0.4975060139941264  0.7476851702086020
  0.2453195975255930  0.0007887514753618  0.0004304057287943
  0.7507938580897536 -0.0001087827585354  0.0002978381941965
  0.7431861245214195  0.0005677942854131  0.5003092471042968
  0.5111026245129955  0.2453825920658192  0.5000234349684453
  0.0028757867747669  0.0020047980723517  0.2534950548794271
  0.4906947840058510  0.0005836037476990  0.7572321153527294
  0.2503419703927307  0.9938848477789917  0.5012094105556301
  0.2560174786751054  0.5013740433821273  0.4996880341140407
  0.7459668193608636  0.5006149338806046  0.9993170729419196
  0.7516024507742100  0.5013848004682396  0.4991116384653664
  0.9985735478912654  0.7517620168732927  0.9992391353448903
  0.5010040558368802  0.2503557526050871  0.0006386459957892
  0.0025720208845020  0.0026264349282804  0.7444314222982190
  0.4909234938818059  0.0023246063816561  0.2466269324015618
  0.2553783082795556  0.5010212911654718  0.9992526570136905
  0.9968264500830532  0.2500531266610035  0.9990577697621927
 -0.0005687771190265  0.2505473095353287  0.4990388211189601
  0.9960101651832985  0.7511005400960246  0.4985761943485316
  0.4988901525141587  0.7504853887479445  0.0009015130830846
  0.5084347197731626  0.7486975527776381  0.5007400173518681
 
  0.00000000E+00  0.00000000E+00  0.00000000E+00
  0.00000000E+00  0.00000000E+00  0.00000000E+00
  0.00000000E+00  0.00000000E+00  0.00000000E+00
  0.00000000E+00  0.00000000E+00  0.00000000E+00
  0.00000000E+00  0.00000000E+00  0.00000000E+00
  0.00000000E+00  0.00000000E+00  0.00000000E+00
  0.00000000E+00  0.00000000E+00  0.00000000E+00
  0.00000000E+00  0.00000000E+00  0.00000000E+00
  0.00000000E+00  0.00000000E+00  0.00000000E+00
  0.00000000E+00  0.00000000E+00  0.00000000E+00
  0.00000000E+00  0.00000000E+00  0.00000000E+00
  0.00000000E+00  0.00000000E+00  0.00000000E+00
  0.00000000E+00  0.00000000E+00  0.00000000E+00
  0.00000000E+00  0.00000000E+00  0.00000000E+00
  0.00000000E+00  0.00000000E+00  0.00000000E+00
  0.00000000E+00  0.00000000E+00  0.00000000E+00
  0.00000000E+00  0.00000000E+00  0.00000000E+00
  0.00000000E+00  0.00000000E+00  0.00000000E+00
  0.00000000E+00  0.00000000E+00  0.00000000E+00
  0.00000000E+00  0.00000000E+00  0.00000000E+00
  0.00000000E+00  0.00000000E+00  0.00000000E+00
  0.00000000E+00  0.00000000E+00  0.00000000E+00
  0.00000000E+00  0.00000000E+00  0.00000000E+00
  0.00000000E+00  0.00000000E+00  0.00000000E+00
  0.00000000E+00  0.00000000E+00  0.00000000E+00
  0.00000000E+00  0.00000000E+00  0.00000000E+00
  0.00000000E+00  0.00000000E+00  0.00000000E+00
  0.00000000E+00  0.00000000E+00  0.00000000E+00
  0.00000000E+00  0.00000000E+00  0.00000000E+00
  0.00000000E+00  0.00000000E+00  0.00000000E+00
  0.00000000E+00  0.00000000E+00  0.00000000E+00
  0.00000000E+00  0.00000000E+00  0.00000000E+00
