Na4 Mn4 O8 F4                           
   1.00000000000000     
     5.1927317077704522    0.0000052197057071    0.0000273256705890
     0.0000012882486536    5.0932422265278410   -0.0211614314174877
     0.0000361651884717   -0.0173611062893982    8.2246209239412185
   Na   Mn   O    F 
     4     4     8     4
Direct
  0.9731715493786633  0.0238104538930442  0.2505258164949205
  0.0266492412067634  0.9763345402417075  0.7493539716103806
  0.4731749896628998  0.4761748424116609  0.7494574296395945
  0.5266646834672117  0.5236660486856136  0.2506175806928326
  0.4997521501117654  0.0000446349252399  0.0000266414042181
 -0.0002460605153306  0.4999506153712052 -0.0000315979817513
  0.5004413544158850 -0.0000758539575159  0.4999406934749964
  0.0007378418370724  0.5001985402051781  0.5000885079320171
  0.7341243286092518  0.2668657545979093  0.0511556508014154
  0.2652067993779630  0.7332328013294724  0.9489902050847567
  0.2341263177208482  0.2330888964184731  0.9488382987803209
  0.7652102942947809  0.7667300200171361  0.0509909750312076
  0.2679980642882774  0.7324808991891832  0.5516147093671027
  0.7325301508504917  0.2676641548733289  0.4485673605615415
  0.7679239392111966  0.7675131468157486  0.4484147872096622
  0.2324662513714048  0.2323228350524683  0.5514636949964954
  0.0988196858844898  0.4870920606381311  0.2782817977254509
  0.9012883720931332  0.5129705592832973  0.7216107794128506
  0.5987397158059997  0.0128999851321424  0.7217113942378074
  0.4012203309272320  0.9870350648765905  0.2783813035241737
 
  0.00000000E+00  0.00000000E+00  0.00000000E+00
  0.00000000E+00  0.00000000E+00  0.00000000E+00
  0.00000000E+00  0.00000000E+00  0.00000000E+00
  0.00000000E+00  0.00000000E+00  0.00000000E+00
  0.00000000E+00  0.00000000E+00  0.00000000E+00
  0.00000000E+00  0.00000000E+00  0.00000000E+00
  0.00000000E+00  0.00000000E+00  0.00000000E+00
  0.00000000E+00  0.00000000E+00  0.00000000E+00
  0.00000000E+00  0.00000000E+00  0.00000000E+00
  0.00000000E+00  0.00000000E+00  0.00000000E+00
  0.00000000E+00  0.00000000E+00  0.00000000E+00
  0.00000000E+00  0.00000000E+00  0.00000000E+00
  0.00000000E+00  0.00000000E+00  0.00000000E+00
  0.00000000E+00  0.00000000E+00  0.00000000E+00
  0.00000000E+00  0.00000000E+00  0.00000000E+00
  0.00000000E+00  0.00000000E+00  0.00000000E+00
  0.00000000E+00  0.00000000E+00  0.00000000E+00
  0.00000000E+00  0.00000000E+00  0.00000000E+00
  0.00000000E+00  0.00000000E+00  0.00000000E+00
  0.00000000E+00  0.00000000E+00  0.00000000E+00
