Co2 O2 F4                               
   1.00000000000000     
    -2.5397297772242080   -4.3947281526026210   -0.0520905485524648
    -5.0741227019659068   -0.0032915637639637   -0.0532064032006064
    -2.5464281078260278   -1.4700378675548023   -4.4990351495443122
   Co   O    F 
     2     2     4
Direct
  0.0170399008604963  0.9716411200502308  0.9990275488286833
  0.5282909490080141  0.4829989962536114  0.5010159737003405
  0.2527018744830767  0.6734472645866548  0.2405588799505443
  0.8263237285418760  0.2472890595856028  0.2595989360965474
  0.6325578558882050  0.8675166671107114  0.2498206667407762
  0.3500532292039144  0.1498863150472634  0.7500158795029498
  0.1420239447611639  0.7490580101604637  0.7443771676735516
  0.7510085172532606  0.3581625672054689  0.7555849475066142
 
  0.00000000E+00  0.00000000E+00  0.00000000E+00
  0.00000000E+00  0.00000000E+00  0.00000000E+00
  0.00000000E+00  0.00000000E+00  0.00000000E+00
  0.00000000E+00  0.00000000E+00  0.00000000E+00
  0.00000000E+00  0.00000000E+00  0.00000000E+00
  0.00000000E+00  0.00000000E+00  0.00000000E+00
  0.00000000E+00  0.00000000E+00  0.00000000E+00
  0.00000000E+00  0.00000000E+00  0.00000000E+00
