Na4 Fe4 O8 F4                           
   1.00000000000000     
     5.2955334035968464    0.0621047987623132   -0.0243857666589476
     0.0638988611183108    5.3424063069892238    0.0282457440163766
    -0.0326598899413205    0.0281458231856255    7.4126794883655434
   Na   Fe   O    F 
     4     4     8     4
Direct
  0.9947105588340692  0.0391316976721873  0.2490175918333206
  0.0141791474086397  0.9692117643546810  0.7521358495312318
  0.4941470379673417  0.4659046112322721  0.7608454453156587
  0.5036570177402703  0.5429683644521727  0.2403257384467843
  0.5211469559018098  0.9933849121742188  0.9931834420140557
  0.9995008770806033  0.5147888645055240 -0.0000829710020951
  0.5048904714253923  0.0022437853077072  0.5117863243904215
  0.9939037066093712  0.5032087188046007  0.5028259012015035
  0.0715351676725879  0.4797577703663774  0.2513623289333519
  0.9301165973158103  0.5081311485926394  0.7467579458365317
  0.5773955763642016  0.0190566578374088  0.7511942964432065
  0.7122878386863385  0.2743634426489631  0.0360552973514558
  0.2824622302291508  0.7157020374210425  0.9663864721412547
  0.7838047617341656  0.7808838692277505  0.0441127354334676
  0.7896842236124815  0.7887857247526027  0.4619532606230362
  0.2042106196005383  0.2158391801841511  0.5270779241462392
  0.4153996050776690  0.9785820486503772  0.2518472688396672
  0.2123377425183106  0.2063315378452047  0.9634582785277366
  0.3023609250877640  0.7063687756181010  0.5446356080545370
  0.6922689391334833  0.2953550883520245  0.4451212619386268
 
  0.00000000E+00  0.00000000E+00  0.00000000E+00
  0.00000000E+00  0.00000000E+00  0.00000000E+00
  0.00000000E+00  0.00000000E+00  0.00000000E+00
  0.00000000E+00  0.00000000E+00  0.00000000E+00
  0.00000000E+00  0.00000000E+00  0.00000000E+00
  0.00000000E+00  0.00000000E+00  0.00000000E+00
  0.00000000E+00  0.00000000E+00  0.00000000E+00
  0.00000000E+00  0.00000000E+00  0.00000000E+00
  0.00000000E+00  0.00000000E+00  0.00000000E+00
  0.00000000E+00  0.00000000E+00  0.00000000E+00
  0.00000000E+00  0.00000000E+00  0.00000000E+00
  0.00000000E+00  0.00000000E+00  0.00000000E+00
  0.00000000E+00  0.00000000E+00  0.00000000E+00
  0.00000000E+00  0.00000000E+00  0.00000000E+00
  0.00000000E+00  0.00000000E+00  0.00000000E+00
  0.00000000E+00  0.00000000E+00  0.00000000E+00
  0.00000000E+00  0.00000000E+00  0.00000000E+00
  0.00000000E+00  0.00000000E+00  0.00000000E+00
  0.00000000E+00  0.00000000E+00  0.00000000E+00
  0.00000000E+00  0.00000000E+00  0.00000000E+00
