Na4 Fe4 O8 F4                           
   1.00000000000000     
     5.3244860287560698   -0.2602188883157114    0.0062218430237029
    -0.2621536224922013    5.3697701505217710    0.0137190971098671
     0.0081521429881095    0.0098433024326819    7.3653911933451672
   Na   Fe   O    F 
     4     4     8     4
Direct
  0.0034647324160185  0.0446477644957457  0.2408752769737886
  0.0069701586645969  0.9577610306846790  0.7565416506952147
  0.4841919931963338  0.4576034810283798  0.7583465368724204
  0.5124263465182108  0.5260093808656376  0.2501377069821824
  0.5222736595498663  0.9843198179934745  0.0044654312629059
  0.9910734561926769  0.5185041676660372  0.0121993863878250
  0.5023361434646566  0.9975494989028345  0.4995873535386083
  0.0044990246697474  0.5008916777130454  0.4879260546528612
  0.0843556736948376  0.4980279661700144  0.2489971448950246
  0.5752451563147012  0.0233301759749200  0.7515022624659632
  0.4252981999761024  0.9627987049509232  0.2489631681290659
  0.7134727846259159  0.2780217342958388  0.0426214734494210
  0.2756652640771212  0.7291498904410691  0.9486801309328254
  0.7849843048697189  0.7778749255401387  0.0348314845234510
  0.2918437475574824  0.7096582988170418  0.5468739049568832
  0.7083885171809911  0.2864079878104745  0.4593375244731664
  0.9091765529186344  0.5147406005638339  0.7460642157191254
  0.2000080370961977  0.2299524841551760  0.9585402940384499
  0.8062500694957276  0.7968608507241938  0.4604257158782448
  0.1980761775204690  0.2058895612065276  0.5430832831725867
 
  0.00000000E+00  0.00000000E+00  0.00000000E+00
  0.00000000E+00  0.00000000E+00  0.00000000E+00
  0.00000000E+00  0.00000000E+00  0.00000000E+00
  0.00000000E+00  0.00000000E+00  0.00000000E+00
  0.00000000E+00  0.00000000E+00  0.00000000E+00
  0.00000000E+00  0.00000000E+00  0.00000000E+00
  0.00000000E+00  0.00000000E+00  0.00000000E+00
  0.00000000E+00  0.00000000E+00  0.00000000E+00
  0.00000000E+00  0.00000000E+00  0.00000000E+00
  0.00000000E+00  0.00000000E+00  0.00000000E+00
  0.00000000E+00  0.00000000E+00  0.00000000E+00
  0.00000000E+00  0.00000000E+00  0.00000000E+00
  0.00000000E+00  0.00000000E+00  0.00000000E+00
  0.00000000E+00  0.00000000E+00  0.00000000E+00
  0.00000000E+00  0.00000000E+00  0.00000000E+00
  0.00000000E+00  0.00000000E+00  0.00000000E+00
  0.00000000E+00  0.00000000E+00  0.00000000E+00
  0.00000000E+00  0.00000000E+00  0.00000000E+00
  0.00000000E+00  0.00000000E+00  0.00000000E+00
  0.00000000E+00  0.00000000E+00  0.00000000E+00
