Na4 V4 O8 F4                            
   1.00000000000000     
     5.3130000455763104   -0.0421212247217593   -0.0044824094873665
    -0.0510266491670310    5.3430387057812831    0.0005451761469091
     0.0056842648267192   -0.0102406890766829    7.5212880957092914
   Na   V    O    F 
     4     4     8     4
Direct
  0.9968712988081334  0.0435291188194286  0.2453638683348281
 -0.0033615397597703  0.9739845302197579  0.7634795887712761
  0.4911031969984504  0.4736073058550093  0.7464544744246924
  0.5043202900996194  0.5349796182655487  0.2489873028486125
  0.4971347634977915  0.0312049125558071  0.0097715550192775
  0.9803234094327773  0.5022030869899768  0.9893783598296082
  0.5009744614698721  0.9988862775011133  0.5016568791960704
  0.9963453125310391  0.4998342153906223  0.5122204110748400
  0.9272856165825144  0.5210252510726278  0.7506332319824294
  0.5516687844617534  0.0062985281508863  0.7367385691744506
  0.4358309210074361  0.9903413808841438  0.2561431806443000
  0.7181826693313966  0.2706585513683897  0.0294529860206246
  0.2145295485664153  0.2208849008881336  0.9701301876478207
  0.8030881614860342  0.7651608057131718  0.0442045465261538
  0.2789882291946343  0.6945671651426721  0.5212090069936146
  0.7231594697695944  0.2984491706249070  0.4621799858094680
  0.0839949320476425  0.4706785029919916  0.2491327909518838
  0.3032706519654189  0.7092276690816984  0.9640321343985582
  0.8034610408260461  0.8003911848039253  0.4541685397057399
  0.1928287816832009  0.1940878236801803  0.5446624006457439
 
  0.00000000E+00  0.00000000E+00  0.00000000E+00
  0.00000000E+00  0.00000000E+00  0.00000000E+00
  0.00000000E+00  0.00000000E+00  0.00000000E+00
  0.00000000E+00  0.00000000E+00  0.00000000E+00
  0.00000000E+00  0.00000000E+00  0.00000000E+00
  0.00000000E+00  0.00000000E+00  0.00000000E+00
  0.00000000E+00  0.00000000E+00  0.00000000E+00
  0.00000000E+00  0.00000000E+00  0.00000000E+00
  0.00000000E+00  0.00000000E+00  0.00000000E+00
  0.00000000E+00  0.00000000E+00  0.00000000E+00
  0.00000000E+00  0.00000000E+00  0.00000000E+00
  0.00000000E+00  0.00000000E+00  0.00000000E+00
  0.00000000E+00  0.00000000E+00  0.00000000E+00
  0.00000000E+00  0.00000000E+00  0.00000000E+00
  0.00000000E+00  0.00000000E+00  0.00000000E+00
  0.00000000E+00  0.00000000E+00  0.00000000E+00
  0.00000000E+00  0.00000000E+00  0.00000000E+00
  0.00000000E+00  0.00000000E+00  0.00000000E+00
  0.00000000E+00  0.00000000E+00  0.00000000E+00
  0.00000000E+00  0.00000000E+00  0.00000000E+00
