Mn2 O2 F4                               
    1.000000000000000     
     3.5909360135089372    0.0000023864525756   -0.0000276854086700
     0.0000029679261002    3.8452394520384825   -0.0001141867771110
     0.0000519917600888   -0.0009238380298655    7.6707713816624956
   Mn   O    F 
     2     2     4
Direct
  0.4999384154855859  0.4999965925250249  0.2558156662589877
  0.4999272869050298  0.4999974799233463  0.7558482243287699
  0.0000859063688596  0.4999714843626711  0.2548460996748237
  0.0000887092038072  0.5000671457825281  0.7548467847875991
  0.4999903011243870  0.4999672966910235  0.0056457036019404
  0.4999900946414588  0.5000010018393020  0.5054130189682067
  0.4999895618586088  0.9999882959648946  0.2553013455360830
  0.4999897244122701  0.0000107029112100  0.7552831568435815
 
  0.00000000E+00  0.00000000E+00  0.00000000E+00
  0.00000000E+00  0.00000000E+00  0.00000000E+00
  0.00000000E+00  0.00000000E+00  0.00000000E+00
  0.00000000E+00  0.00000000E+00  0.00000000E+00
  0.00000000E+00  0.00000000E+00  0.00000000E+00
  0.00000000E+00  0.00000000E+00  0.00000000E+00
  0.00000000E+00  0.00000000E+00  0.00000000E+00
  0.00000000E+00  0.00000000E+00  0.00000000E+00
