Ti8 O8 F16                              
   1.00000000000000     
     7.8549189932742003    0.0000000158866358   -0.0000000069078515
     0.0000000157039175    7.3848781751460404    0.0000000047237094
    -0.0000000073360851    0.0000000033691761    7.8547247081731912
   Ti   O    F 
     8     8    16
Direct
  0.0000057428436406  0.9999999971826199  0.9999999976327416
  0.0000057524314485  0.9999999694915971  0.5000000075613116
  0.0000057516548893  0.4999999973246858  0.0000000034659848
  0.0000057637462305  0.5000000133335973  0.5000000012075532
  0.5000057342614355  0.9999999894944409  0.0000000000244640
  0.5000057380752949  0.0000000127324071  0.4999999990754063
  0.5000057308652757  0.5000000135550948  0.0000000027756855
  0.5000057507946707  0.4999999960062596  0.5000000086368459
  0.9999978221140822  0.2500000750897371  0.0000000140082861
  0.9999978678349351  0.2499999267809443  0.5000000126492665
  0.9999978603889659  0.7499999263391572  0.0000000334428449
  0.9999978630003454  0.7500000648151044  0.4999999689379706
  0.4999978189583345  0.2499999346176480  0.9999999865435214
  0.4999978352672301  0.2500000908881432  0.4999999782825029
  0.4999977944695218  0.7500000731302023  0.0000000197032151
  0.4999978347097382  0.7499999137439843  0.4999999601609559
  0.0000003834759994  0.9999999992215933  0.2500001828692717
  0.0000003703041216  0.9999999946954787  0.7499998130464860
  0.0000003827192998  0.5000000024676226  0.2499999907728707
  0.0000003727701241  0.5000000073229032  0.7500000147859396
  0.5000003368186867  0.9999999858145969  0.2499999566823874
  0.5000003441877396  0.0000000030014178  0.7500000409293506
  0.5000003306670990  0.5000000098700710  0.2500001454224758
  0.5000003393872277  0.5000000019591724  0.7499998508493704
  0.2499962349660905  0.9999999943159850  0.0000000255607588
  0.2499960107107384  0.0000000023064857  0.4999999780981739
  0.2499960392481952  0.5000000003926743  0.0000000300845713
  0.2499962125776918  0.5000000011467804  0.4999999730495617
  0.7499958787193677  0.9999999924762477  0.0000000133788092
  0.7499961144814620  0.9999999928894781  0.4999999879549435
  0.7499960753900936  0.5000000111089662  0.0000000181567543
  0.7499959121600170  0.5000000064849033  0.4999999842497189
 
  0.00000000E+00  0.00000000E+00  0.00000000E+00
  0.00000000E+00  0.00000000E+00  0.00000000E+00
  0.00000000E+00  0.00000000E+00  0.00000000E+00
  0.00000000E+00  0.00000000E+00  0.00000000E+00
  0.00000000E+00  0.00000000E+00  0.00000000E+00
  0.00000000E+00  0.00000000E+00  0.00000000E+00
  0.00000000E+00  0.00000000E+00  0.00000000E+00
  0.00000000E+00  0.00000000E+00  0.00000000E+00
  0.00000000E+00  0.00000000E+00  0.00000000E+00
  0.00000000E+00  0.00000000E+00  0.00000000E+00
  0.00000000E+00  0.00000000E+00  0.00000000E+00
  0.00000000E+00  0.00000000E+00  0.00000000E+00
  0.00000000E+00  0.00000000E+00  0.00000000E+00
  0.00000000E+00  0.00000000E+00  0.00000000E+00
  0.00000000E+00  0.00000000E+00  0.00000000E+00
  0.00000000E+00  0.00000000E+00  0.00000000E+00
  0.00000000E+00  0.00000000E+00  0.00000000E+00
  0.00000000E+00  0.00000000E+00  0.00000000E+00
  0.00000000E+00  0.00000000E+00  0.00000000E+00
  0.00000000E+00  0.00000000E+00  0.00000000E+00
  0.00000000E+00  0.00000000E+00  0.00000000E+00
  0.00000000E+00  0.00000000E+00  0.00000000E+00
  0.00000000E+00  0.00000000E+00  0.00000000E+00
  0.00000000E+00  0.00000000E+00  0.00000000E+00
  0.00000000E+00  0.00000000E+00  0.00000000E+00
  0.00000000E+00  0.00000000E+00  0.00000000E+00
  0.00000000E+00  0.00000000E+00  0.00000000E+00
  0.00000000E+00  0.00000000E+00  0.00000000E+00
  0.00000000E+00  0.00000000E+00  0.00000000E+00
  0.00000000E+00  0.00000000E+00  0.00000000E+00
  0.00000000E+00  0.00000000E+00  0.00000000E+00
  0.00000000E+00  0.00000000E+00  0.00000000E+00
