Ti32 O60                                
   1.00000000000000     
     4.6905092426328467    0.0110489419778097    3.0489369725309610
    -4.5589558622476050    4.7297684344415307    2.8921880160664077
     0.0153992775568068    0.0118783173678936   44.8495649179329874
   Ti   O 
    32    60
Direct
  0.9969837046002539  0.9953139550088963  0.9670625503028276
  0.0045665905723880  0.0035718968769913  0.0324751892686521
  0.4977708507714738  0.4959395517310483  0.4665343888869629
  0.5077850959305508  0.5056926817249305  0.5318904927963146
  0.9675428052029957  0.9775642144164252  0.9047761224632609
  0.0335022900004773  0.0218069758410451  0.0959532670388583
  0.4657449439105861  0.4743000555264061  0.4038226111193666
  0.5334739131053112  0.5223398848324763  0.5958735520200236
  0.9387941111115765  0.9439919163156745  0.8405666464303039
  0.0597876430776338  0.0489011243612580  0.1597423296338718
  0.4389465565942885  0.4476884461157198  0.3400919649297904
  0.5630587959337561  0.5504190709253720  0.6592760619461444
  0.9065946269047487  0.9578059819412488  0.7732177374363403
  0.0969085480120881  0.0512499125420334  0.2256769538132986
  0.4102680976870943  0.4601458851409745  0.2730233694054931
  0.5941060227878410  0.5462460351295633  0.7261879496018580
  0.9879313324580892  0.4942404579575523  0.9677650228125216
  0.0143280043575515  0.5066135818103419  0.0321727663322591
  0.4862005813667025  0.9910201460444128  0.4681955004420431
  0.5184914693569098  0.0103630596653588  0.5316330627656995
  0.9574372271559781  0.4685426446299488  0.9049141389633988
  0.0443928234888702  0.5281414174333321  0.0959446892751146
  0.4614763114481804  0.9739870880528656  0.4041986110314397
  0.5456977449442846  0.0290661795010649  0.5957796700891009
  0.9477435720207055  0.4538880492609323  0.8391624112932519
  0.0511021470437711  0.5441170681974725  0.1608866985460438
  0.4458735613331370  0.9529495496131943  0.3388758159573513
  0.5567373952352099  0.0461099891643428  0.6602333456899672
  0.9073510482207823  0.4581846861075931  0.7739832913162132
  0.1012909384381047  0.5507793548681761  0.2264208067348505
  0.4000828953475377  0.9563289715627619  0.2744790767989898
  0.6031635241432696  0.0525994340950717  0.7254052145869565
  0.0113015808075332  0.3093394179965969  0.9452203247588784
  0.9959479416116821  0.6944945041160153  0.0544654988844684
  0.5085119275378958  0.8084789494144502  0.4447720942210154
  0.4969715668895205  0.1958894312990935  0.5542089561846169
  0.9983484847752564  0.2905750198365737  0.8816141647854678
  0.9945623359994116  0.7070038506878689  0.1188629740294544
  0.4897375945590028  0.7934090201615902  0.3801050750934181
  0.4904935734471749  0.2046805492429655  0.6194274112403022
  0.0711366200034291  0.3255141920253308  0.8012377225073593
  0.9148679057833107  0.6724314804521754  0.1993483356767172
  0.5603192801723367  0.8211560537098279  0.3052535355461785
  0.4187331292562675  0.1775747109324541  0.6981484825833064
  0.9857143859532655  0.6838065073388506  0.9889772534115622
  0.0122292196026592  0.3113107442957528  0.0112276859444194
  0.4852909057250017  0.1841585051986314  0.4885937845717194
  0.5104746698339895  0.8104454425489465  0.5114694002223672
  0.9763523613200036  0.6791164126477298  0.9225493777790632
  0.0352431471050068  0.3264169922722999  0.0763326113351965
  0.4679655496587074  0.1755148378506135  0.4232631442984314
  0.5387823490974668  0.8292381033229432  0.5756961722468148
  0.9401937517424557  0.6606085772403389  0.8605607666417328
  0.0527419489200653  0.3331135281101396  0.1405972862540281
  0.4282048401322598  0.1500734105228219  0.3604956614191153
  0.5539107550283973  0.8348310820213669  0.6402376875039479
  0.9699837487761087  0.6861700866634095  0.7878477326402660
  0.0202162779857531  0.3072145322871194  0.2123641632723263
  0.4720762791191504  0.1891017183128412  0.2908485371572027
  0.5348139101776184  0.8127040457066670  0.7104013164916765
  0.3927928554374134  0.1850526496054457  0.9629562536136476
  0.6105330811309031  0.8133498170696782  0.0404271753980723
  0.8936079453855186  0.6865994044454240  0.4625272978501371
  0.1122914602427230  0.3151207397471865  0.5399738192210464
  0.3790790726205273  0.1714306178505112  0.8935411752177700
  0.6360758906045945  0.8354760266847663  0.1035786269942562
  0.8852102907875050  0.6757928816909526  0.3919716833250035
  0.1389673139786041  0.3374964195838572  0.6031184263025722
  0.3632811128419533  0.1666345705127128  0.8291908816723605
  0.6621074101278950  0.8456177367538729  0.1674387672762592
  0.8350992287854098  0.6491802152366759  0.3323587820678284
  0.1643074132331890  0.3497109409133330  0.6668672671254967
  0.3686597971710910  0.1576188273116514  0.7636599998404918
  0.6230348730378523  0.8420235100583398  0.2369853524775678
  0.8646570167869925  0.6580480417948849  0.2651847354275318
  0.1200239305612669  0.3458325567836553  0.7372225866514555
  0.5902761384700170  0.7961582197070811  0.9731193432392331
  0.4011450494842705  0.1996615511821744  0.0264534366030844
  0.0925168057045909  0.3011967092673018  0.4720833570273726
  0.9005405267116728  0.6975573657264960  0.5265501058726940
  0.5954394604900344  0.8093252693405617  0.9053616489669736
  0.4135059645740000  0.1940380283381415  0.0936455655015180
  0.0832959759380785  0.2982692734900638  0.4068990524887681
  0.9154203494917041  0.6966973644232652  0.5932334935594525
  0.5843152813102250  0.8007068149484553  0.8399544355879200
  0.4181966218497166  0.1952864429602741  0.1602300729466890
  0.0744555412685273  0.3021298079783890  0.3406706340421479
  0.9177355650508048  0.6946141025698651  0.6602111799344996
  0.5508635365770900  0.8127900722031285  0.7766547557687247
  0.4446783223912121  0.1905350191127297  0.2237287626214268
  0.0416222779417197  0.3032343536995796  0.2785797766988480
  0.9460026764300480  0.6785336763996668  0.7252730822495721
 
  0.00000000E+00  0.00000000E+00  0.00000000E+00
  0.00000000E+00  0.00000000E+00  0.00000000E+00
  0.00000000E+00  0.00000000E+00  0.00000000E+00
  0.00000000E+00  0.00000000E+00  0.00000000E+00
  0.00000000E+00  0.00000000E+00  0.00000000E+00
  0.00000000E+00  0.00000000E+00  0.00000000E+00
  0.00000000E+00  0.00000000E+00  0.00000000E+00
  0.00000000E+00  0.00000000E+00  0.00000000E+00
  0.00000000E+00  0.00000000E+00  0.00000000E+00
  0.00000000E+00  0.00000000E+00  0.00000000E+00
  0.00000000E+00  0.00000000E+00  0.00000000E+00
  0.00000000E+00  0.00000000E+00  0.00000000E+00
  0.00000000E+00  0.00000000E+00  0.00000000E+00
  0.00000000E+00  0.00000000E+00  0.00000000E+00
  0.00000000E+00  0.00000000E+00  0.00000000E+00
  0.00000000E+00  0.00000000E+00  0.00000000E+00
  0.00000000E+00  0.00000000E+00  0.00000000E+00
  0.00000000E+00  0.00000000E+00  0.00000000E+00
  0.00000000E+00  0.00000000E+00  0.00000000E+00
  0.00000000E+00  0.00000000E+00  0.00000000E+00
  0.00000000E+00  0.00000000E+00  0.00000000E+00
  0.00000000E+00  0.00000000E+00  0.00000000E+00
  0.00000000E+00  0.00000000E+00  0.00000000E+00
  0.00000000E+00  0.00000000E+00  0.00000000E+00
  0.00000000E+00  0.00000000E+00  0.00000000E+00
  0.00000000E+00  0.00000000E+00  0.00000000E+00
  0.00000000E+00  0.00000000E+00  0.00000000E+00
  0.00000000E+00  0.00000000E+00  0.00000000E+00
  0.00000000E+00  0.00000000E+00  0.00000000E+00
  0.00000000E+00  0.00000000E+00  0.00000000E+00
  0.00000000E+00  0.00000000E+00  0.00000000E+00
  0.00000000E+00  0.00000000E+00  0.00000000E+00
  0.00000000E+00  0.00000000E+00  0.00000000E+00
  0.00000000E+00  0.00000000E+00  0.00000000E+00
  0.00000000E+00  0.00000000E+00  0.00000000E+00
  0.00000000E+00  0.00000000E+00  0.00000000E+00
  0.00000000E+00  0.00000000E+00  0.00000000E+00
  0.00000000E+00  0.00000000E+00  0.00000000E+00
  0.00000000E+00  0.00000000E+00  0.00000000E+00
  0.00000000E+00  0.00000000E+00  0.00000000E+00
  0.00000000E+00  0.00000000E+00  0.00000000E+00
  0.00000000E+00  0.00000000E+00  0.00000000E+00
  0.00000000E+00  0.00000000E+00  0.00000000E+00
  0.00000000E+00  0.00000000E+00  0.00000000E+00
  0.00000000E+00  0.00000000E+00  0.00000000E+00
  0.00000000E+00  0.00000000E+00  0.00000000E+00
  0.00000000E+00  0.00000000E+00  0.00000000E+00
  0.00000000E+00  0.00000000E+00  0.00000000E+00
  0.00000000E+00  0.00000000E+00  0.00000000E+00
  0.00000000E+00  0.00000000E+00  0.00000000E+00
  0.00000000E+00  0.00000000E+00  0.00000000E+00
  0.00000000E+00  0.00000000E+00  0.00000000E+00
  0.00000000E+00  0.00000000E+00  0.00000000E+00
  0.00000000E+00  0.00000000E+00  0.00000000E+00
  0.00000000E+00  0.00000000E+00  0.00000000E+00
  0.00000000E+00  0.00000000E+00  0.00000000E+00
  0.00000000E+00  0.00000000E+00  0.00000000E+00
  0.00000000E+00  0.00000000E+00  0.00000000E+00
  0.00000000E+00  0.00000000E+00  0.00000000E+00
  0.00000000E+00  0.00000000E+00  0.00000000E+00
  0.00000000E+00  0.00000000E+00  0.00000000E+00
  0.00000000E+00  0.00000000E+00  0.00000000E+00
  0.00000000E+00  0.00000000E+00  0.00000000E+00
  0.00000000E+00  0.00000000E+00  0.00000000E+00
  0.00000000E+00  0.00000000E+00  0.00000000E+00
  0.00000000E+00  0.00000000E+00  0.00000000E+00
  0.00000000E+00  0.00000000E+00  0.00000000E+00
  0.00000000E+00  0.00000000E+00  0.00000000E+00
  0.00000000E+00  0.00000000E+00  0.00000000E+00
  0.00000000E+00  0.00000000E+00  0.00000000E+00
  0.00000000E+00  0.00000000E+00  0.00000000E+00
  0.00000000E+00  0.00000000E+00  0.00000000E+00
  0.00000000E+00  0.00000000E+00  0.00000000E+00
  0.00000000E+00  0.00000000E+00  0.00000000E+00
  0.00000000E+00  0.00000000E+00  0.00000000E+00
  0.00000000E+00  0.00000000E+00  0.00000000E+00
  0.00000000E+00  0.00000000E+00  0.00000000E+00
  0.00000000E+00  0.00000000E+00  0.00000000E+00
  0.00000000E+00  0.00000000E+00  0.00000000E+00
  0.00000000E+00  0.00000000E+00  0.00000000E+00
  0.00000000E+00  0.00000000E+00  0.00000000E+00
  0.00000000E+00  0.00000000E+00  0.00000000E+00
  0.00000000E+00  0.00000000E+00  0.00000000E+00
  0.00000000E+00  0.00000000E+00  0.00000000E+00
  0.00000000E+00  0.00000000E+00  0.00000000E+00
  0.00000000E+00  0.00000000E+00  0.00000000E+00
  0.00000000E+00  0.00000000E+00  0.00000000E+00
  0.00000000E+00  0.00000000E+00  0.00000000E+00
  0.00000000E+00  0.00000000E+00  0.00000000E+00
  0.00000000E+00  0.00000000E+00  0.00000000E+00
  0.00000000E+00  0.00000000E+00  0.00000000E+00
  0.00000000E+00  0.00000000E+00  0.00000000E+00
