V8 O8 F16                               
   1.00000000000000     
     7.5125956474606159    0.0019619769226500   -0.0018281717401325
    -0.0004533007891291    7.6392579161317089    0.0033750884568853
     0.0006731528938964    0.0030995531365404    7.6402811198977201
   V    O    F 
     8     8    16
Direct
  0.9969880889540288 -0.0010371271737818  0.9646865889035451
  0.9886240098288492  0.9962134820058607  0.4643591330824136
  0.0404491989980812  0.4988511309196222  0.0008737545662429
  0.0200832112627924  0.4966179732927987  0.5008707957649741
  0.5200439451747347  0.9990521228271558  0.0034303910683854
  0.4886266691247691  0.0355976622899123  0.5038174688532747
  0.5404841384719079  0.4990580200360320  0.0012994236935149
  0.4969321153690917  0.5352974820127375  0.5011280555297820
  0.9907782610728848  0.9973579440076471  0.2507468881139306
  0.2422402905392265  0.5015255507433543  0.5007198640059545
  0.7581131124903353  0.4987029444759530  0.0006995346180441
  0.9946535384725835 -0.0016284107719461  0.7509419133165176
  0.2580794041668796  0.4992083463581061  0.0011917035684754
  0.7421586493079735 -0.0007229633793710 -0.0014063144351931
  0.4907050262519558  0.2492527825686759  0.5025978721819269
  0.4946453827044656  0.7490999151850007  0.5015017577829901
  0.4859971919076548  0.9962536074773797  0.7532966128471352
  0.2393718051069934  0.9911262201173124  0.5051592702166944
  0.7529581769133007  0.4958348200564849  0.5015263905635261
  0.0031364489354737  0.7492568827367211  0.0034846722546557
  0.4957352413386493  0.2501211237969889  0.0026921443023649
  0.9957344544830065  0.4973133482350472  0.2498029838890495
  0.9962518574626050  0.4963045224607213  0.7525497956035425
  0.4904766843716538  0.9969246371340139  0.2537218230887339
  0.5042328769469971  0.4960460076375022  0.2519257454546602
  0.5032434283679218  0.4964845205017084  0.7508599430956969
  0.2529366149187277 -0.0016759895756729  0.0041809876936630
  0.7393713225246578  0.9949628992497925  0.5088299264114723
  0.0042658016486352  0.2481939154404913  0.0040232547643063
  0.9905304093145016  0.2463473786805623  0.5030558125810149
  0.9858981319973483  0.7467004021704344  0.5037783405857582
  0.4962545115713282  0.7473588484827617  0.0036534660329407
 
  0.00000000E+00  0.00000000E+00  0.00000000E+00
  0.00000000E+00  0.00000000E+00  0.00000000E+00
  0.00000000E+00  0.00000000E+00  0.00000000E+00
  0.00000000E+00  0.00000000E+00  0.00000000E+00
  0.00000000E+00  0.00000000E+00  0.00000000E+00
  0.00000000E+00  0.00000000E+00  0.00000000E+00
  0.00000000E+00  0.00000000E+00  0.00000000E+00
  0.00000000E+00  0.00000000E+00  0.00000000E+00
  0.00000000E+00  0.00000000E+00  0.00000000E+00
  0.00000000E+00  0.00000000E+00  0.00000000E+00
  0.00000000E+00  0.00000000E+00  0.00000000E+00
  0.00000000E+00  0.00000000E+00  0.00000000E+00
  0.00000000E+00  0.00000000E+00  0.00000000E+00
  0.00000000E+00  0.00000000E+00  0.00000000E+00
  0.00000000E+00  0.00000000E+00  0.00000000E+00
  0.00000000E+00  0.00000000E+00  0.00000000E+00
  0.00000000E+00  0.00000000E+00  0.00000000E+00
  0.00000000E+00  0.00000000E+00  0.00000000E+00
  0.00000000E+00  0.00000000E+00  0.00000000E+00
  0.00000000E+00  0.00000000E+00  0.00000000E+00
  0.00000000E+00  0.00000000E+00  0.00000000E+00
  0.00000000E+00  0.00000000E+00  0.00000000E+00
  0.00000000E+00  0.00000000E+00  0.00000000E+00
  0.00000000E+00  0.00000000E+00  0.00000000E+00
  0.00000000E+00  0.00000000E+00  0.00000000E+00
  0.00000000E+00  0.00000000E+00  0.00000000E+00
  0.00000000E+00  0.00000000E+00  0.00000000E+00
  0.00000000E+00  0.00000000E+00  0.00000000E+00
  0.00000000E+00  0.00000000E+00  0.00000000E+00
  0.00000000E+00  0.00000000E+00  0.00000000E+00
  0.00000000E+00  0.00000000E+00  0.00000000E+00
  0.00000000E+00  0.00000000E+00  0.00000000E+00
