Tetrasodium ferrate(IV)                 
   1.00000000000000     
     8.3818947782465347   -0.0164769614114481   -0.0336762236856573
    -1.1730321122951608    5.5724995902678787   -0.0135264130844612
    -1.0099394611581869   -3.9821884681874238    5.0399151873197168
   Fe   Na   O 
     2     8     8
Direct
  0.2519010281623265  0.5618331067481804  0.8427174446333521
  0.7480996843336100  0.4381697356838716  0.1572821466483609
  0.5677777291766325  0.7970621750022209  0.5202715949016771
  0.4322247786997126  0.2029428295336825  0.4797308740656106
  0.9829869531807907  0.0390891801994273  0.7786736006572585
  0.0170135435024342  0.9609115639834249  0.2213295720137778
  0.8335395390078331  0.3571168947709479  0.5878148072547482
  0.1664604396223152  0.6428834237192570  0.4121845145989798
  0.3670251738714591  0.1709287100272650  0.9603046722343527
  0.6329748015912676  0.8290705123207709  0.0396941240112154
  0.2000905141476114  0.1560450185209008  0.6313134250679830
  0.7999195212243029  0.8439595540675080  0.3687006902088673
  0.6149361973908870  0.3330888613408146  0.3039698524612425
  0.3850599218201753  0.6669093731470336  0.6960270495327524
  0.6684981548500464  0.3413263744390579  0.8356437175312668
  0.3314989421616196  0.6586727993027246  0.1643430966575726
  0.8929110671305895  0.2373206758014591  0.1358064493086548
  0.1070820401263822  0.7626691703914457  0.8641923832123251
 
  0.00000000E+00  0.00000000E+00  0.00000000E+00
  0.00000000E+00  0.00000000E+00  0.00000000E+00
  0.00000000E+00  0.00000000E+00  0.00000000E+00
  0.00000000E+00  0.00000000E+00  0.00000000E+00
  0.00000000E+00  0.00000000E+00  0.00000000E+00
  0.00000000E+00  0.00000000E+00  0.00000000E+00
  0.00000000E+00  0.00000000E+00  0.00000000E+00
  0.00000000E+00  0.00000000E+00  0.00000000E+00
  0.00000000E+00  0.00000000E+00  0.00000000E+00
  0.00000000E+00  0.00000000E+00  0.00000000E+00
  0.00000000E+00  0.00000000E+00  0.00000000E+00
  0.00000000E+00  0.00000000E+00  0.00000000E+00
  0.00000000E+00  0.00000000E+00  0.00000000E+00
  0.00000000E+00  0.00000000E+00  0.00000000E+00
  0.00000000E+00  0.00000000E+00  0.00000000E+00
  0.00000000E+00  0.00000000E+00  0.00000000E+00
  0.00000000E+00  0.00000000E+00  0.00000000E+00
  0.00000000E+00  0.00000000E+00  0.00000000E+00
