Na4 Ni4 O8 F4                           
   1.00000000000000     
     5.5240918422127567   -0.1575175693612654    0.0107550152230567
    -3.0347103117180936    4.4674217009196164   -0.1071246789583510
     0.8113295050283772    0.5444759092297757    8.9137795698051789
   Na   Ni   O    F 
     4     4     8     4
Direct
  0.0449112799025943  0.0553218119606172  0.0098634690838081
  0.8994272568872116  0.9252794160504788  0.4789436825137537
  0.3549811833801519  0.6008538444894345  0.2338421227093215
  0.6595266950912672  0.4186493248509250  0.7575420524741123
  0.2697795052012832  0.5997351280667071  0.6212043278031718
  0.6010617658720339  0.2312323681499592  0.3938904991998431
  0.7371224470494122  0.3857739006809028  0.1067785949287778
  0.3993972916163058  0.7700401758256330  0.8894013112120479
  0.6977590156557694  0.1613690170529572  0.9435317537252158
  0.1424337417966504  0.6847770160804525  0.0548984803401000
  0.4091775853011434  0.8266136150486538  0.4456983917433671
  0.9092935108079715  0.3928008771077243  0.5384930354720519
  0.3774520572504534  0.3178656321577722  0.5172345639939520
  0.1706440205209075  0.3921811522528980  0.8064380172918588
  0.6209445727348839  0.8216790782185235  0.7089805438045017
  0.8055927331316042  0.1762350608148313  0.2327327327635974
  0.6031125298075559  0.5913538064195309  0.0017474577445355
  0.7814198279507676  0.6197213443068704  0.2909412032928744
  0.3307152813748209  0.1537779382606979  0.2112124918682488
  0.1852476986671974  0.8747394922044374  0.7566252680348533
 
  0.00000000E+00  0.00000000E+00  0.00000000E+00
  0.00000000E+00  0.00000000E+00  0.00000000E+00
  0.00000000E+00  0.00000000E+00  0.00000000E+00
  0.00000000E+00  0.00000000E+00  0.00000000E+00
  0.00000000E+00  0.00000000E+00  0.00000000E+00
  0.00000000E+00  0.00000000E+00  0.00000000E+00
  0.00000000E+00  0.00000000E+00  0.00000000E+00
  0.00000000E+00  0.00000000E+00  0.00000000E+00
  0.00000000E+00  0.00000000E+00  0.00000000E+00
  0.00000000E+00  0.00000000E+00  0.00000000E+00
  0.00000000E+00  0.00000000E+00  0.00000000E+00
  0.00000000E+00  0.00000000E+00  0.00000000E+00
  0.00000000E+00  0.00000000E+00  0.00000000E+00
  0.00000000E+00  0.00000000E+00  0.00000000E+00
  0.00000000E+00  0.00000000E+00  0.00000000E+00
  0.00000000E+00  0.00000000E+00  0.00000000E+00
  0.00000000E+00  0.00000000E+00  0.00000000E+00
  0.00000000E+00  0.00000000E+00  0.00000000E+00
  0.00000000E+00  0.00000000E+00  0.00000000E+00
  0.00000000E+00  0.00000000E+00  0.00000000E+00
