Na8 Ti8 O16 F8                          
   1.00000000000000     
     7.9145217045642875    0.0016342827714740   -0.0000017435457031
     0.0011318292688381    7.6793008637824327   -0.0000042524906070
    -0.0000017195280175   -0.0000043501313314    7.6990885769585615
   Na   Ti   O    F 
     8     8    16     8
Direct
  0.2505199619880085  0.2318803407192369  0.2559694368719695
  0.2505264898751048  0.2318694852077245  0.7440242387132451
  0.2580028540044815  0.7628283415659864  0.2536053806533936
  0.2580027570387783  0.7628267748761841  0.7463932777183637
  0.7280174716774126  0.2372862207129932  0.2458857383460843
  0.7280162283245371  0.2373025005732484  0.7541095326975962
  0.7292305257491726  0.7546045222142785  0.2429044849490386
  0.7292297116370566  0.7546045656459602  0.7570955556432851
  0.9930182182166105  0.9994975890380414  0.0000000668049431
  0.9834607638616805  0.9976808277865311  0.4999994027708671
  0.0012819029478021  0.5009435631787212  0.9999975027150290
  0.9977211364325852  0.4980231607718560  0.4999974942399629
  0.4894569683850941  0.0082624434073653 -0.0000003877910138
  0.5105406917187089  0.9986101014933425  0.4999996709899816
  0.5007521667098705  0.4857609295280945  0.0000001785284955
  0.4965774820437659  0.5011418029512256  0.4999999597579135
  0.2542188947089820  0.9993749671743539 -0.0000010569156912
  0.7594092562842194  0.9973753799660171  0.0000004500566882
  0.7551251903865345  0.9996024726208487  0.4999998774897204
  0.0054891428225684  0.2513210200817094  0.9999947706105971
  0.0070152615971008  0.2460205905311105  0.5000059000786387
  0.0074085304140013  0.7509589942416381  0.0000087586611540
  0.0089489548612310  0.7542055183315023  0.4999872486367115
  0.5104838919055307  0.2535987380820828  0.0000017646037901
  0.4946282879364273  0.2540049721145343  0.4999990193880116
  0.4907488453597271  0.7479413715026114  0.5000012715227276
  0.9957594276284019  0.5005200019104109  0.2511789323028691
  0.9957696496403564  0.5005338267417693  0.7488220135804800
  0.5026233347441381  0.9956528727594501  0.2501550907772184
  0.5026231793585554  0.9956557794915143  0.7498446854242217
  0.5019118546398398  0.5073178323703529  0.2459718064594090
  0.5018999573498303  0.5073163939528232  0.7540307600225922
  0.2486026178160789  0.0027088880710758  0.5000019855022105
  0.2543487925902859  0.5082573246623427  0.0000099341531248
  0.2477703671966517  0.4991736726484542  0.5000026136844460
  0.7491969410305968  0.5125212337053713 -0.0000084941934223
  0.7476070332203720  0.5024606051355384  0.5000131713285809
  0.5107790513923781  0.7475858285454249  0.9999985761265718
  0.0216392495917796  0.0013978252154614  0.2522852087225551
  0.0216369569137156  0.0013707204728333  0.7477141783676265
 
  0.00000000E+00  0.00000000E+00  0.00000000E+00
  0.00000000E+00  0.00000000E+00  0.00000000E+00
  0.00000000E+00  0.00000000E+00  0.00000000E+00
  0.00000000E+00  0.00000000E+00  0.00000000E+00
  0.00000000E+00  0.00000000E+00  0.00000000E+00
  0.00000000E+00  0.00000000E+00  0.00000000E+00
  0.00000000E+00  0.00000000E+00  0.00000000E+00
  0.00000000E+00  0.00000000E+00  0.00000000E+00
  0.00000000E+00  0.00000000E+00  0.00000000E+00
  0.00000000E+00  0.00000000E+00  0.00000000E+00
  0.00000000E+00  0.00000000E+00  0.00000000E+00
  0.00000000E+00  0.00000000E+00  0.00000000E+00
  0.00000000E+00  0.00000000E+00  0.00000000E+00
  0.00000000E+00  0.00000000E+00  0.00000000E+00
  0.00000000E+00  0.00000000E+00  0.00000000E+00
  0.00000000E+00  0.00000000E+00  0.00000000E+00
  0.00000000E+00  0.00000000E+00  0.00000000E+00
  0.00000000E+00  0.00000000E+00  0.00000000E+00
  0.00000000E+00  0.00000000E+00  0.00000000E+00
  0.00000000E+00  0.00000000E+00  0.00000000E+00
  0.00000000E+00  0.00000000E+00  0.00000000E+00
  0.00000000E+00  0.00000000E+00  0.00000000E+00
  0.00000000E+00  0.00000000E+00  0.00000000E+00
  0.00000000E+00  0.00000000E+00  0.00000000E+00
  0.00000000E+00  0.00000000E+00  0.00000000E+00
  0.00000000E+00  0.00000000E+00  0.00000000E+00
  0.00000000E+00  0.00000000E+00  0.00000000E+00
  0.00000000E+00  0.00000000E+00  0.00000000E+00
  0.00000000E+00  0.00000000E+00  0.00000000E+00
  0.00000000E+00  0.00000000E+00  0.00000000E+00
  0.00000000E+00  0.00000000E+00  0.00000000E+00
  0.00000000E+00  0.00000000E+00  0.00000000E+00
  0.00000000E+00  0.00000000E+00  0.00000000E+00
  0.00000000E+00  0.00000000E+00  0.00000000E+00
  0.00000000E+00  0.00000000E+00  0.00000000E+00
  0.00000000E+00  0.00000000E+00  0.00000000E+00
  0.00000000E+00  0.00000000E+00  0.00000000E+00
  0.00000000E+00  0.00000000E+00  0.00000000E+00
  0.00000000E+00  0.00000000E+00  0.00000000E+00
  0.00000000E+00  0.00000000E+00  0.00000000E+00
