Tetrasodium pentatitanium dodecaoxide   
   1.00000000000000     
     5.3312571109694131    0.0002479097953599    0.0000725503831215
    -2.6654796328131161    4.6171595760907422    0.0000624879702268
     0.0001292434658772    0.0002058137211584    9.6062101522693428
   Ti   Na   O 
     5     4    12
Direct
  0.3333860173766325  0.6666778185567779  0.2886130248988863
  0.3333504905610880  0.6667093804515289  0.9812867141579389
  0.6666947504140310  0.3333487091111920  0.0350487629830099
  0.9999831220332496  0.9999912707195975  0.5081426171144585
  0.6665924769736975  0.3333106850157321  0.7279739276718473
  0.9999501190616868  0.9999164980045094  0.2017487043255599
  0.6668558821966499  0.3334747188995664  0.4156694406946286
  0.3329174283040501  0.6663635368438889  0.6027247486096670
  0.0000717325208583  0.0000595830990022  0.8157278397877832
  0.2416759965286772  0.3316407524363498  0.3865231057228371
  0.6684169411383252  0.9100487014453762  0.3865042477695724
  0.0900276580346713  0.7583855833216191  0.3865198796197262
  0.0200287935399714  0.4231114918098058  0.1292364005789111
  0.5769506856371933  0.5969406700082018  0.1292374630805497
  0.4031051379495452  0.9800282799604503  0.1292388206164858
  0.9091697084600057  0.2410183959650212  0.6297054761315977
  0.7588768633233087  0.6681277268999182  0.6296865228050663
  0.3318227448175151  0.0907365878976591  0.6297030913575412
  0.9803133507594382  0.5760682428026271  0.8868957689463528
  0.4239925486018663  0.4042666712571972  0.8869003870524850
  0.5958175747675440  0.0197747694939778  0.8869130120750910
 
  0.00000000E+00  0.00000000E+00  0.00000000E+00
  0.00000000E+00  0.00000000E+00  0.00000000E+00
  0.00000000E+00  0.00000000E+00  0.00000000E+00
  0.00000000E+00  0.00000000E+00  0.00000000E+00
  0.00000000E+00  0.00000000E+00  0.00000000E+00
  0.00000000E+00  0.00000000E+00  0.00000000E+00
  0.00000000E+00  0.00000000E+00  0.00000000E+00
  0.00000000E+00  0.00000000E+00  0.00000000E+00
  0.00000000E+00  0.00000000E+00  0.00000000E+00
  0.00000000E+00  0.00000000E+00  0.00000000E+00
  0.00000000E+00  0.00000000E+00  0.00000000E+00
  0.00000000E+00  0.00000000E+00  0.00000000E+00
  0.00000000E+00  0.00000000E+00  0.00000000E+00
  0.00000000E+00  0.00000000E+00  0.00000000E+00
  0.00000000E+00  0.00000000E+00  0.00000000E+00
  0.00000000E+00  0.00000000E+00  0.00000000E+00
  0.00000000E+00  0.00000000E+00  0.00000000E+00
  0.00000000E+00  0.00000000E+00  0.00000000E+00
  0.00000000E+00  0.00000000E+00  0.00000000E+00
  0.00000000E+00  0.00000000E+00  0.00000000E+00
  0.00000000E+00  0.00000000E+00  0.00000000E+00
