Na2 V4 O10                              
   1.00000000000000     
     0.0000000020473974    3.5812216456430641   -0.0000000001665340
     0.0000490989799145    0.0000000008073351    4.7490739155274309
    11.2658320737716959    0.0000000071689378   -0.0001746610097996
   Na   O    V 
     2    10     4
Direct
  0.4999999945909224  0.2348851382175283  0.4995532623419194
  0.0000000006609966  0.5200565233263603  0.0000553554224183
  0.9999999982299599  0.8925796946181492  0.5000393632449445
  0.5000000007952963  0.8634747560704596  0.9999963493773976
  0.0000000012939196  0.8654877232062503  0.1779465798683759
  0.0000000007388010  0.8656746282378478  0.8221104338495024
  0.4999999994400284  0.8857632586849604  0.6769752726125304
  0.5000000019878712  0.8858475342095744  0.3231389431495799
  0.9999999998126157  0.4266841504612984  0.6335090290686836
  0.0000000015221460  0.4266965378264516  0.3665412393943512
  0.5000000027774121  0.3291613345461002  0.1347327762671853
  0.4999999976774561  0.3291477835109191  0.8652995085632469
  0.9999999987496935  0.7665936229337333  0.6516426901165033
  0.0000000010224568  0.7665664798231191  0.3483929820582361
  0.5000000007991758  0.9890361160390242  0.1513960370960774
  0.4999999999012417  0.9890047182882213  0.8486701775690406
 
  0.00000000E+00  0.00000000E+00  0.00000000E+00
  0.00000000E+00  0.00000000E+00  0.00000000E+00
  0.00000000E+00  0.00000000E+00  0.00000000E+00
  0.00000000E+00  0.00000000E+00  0.00000000E+00
  0.00000000E+00  0.00000000E+00  0.00000000E+00
  0.00000000E+00  0.00000000E+00  0.00000000E+00
  0.00000000E+00  0.00000000E+00  0.00000000E+00
  0.00000000E+00  0.00000000E+00  0.00000000E+00
  0.00000000E+00  0.00000000E+00  0.00000000E+00
  0.00000000E+00  0.00000000E+00  0.00000000E+00
  0.00000000E+00  0.00000000E+00  0.00000000E+00
  0.00000000E+00  0.00000000E+00  0.00000000E+00
  0.00000000E+00  0.00000000E+00  0.00000000E+00
  0.00000000E+00  0.00000000E+00  0.00000000E+00
  0.00000000E+00  0.00000000E+00  0.00000000E+00
  0.00000000E+00  0.00000000E+00  0.00000000E+00
