Ni4 O4 F8                               
   1.00000000000000     
     4.7306593835823643   -0.0306719634497693    0.0017988389431659
     0.0174591233044667    4.9969518527518701   -0.0154027890632952
     0.0703126472924564    0.0130586444951825    7.0934450404613099
   Ni   O    F 
     4     4     8
Direct
  0.5046115043941536  0.0018039261817459  0.0001067660625309
  0.0014054016110159  0.5033853433181407  0.9974587811667129
  0.5022696147229780  0.9868239384509296  0.5020466255074681
 -0.0011764043511644  0.5024181114953626  0.4985884783956912
  0.1584345239082251  0.1544765088322290  0.9510813561623986
  0.8420556882658260  0.8474508688308223  0.0585777793596468
  0.3235733875606979  0.6607781262529608  0.5693047279370608
  0.8463801632750381  0.8138949638855478  0.4243900701230913
  0.6473279780645254  0.3176062236063833  0.0673502348457654
  0.3576073605013186  0.6882181239726261  0.9288599931809947
  0.6670401367838618  0.3362150576011378  0.4383994215349992
  0.1460293150528518  0.1749111858709316  0.5664528723044281
  0.1301131736736386  0.4494343299422972  0.2635989365363231
  0.8719250278097251  0.5574477904003199  0.7343764087496946
  0.6203028967559077  0.0621177655145868  0.7636371029879714
  0.3821002319713862  0.9430177358439784  0.2357704451452302
 
  0.00000000E+00  0.00000000E+00  0.00000000E+00
  0.00000000E+00  0.00000000E+00  0.00000000E+00
  0.00000000E+00  0.00000000E+00  0.00000000E+00
  0.00000000E+00  0.00000000E+00  0.00000000E+00
  0.00000000E+00  0.00000000E+00  0.00000000E+00
  0.00000000E+00  0.00000000E+00  0.00000000E+00
  0.00000000E+00  0.00000000E+00  0.00000000E+00
  0.00000000E+00  0.00000000E+00  0.00000000E+00
  0.00000000E+00  0.00000000E+00  0.00000000E+00
  0.00000000E+00  0.00000000E+00  0.00000000E+00
  0.00000000E+00  0.00000000E+00  0.00000000E+00
  0.00000000E+00  0.00000000E+00  0.00000000E+00
  0.00000000E+00  0.00000000E+00  0.00000000E+00
  0.00000000E+00  0.00000000E+00  0.00000000E+00
  0.00000000E+00  0.00000000E+00  0.00000000E+00
  0.00000000E+00  0.00000000E+00  0.00000000E+00
