Na2 Cr2 O4 F2                           
   1.00000000000000     
     3.7936917964186749    0.0000002627047954    0.0004165249668700
     0.0000001887439597    3.7959514977656541    0.0000000209273371
    -0.0000832799131791    0.0000000822500821    7.2974093607857835
   Na   Cr   O    F 
     2     2     4     2
Direct
 -0.0000267298535298 -0.0000000800967189  0.0029797522414541
  0.9998214227485126  0.9999998371278663  0.5023394487219088
  0.5000169449220809  0.4999997978482423  0.2520787245401898
  0.4998533847506770  0.4999999918014368  0.7521980234524178
  0.5000889306531566  0.5000000677482215  0.0062788806832035
  0.5001321376198277  0.5000001418448731  0.5030544148103853
  0.4998609322893833  0.0000002141540603  0.2558248132701119
  0.0002603233740812  0.4999999846173408  0.7558690345035637
  0.5001586276803195 -0.0000000081871473  0.7563161599327275
  0.9998340258154983  0.5000000531418253  0.2560607478440302
 
  0.00000000E+00  0.00000000E+00  0.00000000E+00
  0.00000000E+00  0.00000000E+00  0.00000000E+00
  0.00000000E+00  0.00000000E+00  0.00000000E+00
  0.00000000E+00  0.00000000E+00  0.00000000E+00
  0.00000000E+00  0.00000000E+00  0.00000000E+00
  0.00000000E+00  0.00000000E+00  0.00000000E+00
  0.00000000E+00  0.00000000E+00  0.00000000E+00
  0.00000000E+00  0.00000000E+00  0.00000000E+00
  0.00000000E+00  0.00000000E+00  0.00000000E+00
  0.00000000E+00  0.00000000E+00  0.00000000E+00
