Na4 Co4 O8 F4                           
    1.000000000000000     
     5.2492031230609282   -0.0115084088264785   -0.0720597726135202
    -0.0079535681485395    5.2662968482267551    0.0072240283122226
    -0.0922517391739980   -0.0021837608408296    7.7722095100802768
   Na   Co   O    F 
     4     4     8     4
Direct
  0.9892546616653846  0.0404657168185878  0.2549209976461313
  0.0081241428468530  0.9794154503792001  0.7407457167998004
  0.4827463097888156  0.4606650501788536  0.7592153811631519
  0.5057389509325674  0.5258910788002993  0.2449391418119475
  0.5049577341514819  0.9920419397960387  0.0092935921409634
  0.9883835463404509  0.5106522421286428  0.9843172886486258
  0.4994998035684546  0.0106608303528546  0.4790020827049730
  0.9919008244700507  0.5000729880279451  0.5140299365372343
  0.7041207897753878  0.2558105182210753  0.0348890734573573
  0.3120207846451706  0.7297088377168990  0.9682087034482123
  0.7807942747310079  0.7802033450861998  0.0518108611960031
  0.7258927239575712  0.2831633784587595  0.4537416175261271
  0.7974760366529736  0.7599961872081735  0.4692882378220204
  0.1967698609765520  0.2413297691052421  0.5336969977542907
  0.9296569002717234  0.5220531594820343  0.7639858527693164
  0.4186692375851209  0.9782489540746653  0.2625553632562969
  0.2139824014513323  0.2071659414493112  0.9520331840476359
  0.2888409339602021  0.7209536633997971  0.5583284562508055
  0.0853121795573344  0.4726039551442014  0.2305693549450396
  0.5758579026715651  0.0288969941712267  0.7344281600740601
 
  0.00000000E+00  0.00000000E+00  0.00000000E+00
  0.00000000E+00  0.00000000E+00  0.00000000E+00
  0.00000000E+00  0.00000000E+00  0.00000000E+00
  0.00000000E+00  0.00000000E+00  0.00000000E+00
  0.00000000E+00  0.00000000E+00  0.00000000E+00
  0.00000000E+00  0.00000000E+00  0.00000000E+00
  0.00000000E+00  0.00000000E+00  0.00000000E+00
  0.00000000E+00  0.00000000E+00  0.00000000E+00
  0.00000000E+00  0.00000000E+00  0.00000000E+00
  0.00000000E+00  0.00000000E+00  0.00000000E+00
  0.00000000E+00  0.00000000E+00  0.00000000E+00
  0.00000000E+00  0.00000000E+00  0.00000000E+00
  0.00000000E+00  0.00000000E+00  0.00000000E+00
  0.00000000E+00  0.00000000E+00  0.00000000E+00
  0.00000000E+00  0.00000000E+00  0.00000000E+00
  0.00000000E+00  0.00000000E+00  0.00000000E+00
  0.00000000E+00  0.00000000E+00  0.00000000E+00
  0.00000000E+00  0.00000000E+00  0.00000000E+00
  0.00000000E+00  0.00000000E+00  0.00000000E+00
  0.00000000E+00  0.00000000E+00  0.00000000E+00
