Manganese(III) fluoride                 
   1.00000000000000     
     5.4695170048817507   -0.0000000199415648   -0.0255440742649648
    -0.0000000161578566    5.0253472404878892   -0.0000000175584533
    -0.4050348749818847   -0.0000000240398420    7.2825030924215106
   Mn   F 
     4    12
Direct
  0.2499894915658487  0.2500083311530332  0.2499996505745088
  0.7499894949138977  0.7500083205158390  0.7499996577733796
  0.2499894937845752  0.2499916770693957  0.7499996592314915
  0.7499894943313166  0.7499916770505024  0.2499996565845208
  0.9305197153771871  0.4571818504658651  0.1925522486431461
  0.0694858926564379  0.5428387024572032  0.8074454077520414
  0.5694858965357241  0.4571612957496001  0.8074454030350111
  0.4305197161339862  0.5428181346823209  0.1925522466631833
  0.4305197198924446  0.9571818558349747  0.6925522464590728
  0.5694858975705515  0.0428387082265758  0.3074454032072893
  0.0694858880208642  0.9571612947457879  0.3074454075961697
  0.9305197154366383  0.0428181461971704  0.6925522500360444
  0.2500048936930455  0.1301451229359003  0.0000026890690847
  0.7500048989922163  0.8698548688064136  0.0000026922898542
  0.7500048938503312  0.6301451346509737  0.5000026885479443
  0.2500048972449207  0.3698548644584321  0.5000026925372651
 
  0.00000000E+00  0.00000000E+00  0.00000000E+00
  0.00000000E+00  0.00000000E+00  0.00000000E+00
  0.00000000E+00  0.00000000E+00  0.00000000E+00
  0.00000000E+00  0.00000000E+00  0.00000000E+00
  0.00000000E+00  0.00000000E+00  0.00000000E+00
  0.00000000E+00  0.00000000E+00  0.00000000E+00
  0.00000000E+00  0.00000000E+00  0.00000000E+00
  0.00000000E+00  0.00000000E+00  0.00000000E+00
  0.00000000E+00  0.00000000E+00  0.00000000E+00
  0.00000000E+00  0.00000000E+00  0.00000000E+00
  0.00000000E+00  0.00000000E+00  0.00000000E+00
  0.00000000E+00  0.00000000E+00  0.00000000E+00
  0.00000000E+00  0.00000000E+00  0.00000000E+00
  0.00000000E+00  0.00000000E+00  0.00000000E+00
  0.00000000E+00  0.00000000E+00  0.00000000E+00
  0.00000000E+00  0.00000000E+00  0.00000000E+00
