V12 O20                                 
   1.00000000000000     
     9.3348560599849559   -0.0000003258706836   -3.2796063744455486
    -0.0000001802994809    5.0974399219428808    0.0000000459533245
     0.0029883564329056    0.0000001011483099    6.9765547300730404
   V    O 
    12    20
Direct
  0.3700757495215683  0.5046514909868733  0.5911038245992017
  0.6298296924411133  0.5047471288740439  0.9087388136910590
  0.6298296616958012  0.4952528697214689  0.4087387804647094
  0.3700757363714899  0.4953484977385116  0.0911037870113702
  0.9999639174437860  0.5000313351090426  0.5000115414184307
  0.9999639452053728  0.4999687290120605  0.0000115483977794
  0.5000469138613468  0.0000255716008581  0.5000149994258223
  0.5000469116078321  0.9999743998032002  0.0000149949204200
  0.1332772473689658  0.9975600762111299  0.9095930707650979
  0.8666993864699251  0.9976959821088371  0.5904441890787382
  0.8666994562876553  0.0023039470983832  0.0904442251290973
  0.1332772642442421  0.0024399787090346  0.4095930943182822
  0.3010862166630588  0.8500743621515525  0.9659365182840816
  0.6989677128849081  0.8499575403138095  0.5340743093722722
  0.6989676608372477  0.1500424861119143  0.0340743168154845
  0.3010861998093830  0.1499255964803297  0.4659365398710094
  0.1860474463002078  0.6595334393864718  0.5242415114834671
  0.8139491868559148  0.6594849944802732  0.9757906467384601
  0.8139491978244777  0.3405150150224046  0.4757906574809923
  0.1860474612587879  0.3404665649044318  0.0242415218848393
  0.0812252588489812  0.8495417951607962  0.1375032586805389
  0.9187491961635388  0.8495920266829415  0.3624521906054099
  0.9187491915987280  0.1504080011889428  0.8624521913755743
  0.0812252480264135  0.1504582284372091  0.6375032635116682
  0.4220106281906695  0.6586342942412031  0.3640198302731363
  0.5780687376188922  0.6589682417367797  0.1360317200998011
  0.5780687352950693  0.3410317405578454  0.6360317442617003
  0.4220106258595706  0.3413656727718930  0.8640198463711286
  0.9999904388075009  0.7046457558358270  0.7500461351579801
  0.9999904314697758  0.2953542612596323  0.2500461241361194
  0.5000122745984612  0.8148398072059706  0.7499974097440187
  0.5000122685693000  0.1851601690963278  0.2499973946323024
 
  0.00000000E+00  0.00000000E+00  0.00000000E+00
  0.00000000E+00  0.00000000E+00  0.00000000E+00
  0.00000000E+00  0.00000000E+00  0.00000000E+00
  0.00000000E+00  0.00000000E+00  0.00000000E+00
  0.00000000E+00  0.00000000E+00  0.00000000E+00
  0.00000000E+00  0.00000000E+00  0.00000000E+00
  0.00000000E+00  0.00000000E+00  0.00000000E+00
  0.00000000E+00  0.00000000E+00  0.00000000E+00
  0.00000000E+00  0.00000000E+00  0.00000000E+00
  0.00000000E+00  0.00000000E+00  0.00000000E+00
  0.00000000E+00  0.00000000E+00  0.00000000E+00
  0.00000000E+00  0.00000000E+00  0.00000000E+00
  0.00000000E+00  0.00000000E+00  0.00000000E+00
  0.00000000E+00  0.00000000E+00  0.00000000E+00
  0.00000000E+00  0.00000000E+00  0.00000000E+00
  0.00000000E+00  0.00000000E+00  0.00000000E+00
  0.00000000E+00  0.00000000E+00  0.00000000E+00
  0.00000000E+00  0.00000000E+00  0.00000000E+00
  0.00000000E+00  0.00000000E+00  0.00000000E+00
  0.00000000E+00  0.00000000E+00  0.00000000E+00
  0.00000000E+00  0.00000000E+00  0.00000000E+00
  0.00000000E+00  0.00000000E+00  0.00000000E+00
  0.00000000E+00  0.00000000E+00  0.00000000E+00
  0.00000000E+00  0.00000000E+00  0.00000000E+00
  0.00000000E+00  0.00000000E+00  0.00000000E+00
  0.00000000E+00  0.00000000E+00  0.00000000E+00
  0.00000000E+00  0.00000000E+00  0.00000000E+00
  0.00000000E+00  0.00000000E+00  0.00000000E+00
  0.00000000E+00  0.00000000E+00  0.00000000E+00
  0.00000000E+00  0.00000000E+00  0.00000000E+00
  0.00000000E+00  0.00000000E+00  0.00000000E+00
  0.00000000E+00  0.00000000E+00  0.00000000E+00
