Na2 Fe2 O4 F2                           
   1.00000000000000     
     3.6809398867864438   -0.0000000415095643    0.0000066865218239
    -0.0000000430072220    3.6809548603897464   -0.0000000163258656
    -0.0000159190811821   -0.0000000424514505    8.1808350975437438
   Na   Fe   O    F 
     2     2     4     2
Direct
  0.0000038491667691  0.0000000146254363  0.0010946350446336
  0.0000039006473555  0.0000000098430526  0.5010825871913525
  0.4999892826796503  0.4999999823120412  0.2541354647165990
  0.4999889960195463  0.5000000187820971  0.7541383123228443
  0.5000128293978762  0.9999999941893863  0.2556398099470675
  0.5000128281725070  0.0000000172282843  0.7556388292913021
 -0.0000106934152826  0.4999999400769975  0.2556398527999978
 -0.0000110233391631  0.5000000070814685  0.7556400079168353
  0.5000050059328343  0.4999999992385640  0.0049961157038221
  0.5000050247379142  0.5000000166226792  0.5049943850655382
 
  0.00000000E+00  0.00000000E+00  0.00000000E+00
  0.00000000E+00  0.00000000E+00  0.00000000E+00
  0.00000000E+00  0.00000000E+00  0.00000000E+00
  0.00000000E+00  0.00000000E+00  0.00000000E+00
  0.00000000E+00  0.00000000E+00  0.00000000E+00
  0.00000000E+00  0.00000000E+00  0.00000000E+00
  0.00000000E+00  0.00000000E+00  0.00000000E+00
  0.00000000E+00  0.00000000E+00  0.00000000E+00
  0.00000000E+00  0.00000000E+00  0.00000000E+00
  0.00000000E+00  0.00000000E+00  0.00000000E+00
