V64 O12                                 
   1.00000000000000     
    11.8365462906932120   -0.0015048583210924   -0.0012240329025346
    -0.0021658962664029   11.8359425090476051   -0.0041081609264356
     0.0004547792980838   -0.0025347066383429    7.3926812261469141
   V    O 
    64    12
Direct
  0.0000979402163416 -0.0011906607988390  0.0041699380386745
  0.5007624759041441  0.4992462169278685  0.4946678807607017
 -0.0000440961488858  0.0000540406914338  0.5032665655473988
  0.4999287121253256  0.5001005448888043  0.0044887966158912
  0.4982049755705168  0.9990892689090112 -0.0001071136392956
  0.0020885359656016  0.5019486773294227 -0.0000456405085188
  0.9982372797473796  0.4991449572169799  0.4999159375990667
  0.5009396836214293  0.0018717148880122  0.4999553732299049
  0.2475022846387441  0.2475600839122026  0.9957833630427912
  0.7512676287550778  0.7514135492591411  0.9960552313277007
  0.7525289857814834  0.2475320845159539  0.0040663608755083
  0.2491248207541979  0.7508709177401650  0.0043922481322234
  0.7489994254015873  0.7491620206333499  0.4959409291606702
  0.2506511094295777  0.2507563783068184  0.4965351293763868
  0.2525137348600605  0.7475050339261514  0.4956353036347020
  0.7492064045310636  0.2509094060633758  0.5039240959731824
 -0.0000415907079829  0.2527065737065932 -0.0038294233967831
  0.0001070962258747  0.7472467026824275  0.0033983668916063
  0.7472402850775384 -0.0000830118212643  0.0038103995187812
  0.2527135275218144 -0.0001920295625852  0.9958450816506966
  0.5002105204051251  0.7529110122123609  0.4961837772010209
  0.4999790253874412  0.2470754064630660  0.5037761571158026
  0.2471398249273715  0.4998584178272776  0.4959719907507850
  0.7529909861340084  0.5000420502503345  0.5041660061620762
  0.4999711051244962  0.2504582909149773  0.9959557109995280
  0.4995509743423224  0.7499756427895350  0.0042857581151371
  0.7496636916127456  0.4999073140885286  0.9959942661675858
  0.2502161612056680  0.5004052433661517  0.0042832282976125
 -0.0002881026485312  0.7501428916410635  0.4956715709925489
  0.0000190653150180  0.2502957424025219  0.5041950245973016
  0.2498451597464368  0.0003924044895360  0.5039479335647269
  0.7494249309410193 -0.0000760888776511  0.4960678338489840
  0.6267797577608487  0.1259909423467923  0.7541947275683348
  0.3737982852187188  0.8733090925712387  0.7459344680122754
  0.3739024595896945  0.1264864907592844  0.7535647685022846
  0.6262861803498729  0.8733664838445960  0.7535613559083044
  0.8739130070283725  0.6268129296810704  0.7534614197339515
  0.1269819210673405  0.3742787737716221  0.7536033879772491
  0.1269149552532721  0.6269421529098927  0.7459051424415232
  0.8748209579655984  0.3747475151458097  0.7543444076828539
  0.3729183996538016  0.8744042745488937  0.2539218743153177
  0.6256917438980364  0.1271121759919406  0.2462792173829671
  0.6250943019173877  0.8748385522968058  0.2457637010881406
  0.3729452578517820  0.1268986575868336  0.2459390758239794
  0.1258199713694865  0.3733106924691859  0.2459092261702973
  0.8732313949567356  0.6261922967988455  0.2459676674212238
  0.8730649552595021  0.3736934331751411  0.2463326662747066
  0.1255876595500527  0.6257910650210599  0.2540461143920095
  0.1272958947201582  0.1275687886609849  0.7246942618113230
  0.8720640924564804  0.8721914426095623  0.7208669239792133
  0.8720672912106904  0.1275659379167801  0.7266021229969472
  0.1278633714347872  0.8719117917166244  0.7209007548727081
  0.8725249168930208  0.8726245502067714  0.2732849002953606
  0.1274822712858403  0.1275481529296511  0.2755543736915262
  0.1275952515609977  0.8728757272673963  0.2741766235640296
  0.8723505728816293  0.1278443223201103  0.2789000885279962
  0.6285036348487812  0.6280890592569331  0.2257685952381428
  0.3718864853833481  0.3716075171148239  0.2238304877024575
  0.3746059270570032  0.6271691477136929  0.2254171276660076
  0.6277555712773778  0.3723438900009458  0.2249099020441799
  0.3724541747757196  0.3730484407406976  0.7750895393585323
  0.6270623273079727  0.6275009985465152  0.7784361995516579
  0.6277126875951502  0.3723027509229930  0.7765656991465096
  0.3719466371689040  0.6280510999655561  0.7773615041877441
  0.5001468291076611 -0.0001397962143387  0.7498839847549393
  0.0006930476589398  0.5010117376743449  0.7498798128401851
  0.4989528527752530  0.0011065207044318  0.2499705450145220
 -0.0008023598482166  0.4996759069962970  0.2499457279169987
  0.1237551680754192  0.1240151025215749  0.0000155965323540
  0.8750311361718008  0.8752677082050409 -0.0029641924710419
  0.8761397212042142  0.1239556450615905  0.0025980666389856
  0.1251136469501611  0.8749081142677294 -0.0027489295863841
  0.6247708328266796  0.6248901357512415  0.5022876793357380
  0.3750240095477307  0.3751304136947233  0.4995235779436460
  0.3763125438879436  0.6238333865246245  0.5012995539673955
  0.6251876933300512  0.3748851810209581  0.5008521701384877
 
  0.00000000E+00  0.00000000E+00  0.00000000E+00
  0.00000000E+00  0.00000000E+00  0.00000000E+00
  0.00000000E+00  0.00000000E+00  0.00000000E+00
  0.00000000E+00  0.00000000E+00  0.00000000E+00
  0.00000000E+00  0.00000000E+00  0.00000000E+00
  0.00000000E+00  0.00000000E+00  0.00000000E+00
  0.00000000E+00  0.00000000E+00  0.00000000E+00
  0.00000000E+00  0.00000000E+00  0.00000000E+00
  0.00000000E+00  0.00000000E+00  0.00000000E+00
  0.00000000E+00  0.00000000E+00  0.00000000E+00
  0.00000000E+00  0.00000000E+00  0.00000000E+00
  0.00000000E+00  0.00000000E+00  0.00000000E+00
  0.00000000E+00  0.00000000E+00  0.00000000E+00
  0.00000000E+00  0.00000000E+00  0.00000000E+00
  0.00000000E+00  0.00000000E+00  0.00000000E+00
  0.00000000E+00  0.00000000E+00  0.00000000E+00
  0.00000000E+00  0.00000000E+00  0.00000000E+00
  0.00000000E+00  0.00000000E+00  0.00000000E+00
  0.00000000E+00  0.00000000E+00  0.00000000E+00
  0.00000000E+00  0.00000000E+00  0.00000000E+00
  0.00000000E+00  0.00000000E+00  0.00000000E+00
  0.00000000E+00  0.00000000E+00  0.00000000E+00
  0.00000000E+00  0.00000000E+00  0.00000000E+00
  0.00000000E+00  0.00000000E+00  0.00000000E+00
  0.00000000E+00  0.00000000E+00  0.00000000E+00
  0.00000000E+00  0.00000000E+00  0.00000000E+00
  0.00000000E+00  0.00000000E+00  0.00000000E+00
  0.00000000E+00  0.00000000E+00  0.00000000E+00
  0.00000000E+00  0.00000000E+00  0.00000000E+00
  0.00000000E+00  0.00000000E+00  0.00000000E+00
  0.00000000E+00  0.00000000E+00  0.00000000E+00
  0.00000000E+00  0.00000000E+00  0.00000000E+00
  0.00000000E+00  0.00000000E+00  0.00000000E+00
  0.00000000E+00  0.00000000E+00  0.00000000E+00
  0.00000000E+00  0.00000000E+00  0.00000000E+00
  0.00000000E+00  0.00000000E+00  0.00000000E+00
  0.00000000E+00  0.00000000E+00  0.00000000E+00
  0.00000000E+00  0.00000000E+00  0.00000000E+00
  0.00000000E+00  0.00000000E+00  0.00000000E+00
  0.00000000E+00  0.00000000E+00  0.00000000E+00
  0.00000000E+00  0.00000000E+00  0.00000000E+00
  0.00000000E+00  0.00000000E+00  0.00000000E+00
  0.00000000E+00  0.00000000E+00  0.00000000E+00
  0.00000000E+00  0.00000000E+00  0.00000000E+00
  0.00000000E+00  0.00000000E+00  0.00000000E+00
  0.00000000E+00  0.00000000E+00  0.00000000E+00
  0.00000000E+00  0.00000000E+00  0.00000000E+00
  0.00000000E+00  0.00000000E+00  0.00000000E+00
  0.00000000E+00  0.00000000E+00  0.00000000E+00
  0.00000000E+00  0.00000000E+00  0.00000000E+00
  0.00000000E+00  0.00000000E+00  0.00000000E+00
  0.00000000E+00  0.00000000E+00  0.00000000E+00
  0.00000000E+00  0.00000000E+00  0.00000000E+00
  0.00000000E+00  0.00000000E+00  0.00000000E+00
  0.00000000E+00  0.00000000E+00  0.00000000E+00
  0.00000000E+00  0.00000000E+00  0.00000000E+00
  0.00000000E+00  0.00000000E+00  0.00000000E+00
  0.00000000E+00  0.00000000E+00  0.00000000E+00
  0.00000000E+00  0.00000000E+00  0.00000000E+00
  0.00000000E+00  0.00000000E+00  0.00000000E+00
  0.00000000E+00  0.00000000E+00  0.00000000E+00
  0.00000000E+00  0.00000000E+00  0.00000000E+00
  0.00000000E+00  0.00000000E+00  0.00000000E+00
  0.00000000E+00  0.00000000E+00  0.00000000E+00
  0.00000000E+00  0.00000000E+00  0.00000000E+00
  0.00000000E+00  0.00000000E+00  0.00000000E+00
  0.00000000E+00  0.00000000E+00  0.00000000E+00
  0.00000000E+00  0.00000000E+00  0.00000000E+00
  0.00000000E+00  0.00000000E+00  0.00000000E+00
  0.00000000E+00  0.00000000E+00  0.00000000E+00
  0.00000000E+00  0.00000000E+00  0.00000000E+00
  0.00000000E+00  0.00000000E+00  0.00000000E+00
  0.00000000E+00  0.00000000E+00  0.00000000E+00
  0.00000000E+00  0.00000000E+00  0.00000000E+00
  0.00000000E+00  0.00000000E+00  0.00000000E+00
  0.00000000E+00  0.00000000E+00  0.00000000E+00
