Ti4 O4 F8                               
   1.00000000000000     
     5.6505695384234151    0.0283375240220869   -0.1070545100805425
    -2.8014753770876126    4.8272771567435058   -0.0063060370409812
    -0.1793927890770097   -0.1083005542801210    9.4773401822574339
   Ti   O    F 
     4     4     8
Direct
  0.3436196100560896  0.6668312282404946  0.6143557492105787
  0.6429245983732117  0.2937704013093809  0.3981491063020651
  0.6815940277599835  0.3218278001825977  0.0930820355795400
  0.3031503704779256  0.6605325522364073  0.9023549674768467
  0.5037936326033502  0.0016558791643384  0.9979025718348291
  0.9985189689896418  0.5019140886679162  0.0025743579325749
  0.4979745950568917  0.0036487568884401  0.5019994026331369
  0.2072054860083378  0.4064306459513518  0.7455151379039605
  0.4995566667034528  0.5025691916722030  0.0034684556314970
  0.0006281664762493  0.5042898316548374  0.4954746835732055
  0.5035548226314316  0.5051984557068634  0.4939469410471399
  0.7985813153716652  0.6026742822199379  0.2532227964704558
  0.3720858401040612  0.1736081938326253  0.2460520164449244
  0.6400730748100386  0.8433765487516749  0.7499999474273908
  0.8070194184784452  0.1719121119446647  0.2551219969844007
  0.1997194060992242  0.8397600315762805  0.7467798335474612
 
  0.00000000E+00  0.00000000E+00  0.00000000E+00
  0.00000000E+00  0.00000000E+00  0.00000000E+00
  0.00000000E+00  0.00000000E+00  0.00000000E+00
  0.00000000E+00  0.00000000E+00  0.00000000E+00
  0.00000000E+00  0.00000000E+00  0.00000000E+00
  0.00000000E+00  0.00000000E+00  0.00000000E+00
  0.00000000E+00  0.00000000E+00  0.00000000E+00
  0.00000000E+00  0.00000000E+00  0.00000000E+00
  0.00000000E+00  0.00000000E+00  0.00000000E+00
  0.00000000E+00  0.00000000E+00  0.00000000E+00
  0.00000000E+00  0.00000000E+00  0.00000000E+00
  0.00000000E+00  0.00000000E+00  0.00000000E+00
  0.00000000E+00  0.00000000E+00  0.00000000E+00
  0.00000000E+00  0.00000000E+00  0.00000000E+00
  0.00000000E+00  0.00000000E+00  0.00000000E+00
  0.00000000E+00  0.00000000E+00  0.00000000E+00
