Na4 Fe4 O8 F4                           
   1.00000000000000     
     5.2928933694218925    0.0581085755643335   -0.0092393345225190
     0.0590712994792644    5.3327980118530380    0.0010689804368291
    -0.0118446134475766   -0.0097241356572783    7.3995135803552969
   Na   Fe   O    F 
     4     4     8     4
Direct
  0.9870810904905246  0.0382270186512307  0.2474368196720903
  0.0049721835965428  0.9700709223691002  0.7523948968807086
  0.4953092058932768  0.4564514354368543  0.7617201846316245
  0.5060635605381469  0.5313247233763205  0.2401033421793765
  0.5093094807088712  0.9898857960334283  0.0131933577724576
  0.9912220899617374  0.5105515354924874  0.0018317413070305
  0.4951694599929296 -0.0013057650493787  0.4885036798696669
  0.9990349149828704  0.5056057910556314  0.5000338540925754
  0.0758577752929334  0.4787187570015712  0.2502043307652950
  0.9307625234833516  0.5119775801147790  0.7488633416103504
  0.4159706663109556  0.9846303575840677  0.2488949913626471
  0.7199463507238432  0.2738467063235277  0.0337185933802939
  0.2813216643209642  0.7238930447008625  0.9633864786790423
  0.7803013376750727  0.7795846012268260  0.0411136786851273
  0.7940484906355403  0.7890896276406353  0.4649386508766324
  0.2092400200946710  0.2149570803240842  0.5342239058097785
  0.5802028617413740  0.0223185150295133  0.7477239623022813
  0.2219604176189648  0.2166907173352138  0.9496725667159664
  0.3062592819419870  0.7064647149944180  0.5552670896786930
  0.6959666239954421  0.2970168403588269  0.4567745337283614
 
  0.00000000E+00  0.00000000E+00  0.00000000E+00
  0.00000000E+00  0.00000000E+00  0.00000000E+00
  0.00000000E+00  0.00000000E+00  0.00000000E+00
  0.00000000E+00  0.00000000E+00  0.00000000E+00
  0.00000000E+00  0.00000000E+00  0.00000000E+00
  0.00000000E+00  0.00000000E+00  0.00000000E+00
  0.00000000E+00  0.00000000E+00  0.00000000E+00
  0.00000000E+00  0.00000000E+00  0.00000000E+00
  0.00000000E+00  0.00000000E+00  0.00000000E+00
  0.00000000E+00  0.00000000E+00  0.00000000E+00
  0.00000000E+00  0.00000000E+00  0.00000000E+00
  0.00000000E+00  0.00000000E+00  0.00000000E+00
  0.00000000E+00  0.00000000E+00  0.00000000E+00
  0.00000000E+00  0.00000000E+00  0.00000000E+00
  0.00000000E+00  0.00000000E+00  0.00000000E+00
  0.00000000E+00  0.00000000E+00  0.00000000E+00
  0.00000000E+00  0.00000000E+00  0.00000000E+00
  0.00000000E+00  0.00000000E+00  0.00000000E+00
  0.00000000E+00  0.00000000E+00  0.00000000E+00
  0.00000000E+00  0.00000000E+00  0.00000000E+00
