Mn4 O4 F8                               
   1.00000000000000     
     4.7811524132712115    0.0654777961226739    0.0051672087738775
    -2.3313358168649629    4.0422706944417426   -0.0192636675377302
     0.0107951278681382   -0.0014855150609518    9.1334176603239872
   Mn   O    F 
     4     4     8
Direct
  0.3463531157855881  0.6710618304673529  0.6020261019796740
  0.6436615514954895  0.3198986584818506  0.3973774883032667
  0.6536941170033845  0.3243697866721332  0.1019887569627870
  0.3560902307328807  0.6759015656482036  0.8972267144006960
  0.6610197865740700  0.0034388944158842  0.9995401810670665
  0.3532744937722892  0.3503174556564487  0.9985896969204031
  0.6470434954012246  0.9977914396626004  0.4988517532588207
  0.3386539982025591  0.3430046058484806  0.4993051292275170
  0.0077595592144635  0.6542487311888218  0.0023562446607796
  0.9922512581425259  0.6468454817594018  0.5024938672356998
  0.6800669224121073  0.6350949939985957  0.2510738547079696
  0.0664438560241160  0.3744094926388621  0.7512655661445551
  0.3594124332099773  0.0500147525964863  0.2477583825816365
  0.6407073764190702  0.6906959660704829  0.7477720216120651
  0.9335175339424597  0.3077896329595203  0.2513308511581493
  0.3200502716677938  0.9551167119348751  0.7510433897789289
 
  0.00000000E+00  0.00000000E+00  0.00000000E+00
  0.00000000E+00  0.00000000E+00  0.00000000E+00
  0.00000000E+00  0.00000000E+00  0.00000000E+00
  0.00000000E+00  0.00000000E+00  0.00000000E+00
  0.00000000E+00  0.00000000E+00  0.00000000E+00
  0.00000000E+00  0.00000000E+00  0.00000000E+00
  0.00000000E+00  0.00000000E+00  0.00000000E+00
  0.00000000E+00  0.00000000E+00  0.00000000E+00
  0.00000000E+00  0.00000000E+00  0.00000000E+00
  0.00000000E+00  0.00000000E+00  0.00000000E+00
  0.00000000E+00  0.00000000E+00  0.00000000E+00
  0.00000000E+00  0.00000000E+00  0.00000000E+00
  0.00000000E+00  0.00000000E+00  0.00000000E+00
  0.00000000E+00  0.00000000E+00  0.00000000E+00
  0.00000000E+00  0.00000000E+00  0.00000000E+00
  0.00000000E+00  0.00000000E+00  0.00000000E+00
