Cr4 O4 F8                               
   1.00000000000000     
     4.8504967523854550    0.0641762329973770   -0.0266034804082825
     0.0656754775337366    5.1082691290953992   -0.0334392829671695
    -0.0029428245756458   -0.0397660821013612    7.2316435488564981
   Cr   O    F 
     4     4     8
Direct
  0.4952055419495902  0.0307371893196191  0.9978321673079572
  0.9955162355802014  0.4752116473359698  0.9986974817233950
  0.5010237062339133  0.0034728481954808  0.4990224526531126
  0.0016135776694448  0.5026523046468745  0.4993233289745062
  0.6892624872043691  0.2974222364481745  0.0615891391470765
  0.1880108990128581  0.1839658750509360  0.9387512522609140
  0.7974854642497856  0.7800580449806255  0.4601319460649307
  0.2059223928472394  0.2260963249841717  0.5447585948278283
  0.3110162569719992  0.6903884837522699  0.9475869646511722
  0.8058744801014865  0.7995037537054307  0.0535315776377378
  0.3016179459938600  0.7090628272188336  0.5710002749305650
  0.7014408392199756  0.2968685644689699  0.4285899555291691
  0.1258145486811098  0.4838038604396912  0.2497164532935864
  0.8731654831466285  0.5145117312228478  0.7495993858996173
  0.6262770348583716  0.0331409649908713  0.7512999272639472
  0.3807531062791599  0.9731033432392336  0.2485690978344911
 
  0.00000000E+00  0.00000000E+00  0.00000000E+00
  0.00000000E+00  0.00000000E+00  0.00000000E+00
  0.00000000E+00  0.00000000E+00  0.00000000E+00
  0.00000000E+00  0.00000000E+00  0.00000000E+00
  0.00000000E+00  0.00000000E+00  0.00000000E+00
  0.00000000E+00  0.00000000E+00  0.00000000E+00
  0.00000000E+00  0.00000000E+00  0.00000000E+00
  0.00000000E+00  0.00000000E+00  0.00000000E+00
  0.00000000E+00  0.00000000E+00  0.00000000E+00
  0.00000000E+00  0.00000000E+00  0.00000000E+00
  0.00000000E+00  0.00000000E+00  0.00000000E+00
  0.00000000E+00  0.00000000E+00  0.00000000E+00
  0.00000000E+00  0.00000000E+00  0.00000000E+00
  0.00000000E+00  0.00000000E+00  0.00000000E+00
  0.00000000E+00  0.00000000E+00  0.00000000E+00
  0.00000000E+00  0.00000000E+00  0.00000000E+00
