Co4 O4 F8                               
   1.00000000000000     
     4.9896342191356853   -0.0211996057916620    0.0437663889190642
     0.0009639212084166    5.2304827216546528    0.0666731064616261
     0.0382433179647744    0.0702760662677732    7.2839284001586284
   Co   O    F 
     4     4     8
Direct
  0.4879014043130755  0.0057835585406417  0.9938457781230233
  0.9803891958925934  0.5096257864789181  0.9966997243444624
  0.5200017061157500  0.0079739017629882  0.4974466553869495
  0.0236731244157829  0.4988318227205185  0.4955933782381192
  0.8069359137641877  0.8152335415809657  0.0466017007617541
  0.6995443999731632  0.3161569769122298  0.4525659307340366
  0.1013682903421582  0.4842462939882678  0.2488402152469328
  0.6192772131822870  0.0077629313255914  0.7543307268198339
  0.6721065769474951  0.3167355156237241  0.0616566937242679
  0.3002411734706264  0.6865411995848600  0.9419679443727861
  0.1751038698707576  0.1879957800586414  0.9482317011779007
  0.3254959493697540  0.6866200222698436  0.5639667174340797
  0.8271146812601098  0.8175400420035059  0.4393431347231516
  0.2031086805372793  0.1825419952109641  0.5600464703093689
  0.8709253943548444  0.5113345063417272  0.7455778670561692
  0.3868124261901283  0.9650761255965984  0.2532853615471639
 
  0.00000000E+00  0.00000000E+00  0.00000000E+00
  0.00000000E+00  0.00000000E+00  0.00000000E+00
  0.00000000E+00  0.00000000E+00  0.00000000E+00
  0.00000000E+00  0.00000000E+00  0.00000000E+00
  0.00000000E+00  0.00000000E+00  0.00000000E+00
  0.00000000E+00  0.00000000E+00  0.00000000E+00
  0.00000000E+00  0.00000000E+00  0.00000000E+00
  0.00000000E+00  0.00000000E+00  0.00000000E+00
  0.00000000E+00  0.00000000E+00  0.00000000E+00
  0.00000000E+00  0.00000000E+00  0.00000000E+00
  0.00000000E+00  0.00000000E+00  0.00000000E+00
  0.00000000E+00  0.00000000E+00  0.00000000E+00
  0.00000000E+00  0.00000000E+00  0.00000000E+00
  0.00000000E+00  0.00000000E+00  0.00000000E+00
  0.00000000E+00  0.00000000E+00  0.00000000E+00
  0.00000000E+00  0.00000000E+00  0.00000000E+00
