Mn4 O4 F8                               
   1.00000000000000     
     5.0597781004465752   -0.0806520299631851    0.0055312277458064
    -0.0995608987996199    5.2793552385892832   -0.0273927964555552
     0.0440316864277668   -0.0545560076560510    7.0254145116300757
   Mn   O    F 
     4     4     8
Direct
  0.5067121095038594  0.0035605313897432  0.9943088746273002
  0.9979025830615380  0.4957098957627044  0.9880504874903916
  0.5093235739346179  0.0077601941503863  0.5078174181455931
  0.9960262760256899  0.4937659558520337  0.5023807039893833
  0.8427392701770663  0.4984272984937912  0.7394386263114737
  0.6388529958207118  0.0545926661631457  0.7475456236607181
  0.3850580606157055  0.9625111746400972  0.2507421829771790
  0.6697208656394721  0.3083948718578571  0.4435705404391074
  0.1255912281470306  0.4765432899284963  0.2533397474919972
  0.6810015436938001  0.3007039416524957  0.0864008546057675
  0.3277367801054211  0.6965483010201848  0.9304085559217556
  0.1718173258222050  0.2050309881967086  0.9397218815263257
  0.8346479335941177  0.7896383722263894  0.0508047982563580
  0.3095058571300150  0.7067251888214809  0.5649092305304501
  0.7972706455179395  0.8204015271551411  0.4422166650888252
  0.2060929512108032  0.1796858026893588  0.5583438089373745
 
  0.00000000E+00  0.00000000E+00  0.00000000E+00
  0.00000000E+00  0.00000000E+00  0.00000000E+00
  0.00000000E+00  0.00000000E+00  0.00000000E+00
  0.00000000E+00  0.00000000E+00  0.00000000E+00
  0.00000000E+00  0.00000000E+00  0.00000000E+00
  0.00000000E+00  0.00000000E+00  0.00000000E+00
  0.00000000E+00  0.00000000E+00  0.00000000E+00
  0.00000000E+00  0.00000000E+00  0.00000000E+00
  0.00000000E+00  0.00000000E+00  0.00000000E+00
  0.00000000E+00  0.00000000E+00  0.00000000E+00
  0.00000000E+00  0.00000000E+00  0.00000000E+00
  0.00000000E+00  0.00000000E+00  0.00000000E+00
  0.00000000E+00  0.00000000E+00  0.00000000E+00
  0.00000000E+00  0.00000000E+00  0.00000000E+00
  0.00000000E+00  0.00000000E+00  0.00000000E+00
  0.00000000E+00  0.00000000E+00  0.00000000E+00
