Na8 Co8 O16 F8                          
   1.00000000000000     
     8.0828214107246588   -0.0150460041480830    0.0027519728622166
    -0.0097237041270908    7.2378533341921854   -0.0027949358635403
     0.0019003741919435    0.0011878842979538    7.3131262122299265
   Na   Co   O    F 
     8     8    16     8
Direct
  0.2526029794349856  0.2317772544541985  0.2574207565901503
  0.2529232717315318  0.2359796124211599  0.7451373939232935
  0.2500725075678967  0.7600220231054877  0.2512967958762815
  0.2517923731654939  0.7643813276294775  0.7449889768275553
  0.7578374784505436  0.2597199605103906  0.2411917209005106
  0.7558129737394550  0.2560306572887498  0.7629192695890377
  0.7554272729391183  0.7503741291220533  0.2446623642366931
  0.7564174086975898  0.7489552170330239  0.7532554117892830
  0.9975184307065698  0.9992646573078976  0.9976829939513272
  0.9892122455133037  0.0012644393250943  0.4973210431629158
  0.0050791813580858  0.4987041409924725  0.0000215709956406
  0.9985878917496487  0.5028145197718312  0.5001496288596597
  0.4989960543171415  0.9981807786437186  0.9986874497195020
  0.5505759178524584  0.0010368167359028  0.4995261294070575
  0.4980258262930670  0.4992879509430185  0.0031758608692935
  0.4985065564697324  0.5036856576814341  0.5030442562436223
  0.7605942060135543  0.0571625943137140  0.5013048336544967
  0.9565531543164567  0.2618933718431213  0.9991348951499899
  0.0425950685072718  0.2495560550236189  0.4981645119203303
  0.0451938901343113  0.7379019827678329 -0.0003257242037397
  0.9435779182528549  0.7533402252549763  0.4991986892857094
  0.5497826634038102  0.2510401506707195  0.0021159324488164
  0.4464980849177569  0.7453990024471109  0.0002886968100019
  0.5437358992370643  0.7511717740672187  0.5026782074781277
  0.9908286399618104  0.0009805465341282  0.2488273766421206
  0.9982620918267446  0.0009850212952714  0.7469489657248622
  0.9976922520678410  0.5010442600787142  0.2401030061889533
  0.0037909838470710  0.5005909513260287  0.7598711202322185
  0.5026580712233908  0.9977938720082373  0.2392992712492194
  0.4973605246277894  0.0003386986124385  0.7590828789703317
  0.5043854588835087  0.5006724597869701  0.2670399579792482
  0.4963516327327921  0.4965680715148620  0.7382491455776844
  0.2442305433794591  0.0489256296285617  0.0020694890184261
  0.2220982026434255  0.9566416172200828  0.4942607220094957
  0.2546811594889461  0.4333915758623321  0.0056954702474407
  0.2440817883910045  0.5575018873718779  0.4980261291820063
  0.7518877716234212  0.9433760286445514  0.9949776610046268
  0.7448935326047591  0.5548192995024448  0.9979697374462423
  0.7509610099979579  0.4440724440980567  0.5057813163995820
  0.4379170819303747  0.2433533371612183  0.4987560866419793
 
  0.00000000E+00  0.00000000E+00  0.00000000E+00
  0.00000000E+00  0.00000000E+00  0.00000000E+00
  0.00000000E+00  0.00000000E+00  0.00000000E+00
  0.00000000E+00  0.00000000E+00  0.00000000E+00
  0.00000000E+00  0.00000000E+00  0.00000000E+00
  0.00000000E+00  0.00000000E+00  0.00000000E+00
  0.00000000E+00  0.00000000E+00  0.00000000E+00
  0.00000000E+00  0.00000000E+00  0.00000000E+00
  0.00000000E+00  0.00000000E+00  0.00000000E+00
  0.00000000E+00  0.00000000E+00  0.00000000E+00
  0.00000000E+00  0.00000000E+00  0.00000000E+00
  0.00000000E+00  0.00000000E+00  0.00000000E+00
  0.00000000E+00  0.00000000E+00  0.00000000E+00
  0.00000000E+00  0.00000000E+00  0.00000000E+00
  0.00000000E+00  0.00000000E+00  0.00000000E+00
  0.00000000E+00  0.00000000E+00  0.00000000E+00
  0.00000000E+00  0.00000000E+00  0.00000000E+00
  0.00000000E+00  0.00000000E+00  0.00000000E+00
  0.00000000E+00  0.00000000E+00  0.00000000E+00
  0.00000000E+00  0.00000000E+00  0.00000000E+00
  0.00000000E+00  0.00000000E+00  0.00000000E+00
  0.00000000E+00  0.00000000E+00  0.00000000E+00
  0.00000000E+00  0.00000000E+00  0.00000000E+00
  0.00000000E+00  0.00000000E+00  0.00000000E+00
  0.00000000E+00  0.00000000E+00  0.00000000E+00
  0.00000000E+00  0.00000000E+00  0.00000000E+00
  0.00000000E+00  0.00000000E+00  0.00000000E+00
  0.00000000E+00  0.00000000E+00  0.00000000E+00
  0.00000000E+00  0.00000000E+00  0.00000000E+00
  0.00000000E+00  0.00000000E+00  0.00000000E+00
  0.00000000E+00  0.00000000E+00  0.00000000E+00
  0.00000000E+00  0.00000000E+00  0.00000000E+00
  0.00000000E+00  0.00000000E+00  0.00000000E+00
  0.00000000E+00  0.00000000E+00  0.00000000E+00
  0.00000000E+00  0.00000000E+00  0.00000000E+00
  0.00000000E+00  0.00000000E+00  0.00000000E+00
  0.00000000E+00  0.00000000E+00  0.00000000E+00
  0.00000000E+00  0.00000000E+00  0.00000000E+00
  0.00000000E+00  0.00000000E+00  0.00000000E+00
  0.00000000E+00  0.00000000E+00  0.00000000E+00
