Na1 V16 O16 F32
1.0
10.463297 -0.009177 -0.020150
-0.009573 10.590138 0.001543
-0.004564 0.001359 7.657050
Na V O F
1 16 16 32
direct
0.505321 0.492073 -0.246677 Na
0.261608 0.001348 0.005693 V
0.262240 0.501888 0.011512 V
0.764033 0.001586 0.007153 V
0.767922 0.501385 0.007783 V
0.484124 0.248660 0.009068 V
0.484491 0.754391 0.008941 V
0.986303 0.250345 0.007122 V
0.986022 0.753012 0.007059 V
0.232471 0.498006 0.505884 V
0.236136 0.997344 0.506020 V
0.738681 0.497294 0.502417 V
0.737854 0.997162 0.507172 V
0.014480 0.246055 0.507390 V
0.014052 0.748753 0.507026 V
0.515858 0.244550 0.503901 V
0.515588 0.749397 0.504485 V
0.367541 0.131498 0.029201 O
0.368192 0.631347 0.030519 O
0.868823 0.131218 0.028911 O
0.868228 0.631815 0.029875 O
0.381616 0.382024 0.027068 O
0.380844 0.881731 0.027366 O
0.881605 0.381249 0.028496 O
0.881737 0.881544 0.027569 O
0.132862 0.366575 0.529832 O
0.132727 0.867152 0.529005 O
0.633757 0.367121 0.528174 O
0.633320 0.866913 0.528846 O
0.117599 0.116741 0.527830 O
0.116545 0.617073 0.527726 O
0.617890 0.116200 0.527008 O
0.617968 0.616043 0.526673 O
0.132173 0.367309 0.966087 F
0.132497 0.866551 0.963220 F
0.629917 0.370259 0.956132 F
0.632258 0.866116 0.964871 F
0.116969 0.117006 0.965282 F
0.116685 0.616582 0.968946 F
0.617135 0.117929 0.967125 F
0.615095 0.613925 0.960149 F
0.366464 0.135460 0.463062 F
0.366996 0.632694 0.468645 F
0.866344 0.133967 0.465004 F
0.866680 0.633519 0.462220 F
0.386833 0.388032 0.476526 F
0.384477 0.883528 0.466817 F
0.884915 0.384096 0.464817 F
0.884124 0.883612 0.466410 F
0.036372 0.247710 0.250005 F
0.036594 0.749416 0.249489 F
0.537968 0.249760 0.249108 F
0.538087 0.748486 0.249022 F
0.464666 0.255760 0.748918 F
0.464690 0.744924 0.749466 F
0.963960 0.251356 0.749421 F
0.963800 0.750678 0.749504 F
0.286333 0.003298 0.748498 F
0.287180 0.504583 0.750876 F
0.786039 0.002736 0.750360 F
0.785189 0.503017 0.748713 F
0.211962 0.495359 0.252075 F
0.213611 0.996628 0.249429 F
0.712238 0.496007 0.246672 F
0.714627 0.996539 0.249285 F
