V4 O4 F8                                
   1.00000000000000     
     5.0841538752533877    0.0049534007307377   -0.0081569344338422
    -0.0065356939013553    5.2585972144767776   -0.0049225122640219
     0.0125873444297117   -0.0633647597508044    7.4366829389078299
   V    O    F 
     4     4     8
Direct
  0.5191462816361454  0.0223330571877707  0.0064503582212558
  0.9807741805974785  0.5223393298499632  0.0064113104966858
  0.4747813088449135  0.0120806092993201  0.5061543033107200
  0.0252624259796968  0.5119862371261427  0.5061871768520367
  0.7074455726319113  0.2769440436935935  0.0427953575233478
  0.7925197957064350  0.7769458043976707  0.0424609449907228
  0.2744760673141207  0.7135117229510071  0.5419292993423908
  0.2254449133160502  0.2134349099098623  0.5415653342314981
  0.1014721768542585  0.4776662395564068  0.2490056162415135
  0.8983085800029882  0.5040158353009452  0.7497727228461100
  0.6016641280868744  0.0048624651570287  0.7497561710724633
  0.3987487783359805  0.9767719575997941  0.2490699552382999
  0.2983032510866083  0.7121514244052370  0.9522178726069338
  0.2016296720224905  0.2121226168327667  0.9525943713863469
  0.7255900115200905  0.2813939800238436  0.4515850070193518
  0.7744328560639648  0.7814397667086475  0.4520441986203157
 
  0.00000000E+00  0.00000000E+00  0.00000000E+00
  0.00000000E+00  0.00000000E+00  0.00000000E+00
  0.00000000E+00  0.00000000E+00  0.00000000E+00
  0.00000000E+00  0.00000000E+00  0.00000000E+00
  0.00000000E+00  0.00000000E+00  0.00000000E+00
  0.00000000E+00  0.00000000E+00  0.00000000E+00
  0.00000000E+00  0.00000000E+00  0.00000000E+00
  0.00000000E+00  0.00000000E+00  0.00000000E+00
  0.00000000E+00  0.00000000E+00  0.00000000E+00
  0.00000000E+00  0.00000000E+00  0.00000000E+00
  0.00000000E+00  0.00000000E+00  0.00000000E+00
  0.00000000E+00  0.00000000E+00  0.00000000E+00
  0.00000000E+00  0.00000000E+00  0.00000000E+00
  0.00000000E+00  0.00000000E+00  0.00000000E+00
  0.00000000E+00  0.00000000E+00  0.00000000E+00
  0.00000000E+00  0.00000000E+00  0.00000000E+00
