Ni4 O4 F8                               
   1.00000000000000     
     4.8735853511902159   -0.0260918220124973    0.0861522439545378
     0.0139011012960880    5.0334542068705010    0.0350012175518613
    -0.0279196571135030    0.0052891700650814    7.1396541904294555
   Ni   O    F 
     4     4     8
Direct
  0.4984177623978014  0.9957807319740207  0.9999789926968833
  0.9922612572332214  0.5031967249453280  0.0019339820320370
  0.5000538472736553  0.9954451673446072  0.5016434974632717
  0.0044932169527053  0.5022552726910322  0.5029721802285336
  0.8388966693823020  0.8114910052282439  0.0614316763674343
  0.3501542147858851  0.6838213455490878  0.5662497864550343
  0.6159997315438590  0.0250369148215387  0.7482517973516597
  0.3962961714835082  0.9688342993971403  0.2521481533998299
  0.6743599163259506  0.3274399181058527  0.0656635225506666
  0.3059739981620170  0.6793204680456593  0.9265475055240597
  0.1608725581787368  0.1922803013915772  0.9415103558423397
  0.6624011761111658  0.3120412901830948  0.4407880917297458
  0.8380491462361526  0.8117472510953692  0.4212746700719439
  0.1601856941199854  0.1818247364291777  0.5691254545412626
  0.1458277772321079  0.4647072964887143  0.2582698397572368
  0.8557568625809319  0.5447772763095563  0.7422104939880756
 
  0.00000000E+00  0.00000000E+00  0.00000000E+00
  0.00000000E+00  0.00000000E+00  0.00000000E+00
  0.00000000E+00  0.00000000E+00  0.00000000E+00
  0.00000000E+00  0.00000000E+00  0.00000000E+00
  0.00000000E+00  0.00000000E+00  0.00000000E+00
  0.00000000E+00  0.00000000E+00  0.00000000E+00
  0.00000000E+00  0.00000000E+00  0.00000000E+00
  0.00000000E+00  0.00000000E+00  0.00000000E+00
  0.00000000E+00  0.00000000E+00  0.00000000E+00
  0.00000000E+00  0.00000000E+00  0.00000000E+00
  0.00000000E+00  0.00000000E+00  0.00000000E+00
  0.00000000E+00  0.00000000E+00  0.00000000E+00
  0.00000000E+00  0.00000000E+00  0.00000000E+00
  0.00000000E+00  0.00000000E+00  0.00000000E+00
  0.00000000E+00  0.00000000E+00  0.00000000E+00
  0.00000000E+00  0.00000000E+00  0.00000000E+00
