Fe4 O4 F8                               
   1.00000000000000     
     5.0950103269634175    0.0000169622510447    0.0444743699125160
     0.0000130264983458    5.3323930270824329    0.0000126783669521
     0.2476901618050883    0.0000116178555151    7.0625145772369473
   Fe   O    F 
     4     4     8
Direct
  0.5034008121971725  0.0030563997311446  0.9878986072115005
 -0.0018014328853131  0.5060960368433013  0.0060121645698277
  0.4982094608599705  0.9939029924497725  0.5059867113595825
  0.0034210097572613  0.4969555744649036  0.4879100724091344
  0.3126784598775833  0.7124424417306294  0.9389980994716695
  0.8126925901737494  0.7875541196121192  0.4389927193203853
  0.1174721030277845  0.4867336033738178  0.2535504599396495
  0.6174915114489460  0.0132622519569426  0.7535385233372195
  0.6868142509814956  0.2997686701932793  0.0542075593981841
  0.1942735008714481  0.2117969721630005  0.9419822731356214
  0.8053240280596632  0.8059116338132482  0.0727454678328911
  0.3053305541428281  0.6941012736351143  0.5727448155325973
  0.6942931461538049  0.2882040346249761  0.4419948192281059
  0.1868490439441783  0.2002334505991646  0.5542069575005849
  0.8817742871828720  0.5265763116249539  0.7446236883942896
  0.3817766742065616  0.9734042331836389  0.2446070613587493
 
  0.00000000E+00  0.00000000E+00  0.00000000E+00
  0.00000000E+00  0.00000000E+00  0.00000000E+00
  0.00000000E+00  0.00000000E+00  0.00000000E+00
  0.00000000E+00  0.00000000E+00  0.00000000E+00
  0.00000000E+00  0.00000000E+00  0.00000000E+00
  0.00000000E+00  0.00000000E+00  0.00000000E+00
  0.00000000E+00  0.00000000E+00  0.00000000E+00
  0.00000000E+00  0.00000000E+00  0.00000000E+00
  0.00000000E+00  0.00000000E+00  0.00000000E+00
  0.00000000E+00  0.00000000E+00  0.00000000E+00
  0.00000000E+00  0.00000000E+00  0.00000000E+00
  0.00000000E+00  0.00000000E+00  0.00000000E+00
  0.00000000E+00  0.00000000E+00  0.00000000E+00
  0.00000000E+00  0.00000000E+00  0.00000000E+00
  0.00000000E+00  0.00000000E+00  0.00000000E+00
  0.00000000E+00  0.00000000E+00  0.00000000E+00
