V4 O4 F8                                
   1.00000000000000     
     5.4249246348066791    0.0662149015095773   -0.0183289189809443
    -2.6554244383352010    4.7311670518303224   -0.0186155688339015
    -0.0248331195359366   -0.0438552467353007    9.3581192357718255
   V    O    F 
     4     4     8
Direct
  0.3546448906867123  0.6973797688852272  0.6022557301982788
  0.6708167175526022  0.3042617991906762  0.3858911123441803
  0.6973757553884040  0.3546849309361140  0.1022455681335197
  0.3042784045296197  0.6708248081467837  0.8858578360067574
  0.9869490778051384  0.4946257456949101  0.0013026986480925
  0.4945409991817236  0.9868820646877147  0.5013047561379738
  0.8183903665170749  0.1986821243499467  0.2583406514693300
  0.1987318200754112  0.8184064068735124  0.7582788924175686
  0.4874203414711274  0.9908352816874408  0.0116074184470434
  0.4879892150426167  0.4954905708779050  0.9945939864098092
  0.9908337166301646  0.4873439438144935  0.5116143674146575
  0.4954685786941041  0.4880515112859987  0.4946077741378773
  0.8032337446238037  0.6374287065759026  0.2515128862449836
  0.1998249525741763  0.3720537041492818  0.7445330662375425
  0.3720707202637527  0.1998434147468401  0.2444994452935746
  0.6374306989635680  0.8032052180972454  0.7515538104588179
 
  0.00000000E+00  0.00000000E+00  0.00000000E+00
  0.00000000E+00  0.00000000E+00  0.00000000E+00
  0.00000000E+00  0.00000000E+00  0.00000000E+00
  0.00000000E+00  0.00000000E+00  0.00000000E+00
  0.00000000E+00  0.00000000E+00  0.00000000E+00
  0.00000000E+00  0.00000000E+00  0.00000000E+00
  0.00000000E+00  0.00000000E+00  0.00000000E+00
  0.00000000E+00  0.00000000E+00  0.00000000E+00
  0.00000000E+00  0.00000000E+00  0.00000000E+00
  0.00000000E+00  0.00000000E+00  0.00000000E+00
  0.00000000E+00  0.00000000E+00  0.00000000E+00
  0.00000000E+00  0.00000000E+00  0.00000000E+00
  0.00000000E+00  0.00000000E+00  0.00000000E+00
  0.00000000E+00  0.00000000E+00  0.00000000E+00
  0.00000000E+00  0.00000000E+00  0.00000000E+00
  0.00000000E+00  0.00000000E+00  0.00000000E+00
