Na1 V16 O16 F32                         
   1.00000000000000     
    10.4657479999999996   -0.0086760000000000    0.0016570000000000
    -0.0090690000000000   10.5908529999999992   -0.0018330000000000
     0.0116260000000000   -0.0014730000000000    7.6563910000000002
   Na   V    O    F 
     1    16    16    32
Direct
  0.5126883181060282  0.5017726573213940  0.1807218991659897
  0.2591999096739481 -0.0006586762641378  0.0058261284305222
  0.2607756791038447  0.5028741126338256 -0.0012318542368543
  0.7638838185254666  0.0050120420581213  0.0050284568341388
  0.7712433644057550  0.4995408526259509 -0.0025436501876448
  0.4807241433686039  0.2459593699925419 -0.0001730639077594
  0.4844832534818137  0.7568125086886430 -0.0012673946698324
  0.9903363430550288  0.2513679791953631  0.0037128545573950
  0.9836406530585484  0.7542810506633781  0.0065581577262637
  0.2320283991370237  0.4979874118654197  0.5033368975259838
  0.2368033246304735  0.9970106384926988  0.5060227882129319
  0.7414968714258564  0.4948305265262605  0.5032999659922762
  0.7342372466073533  0.9978549012399958  0.5047851735115260
  0.0146130496306508  0.2445972275537219  0.5045700560094756
  0.0137466545441734  0.7497394197538849  0.5064106206616138
  0.5135809138257884  0.2478255995142223  0.5030183437851780
  0.5153159836684779  0.7458867509091579  0.5036217542724861
  0.3673240582196450  0.1274611888109195  0.0269823980344201
  0.3712706772278749  0.6284363646045054  0.0198967392481038
  0.8679906111689585  0.1278171062844388  0.0263362806519110
  0.8751107241016213  0.6310369789143561  0.0261882461597203
  0.3755554473440773  0.3774181637867036  0.0204248271637260
  0.3758824513066913  0.8786992057576861  0.0261551871141159
  0.8833111723977241  0.3793201384273771  0.0248138821586961
  0.8783917329133563  0.8791552197643104  0.0258453615895531
  0.1310262412242605  0.3686359148261626  0.5251520246753297
  0.1308138677951075  0.8684998070918916  0.5291942092680963
  0.6314096927111400  0.3699965936464943  0.5230342535201982
  0.6311326943207054  0.8702418976842864  0.5236969893055256
  0.1203755988130868  0.1181226503250686  0.5274536971879208
  0.1178251862827643  0.6188297675834675  0.5249534237744407
  0.6205924179375549  0.1185284191656909  0.5223898930683371
  0.6173314656556788  0.6212619291696708  0.5228694902175081
  0.1306675592239472  0.3687220440935871  0.9602474825389818
  0.1281258826570520  0.8683253784840090  0.9589514619466305
  0.6288470768004307  0.3740556388036896  0.9675416712732597
  0.6273200603343271  0.8749640876742326  0.9665759596462729
  0.1169225962265520  0.1170925520602858  0.9617716185077791
  0.1195429379726153  0.6202412628862907  0.9642908336121762
  0.6182206976853677  0.1218386522651258  0.9671622992404532
  0.6241394058002763  0.6233906619694850  0.9654113570129216
  0.3690950370916349  0.1313862368404974  0.4627820307520839
  0.3685789220175448  0.6299448188550186  0.4599501187509045
  0.8686660268024153  0.1307173500997904  0.4666623185172131
  0.8676549537343269  0.6325811574138340  0.4621689405419314
  0.3837235551027942  0.3847222079485142  0.4573850059849695
  0.3823379755366470  0.8796514821595197  0.4633184007581049
  0.8833368354653683  0.3805402343722649  0.4612574740905075
  0.8813601545812112  0.8827741805173008  0.4691698784113098
  0.0365863222300278  0.2453214717801423  0.2474038450811115
  0.0356006227356169  0.7533637183484880  0.2469072036158477
  0.5331509180309346  0.2546491980085192  0.2437902921023881
  0.5330829400908248  0.7432173377323291  0.2449529803945395
  0.4641421739311103  0.2489121009959142  0.7459640019580718
  0.4650054939612434  0.7540187331425007  0.7443163295416579
  0.9645792080145480  0.2507914690559778  0.7474802236344409
  0.9636743537912755  0.7507665538532712  0.7493947900250660
  0.2864777494574122  0.0011939562511485  0.7480373052955890
  0.2850895264337883  0.5014260758438541  0.7433820899918726
  0.7811574265268179  0.0022626687559440  0.7484780521741551
  0.7904962086664912  0.5021689518557929  0.7455020577740231
  0.2149736499754540  0.4987549460899716  0.2451930401067460
  0.2102469438624927  0.9963244346791330  0.2486225551058099
  0.7169393255490830  0.4997113369105722  0.2440556677053664
  0.7169699047467002  0.9982502678822943  0.2481358956157861
 
             NaN             NaN             NaN
             NaN             NaN             NaN
             NaN             NaN             NaN
             NaN             NaN             NaN
             NaN             NaN             NaN
             NaN             NaN             NaN
             NaN             NaN             NaN
             NaN             NaN             NaN
             NaN             NaN             NaN
             NaN             NaN             NaN
             NaN             NaN             NaN
             NaN             NaN             NaN
             NaN             NaN             NaN
             NaN             NaN             NaN
             NaN             NaN             NaN
             NaN             NaN             NaN
             NaN             NaN             NaN
             NaN             NaN             NaN
             NaN             NaN             NaN
             NaN             NaN             NaN
             NaN             NaN             NaN
             NaN             NaN             NaN
             NaN             NaN             NaN
             NaN             NaN             NaN
             NaN             NaN             NaN
             NaN             NaN             NaN
             NaN             NaN             NaN
             NaN             NaN             NaN
             NaN             NaN             NaN
             NaN             NaN             NaN
             NaN             NaN             NaN
             NaN             NaN             NaN
             NaN             NaN             NaN
             NaN             NaN             NaN
             NaN             NaN             NaN
             NaN             NaN             NaN
             NaN             NaN             NaN
             NaN             NaN             NaN
             NaN             NaN             NaN
             NaN             NaN             NaN
             NaN             NaN             NaN
             NaN             NaN             NaN
             NaN             NaN             NaN
             NaN             NaN             NaN
             NaN             NaN             NaN
             NaN             NaN             NaN
             NaN             NaN             NaN
             NaN             NaN             NaN
             NaN             NaN             NaN
             NaN             NaN             NaN
             NaN             NaN             NaN
             NaN             NaN             NaN
             NaN             NaN             NaN
             NaN             NaN             NaN
             NaN             NaN             NaN
             NaN             NaN             NaN
             NaN             NaN             NaN
             NaN             NaN             NaN
             NaN             NaN             NaN
             NaN             NaN             NaN
             NaN             NaN             NaN
             NaN             NaN             NaN
             NaN             NaN             NaN
             NaN             NaN             NaN
             NaN             NaN             NaN
