Na1 V16 O16 F32
1.0
10.465748 -0.008676 0.001657
-0.009069 10.590853 -0.001833
0.011626 -0.001473 7.656391
Na V O F
1 16 16 32
direct
0.496419 0.504535 0.169866 Na
0.261997 0.002430 0.006993 V
0.261404 0.502434 0.003850 V
0.763833 0.002360 0.006461 V
0.767631 0.501734 0.006214 V
0.484292 0.250106 0.005069 V
0.484147 0.755117 0.005201 V
0.986069 0.250880 0.007074 V
0.985573 0.753655 0.007229 V
0.232010 0.498648 0.507369 V
0.236103 0.998359 0.507043 V
0.737971 0.498224 0.509894 V
0.738320 0.998630 0.505983 V
0.014086 0.246868 0.507036 V
0.013779 0.749750 0.506936 V
0.515573 0.245700 0.507942 V
0.515909 0.751192 0.508578 V
0.367040 0.132408 0.028908 O
0.366855 0.632207 0.028737 O
0.867852 0.132114 0.029355 O
0.867807 0.632665 0.029706 O
0.381695 0.383273 0.026494 O
0.381415 0.882982 0.027472 O
0.882879 0.382186 0.027979 O
0.881799 0.882438 0.028030 O
0.131543 0.368347 0.529743 O
0.131158 0.868993 0.528922 O
0.631558 0.369125 0.530020 O
0.632205 0.868901 0.529475 O
0.118577 0.118602 0.527851 O
0.118373 0.618941 0.528295 O
0.619506 0.118707 0.527246 O
0.618881 0.618252 0.527110 O
0.132798 0.366806 0.962849 F
0.132975 0.866450 0.964706 F
0.632071 0.368249 0.966404 F
0.632714 0.865292 0.963945 F
0.116338 0.116609 0.965911 F
0.115748 0.616338 0.965035 F
0.616078 0.117026 0.966881 F
0.614103 0.612880 0.974001 F
0.368147 0.133640 0.464235 F
0.370176 0.629732 0.458743 F
0.867885 0.133116 0.462770 F
0.868004 0.632591 0.465387 F
0.384535 0.385917 0.462582 F
0.382680 0.881807 0.466984 F
0.883140 0.383176 0.468151 F
0.882853 0.882872 0.465052 F
0.036750 0.249166 0.249447 F
0.036405 0.748943 0.249345 F
0.535903 0.254720 0.249266 F
0.535782 0.745083 0.249288 F
0.462293 0.251801 0.748855 F
0.462799 0.749163 0.749463 F
0.963410 0.250285 0.749512 F
0.963589 0.752031 0.749761 F
0.285755 0.002935 0.749218 F
0.287436 0.503686 0.747248 F
0.786374 0.003287 0.749692 F
0.787378 0.504078 0.751494 F
0.214282 0.496991 0.249286 F
0.213855 0.997454 0.250278 F
0.712621 0.495920 0.250196 F
0.713325 0.996996 0.248771 F
