Na4 Cr4 O8 F4                           
   1.00000000000000     
     5.1952003078397864   -0.1760163313471037   -0.0421385923394088
    -0.1662753116108833    5.2506383443592872    0.0257751620130879
    -0.0236927563516645    0.0154944585401407    7.6152862037381714
   Na   Cr   O    F 
     4     4     8     4
Direct
  0.9913735774951085  0.0300124823320825  0.2474099379065983
  0.0093607120832338  0.9597281259182725  0.7457661031583797
  0.4817730645212787  0.4877131418831899  0.7535613057204805
  0.5155155446194492  0.5321276351961527  0.2506573863801433
  0.5178855305276597  0.9904258605901421  0.9761826994544416
  0.9802616900765013  0.5259927685218233  0.0143054485382837
  0.4755392026977723  0.0245712250446711  0.5134754421011690
  0.0165563847279396  0.4874592431618997  0.4762871126612767
  0.7215135182006092  0.2716393354106288  0.0309069768892747
  0.2759222826328400  0.7194215993984516  0.9753005899604555
  0.7791242975434832  0.7782438597471215  0.0491630643131334
  0.2783961859942275  0.7232855588705419  0.5310196702481106
  0.7277649984201441  0.2722687551760050  0.4747673872466175
  0.2233683049723573  0.2247804053389274  0.5511392198458808
  0.0789786290356980  0.4697787861342068  0.2499350726998062
  0.5804755606013491  0.9882203247238416  0.7499099205849512
  0.2209480938241401  0.2124432478558120  0.9501986674753087
  0.7858103470326500  0.7740853573288756  0.4502552244353151
  0.9195998540951271  0.5260457453648012  0.7547751563569227
  0.4198322208984386  0.0017565420025603  0.2549836140234298
 
  0.00000000E+00  0.00000000E+00  0.00000000E+00
  0.00000000E+00  0.00000000E+00  0.00000000E+00
  0.00000000E+00  0.00000000E+00  0.00000000E+00
  0.00000000E+00  0.00000000E+00  0.00000000E+00
  0.00000000E+00  0.00000000E+00  0.00000000E+00
  0.00000000E+00  0.00000000E+00  0.00000000E+00
  0.00000000E+00  0.00000000E+00  0.00000000E+00
  0.00000000E+00  0.00000000E+00  0.00000000E+00
  0.00000000E+00  0.00000000E+00  0.00000000E+00
  0.00000000E+00  0.00000000E+00  0.00000000E+00
  0.00000000E+00  0.00000000E+00  0.00000000E+00
  0.00000000E+00  0.00000000E+00  0.00000000E+00
  0.00000000E+00  0.00000000E+00  0.00000000E+00
  0.00000000E+00  0.00000000E+00  0.00000000E+00
  0.00000000E+00  0.00000000E+00  0.00000000E+00
  0.00000000E+00  0.00000000E+00  0.00000000E+00
  0.00000000E+00  0.00000000E+00  0.00000000E+00
  0.00000000E+00  0.00000000E+00  0.00000000E+00
  0.00000000E+00  0.00000000E+00  0.00000000E+00
  0.00000000E+00  0.00000000E+00  0.00000000E+00
