Na4 Mn4 O8 F4                           
   1.00000000000000     
     5.2092492689097076   -0.0000040682662941   -0.0000107277049804
    -0.0000033537556394    5.3451041084539010   -0.0065639640213552
    -0.0000141956558514    0.0084177622701243    7.2179201172241223
   Na   Mn   O    F 
     4     4     8     4
Direct
  0.9956842678167601  0.0449666124550119  0.2539314910570500
  0.0043029976427103  0.9550062957110346  0.7539356587998003
  0.4956846445471305  0.4550315957159013  0.7460684859860197
  0.5043022651880779  0.5449923912743962  0.2460645532400539
  0.5009481096440271  0.9716446392993506  0.9975275323449263
  0.0009498008828230  0.5283583670654556  0.0024731142330209
  0.4990469645494391  0.0283630198167622  0.4975369260233789
  0.9990481074946231  0.4716410391728693  0.5024617608600432
  0.3003055077683487  0.7000363765199860  0.9549610355409837
  0.8003045595555377  0.7999636970441198  0.0450393922096274
  0.6997428106926525  0.2999415004974266  0.4548890008647556
  0.1997453234490693  0.2000627298070879  0.5451098459769397
  0.0760802544472310  0.4812776766172028  0.2512112617527883
  0.9238951715266909  0.5187309279242205  0.7511930723905210
  0.5760851275406597  0.0187209154973454  0.7487893844571992
  0.4238953154922306  0.9812659704728889  0.2488058467438422
  0.7090881601324275  0.2942828707401522  0.0381105559434734
  0.2090898322556013  0.2057152596318436  0.9618894933018959
  0.2908992160491406  0.7058019860600814  0.5381278526927855
  0.7909015633248188  0.7941961286768774  0.4618737355808806
 
  0.00000000E+00  0.00000000E+00  0.00000000E+00
  0.00000000E+00  0.00000000E+00  0.00000000E+00
  0.00000000E+00  0.00000000E+00  0.00000000E+00
  0.00000000E+00  0.00000000E+00  0.00000000E+00
  0.00000000E+00  0.00000000E+00  0.00000000E+00
  0.00000000E+00  0.00000000E+00  0.00000000E+00
  0.00000000E+00  0.00000000E+00  0.00000000E+00
  0.00000000E+00  0.00000000E+00  0.00000000E+00
  0.00000000E+00  0.00000000E+00  0.00000000E+00
  0.00000000E+00  0.00000000E+00  0.00000000E+00
  0.00000000E+00  0.00000000E+00  0.00000000E+00
  0.00000000E+00  0.00000000E+00  0.00000000E+00
  0.00000000E+00  0.00000000E+00  0.00000000E+00
  0.00000000E+00  0.00000000E+00  0.00000000E+00
  0.00000000E+00  0.00000000E+00  0.00000000E+00
  0.00000000E+00  0.00000000E+00  0.00000000E+00
  0.00000000E+00  0.00000000E+00  0.00000000E+00
  0.00000000E+00  0.00000000E+00  0.00000000E+00
  0.00000000E+00  0.00000000E+00  0.00000000E+00
  0.00000000E+00  0.00000000E+00  0.00000000E+00
