Na4 Ni4 O8 F4                           
   1.00000000000000     
     5.4147354226597830    0.0973698489301400   -0.1106220594021857
    -2.6256101096952529    4.5609200712814353    0.2117466253472078
    -0.0526865046174047    0.1708331843913632    9.0859804343049326
   Na   Ni   O    F 
     4     4     8     4
Direct
  0.9924731376027454 -0.0006690192578421  0.9210666734333528
  0.0081991207369253  0.0028486057041702  0.4200073486507511
  0.3281808607892813  0.6953374275478298  0.2569746074914565
  0.6711994713920653  0.3647444055035692  0.7640729070006044
  0.3376733058542436  0.6660410587383312  0.6155573094442144
  0.6669208156647043  0.3165999744725803  0.4042851865112602
  0.6619989020185794  0.3363110785890688  0.1147970353920854
  0.3329881461651714  0.6565719544250007  0.9030577700390002
  0.4285810460604955  0.9551841226458958  0.0260817546494138
  0.9814889179658087  0.3921308306592975  0.0132714254262156
  0.6150275713680949  0.5840095171646985  0.9830922066044351
  0.3849724808990195  0.9537604785444785  0.4785320694486987
  0.0192126840108684  0.4022165908227328  0.5140514090837355
  0.5719243120834531  0.5131270927880450  0.5317449201087687
  0.2529220262585850  0.3887109714276663  0.7679662260151640
  0.7487376526341283  0.1373527613533824  0.2638374041878933
  0.8837232375530054  0.6543829909852489  0.2707767550078584
  0.3617511136044419  0.2864976622490695  0.2424927614823472
  0.6380265010749140  0.9237981060209962  0.7395982797976887
  0.1139986962634746  0.7710433896157729  0.7687359502250553
 
  0.00000000E+00  0.00000000E+00  0.00000000E+00
  0.00000000E+00  0.00000000E+00  0.00000000E+00
  0.00000000E+00  0.00000000E+00  0.00000000E+00
  0.00000000E+00  0.00000000E+00  0.00000000E+00
  0.00000000E+00  0.00000000E+00  0.00000000E+00
  0.00000000E+00  0.00000000E+00  0.00000000E+00
  0.00000000E+00  0.00000000E+00  0.00000000E+00
  0.00000000E+00  0.00000000E+00  0.00000000E+00
  0.00000000E+00  0.00000000E+00  0.00000000E+00
  0.00000000E+00  0.00000000E+00  0.00000000E+00
  0.00000000E+00  0.00000000E+00  0.00000000E+00
  0.00000000E+00  0.00000000E+00  0.00000000E+00
  0.00000000E+00  0.00000000E+00  0.00000000E+00
  0.00000000E+00  0.00000000E+00  0.00000000E+00
  0.00000000E+00  0.00000000E+00  0.00000000E+00
  0.00000000E+00  0.00000000E+00  0.00000000E+00
  0.00000000E+00  0.00000000E+00  0.00000000E+00
  0.00000000E+00  0.00000000E+00  0.00000000E+00
  0.00000000E+00  0.00000000E+00  0.00000000E+00
  0.00000000E+00  0.00000000E+00  0.00000000E+00
