Na4 Mn4 O8 F4                           
   1.00000000000000     
     5.2272964630706129    0.0739413483808464    0.0167085312250057
     0.0714857283385246    5.3255729574906354   -0.0179904279501272
     0.0190073804387837   -0.0120179827096832    7.3832822501893931
   Na   Mn   O    F 
     4     4     8     4
Direct
  0.9897966606692756  0.0375512298817004  0.2578621306634843
  0.0060983524872396  0.9609828994095296  0.7487358933184807
  0.4941305112339040  0.4535207391537651  0.7370552385152733
  0.5102075656281811  0.5431486267647068  0.2611777648104330
  0.5016820798178796  0.0011731247306401  0.0113189444197968
  0.0045056878265721  0.5005330162694003  0.9957574499358296
  0.4849291512207039  0.0161833810787088  0.4861583000973511
  0.0171229159012342  0.4916336195552186  0.5017400555472659
  0.2053660572654252  0.2073407818700064  0.9645977069018911
  0.8049129081925417  0.8001517835057105  0.0346139834225400
  0.2837096322757257  0.7142935345702280  0.5411037114205247
  0.7070394768823677  0.2794560435361129  0.4596994137277287
  0.2091374198258171  0.2101933770894706  0.5468832988715456
  0.0761946542404251  0.4918186598495699  0.2483884399498770
  0.9213368431929940  0.5151427620223684  0.7502805136983316
  0.4143510293496636  0.9717372814165656  0.2528438605852529
  0.7101888395630103  0.3164833236291444  0.0386494505421827
  0.2962339970585642  0.6879579429069473  0.9513103255991495
  0.7846658753885907  0.7860821048334509  0.4629161082451854
  0.5783903419798845  0.0146157679267482  0.7489074097278761
 
  0.00000000E+00  0.00000000E+00  0.00000000E+00
  0.00000000E+00  0.00000000E+00  0.00000000E+00
  0.00000000E+00  0.00000000E+00  0.00000000E+00
  0.00000000E+00  0.00000000E+00  0.00000000E+00
  0.00000000E+00  0.00000000E+00  0.00000000E+00
  0.00000000E+00  0.00000000E+00  0.00000000E+00
  0.00000000E+00  0.00000000E+00  0.00000000E+00
  0.00000000E+00  0.00000000E+00  0.00000000E+00
  0.00000000E+00  0.00000000E+00  0.00000000E+00
  0.00000000E+00  0.00000000E+00  0.00000000E+00
  0.00000000E+00  0.00000000E+00  0.00000000E+00
  0.00000000E+00  0.00000000E+00  0.00000000E+00
  0.00000000E+00  0.00000000E+00  0.00000000E+00
  0.00000000E+00  0.00000000E+00  0.00000000E+00
  0.00000000E+00  0.00000000E+00  0.00000000E+00
  0.00000000E+00  0.00000000E+00  0.00000000E+00
  0.00000000E+00  0.00000000E+00  0.00000000E+00
  0.00000000E+00  0.00000000E+00  0.00000000E+00
  0.00000000E+00  0.00000000E+00  0.00000000E+00
  0.00000000E+00  0.00000000E+00  0.00000000E+00
