Co4 O4 F8                               
   1.00000000000000     
     4.9582373175627747    0.0095830800403288   -0.0024951168042914
     0.0024247533249831    5.2856769169492344    0.0254816512940539
     0.0327279019695117    0.0281561062204024    7.1130763009928764
   Co   O    F 
     4     4     8
Direct
  0.5018059565314129  0.0010744780423436  0.0006520744324016
  0.0021099191718793  0.5010226789927130  0.9992601312568471
  0.4977771801321074  0.9988574184656813  0.5007761349116030
  0.9974883138759386  0.4994828750392322  0.4994975864449477
  0.2129987921386713  0.2178087833750594  0.9128230636306380
  0.7900596437572749  0.7841244071664378  0.0868814956743393
  0.8173986835584800  0.8100000682127925  0.4395326751293488
  0.1795864768070247  0.1884462708407716  0.5604359532772246
  0.6950457954980911  0.2976651323302256  0.0671757245884706
  0.3090437055033079  0.7038522037255907  0.9328517533920981
  0.3174649662238672  0.6869787895514849  0.5535624372960148
  0.6796582170014133  0.3106702293542125  0.4465508770215700
  0.1347172804691520  0.4583053501027090  0.2450767604487735
  0.8650689444679367  0.5417604104407504  0.7549237980434573
  0.6451693330380095  0.0134105500748366  0.7543868743436201
  0.3546067918254342  0.9865403542851517  0.2456126601086457
 
  0.00000000E+00  0.00000000E+00  0.00000000E+00
  0.00000000E+00  0.00000000E+00  0.00000000E+00
  0.00000000E+00  0.00000000E+00  0.00000000E+00
  0.00000000E+00  0.00000000E+00  0.00000000E+00
  0.00000000E+00  0.00000000E+00  0.00000000E+00
  0.00000000E+00  0.00000000E+00  0.00000000E+00
  0.00000000E+00  0.00000000E+00  0.00000000E+00
  0.00000000E+00  0.00000000E+00  0.00000000E+00
  0.00000000E+00  0.00000000E+00  0.00000000E+00
  0.00000000E+00  0.00000000E+00  0.00000000E+00
  0.00000000E+00  0.00000000E+00  0.00000000E+00
  0.00000000E+00  0.00000000E+00  0.00000000E+00
  0.00000000E+00  0.00000000E+00  0.00000000E+00
  0.00000000E+00  0.00000000E+00  0.00000000E+00
  0.00000000E+00  0.00000000E+00  0.00000000E+00
  0.00000000E+00  0.00000000E+00  0.00000000E+00
