Disodium bis(catena-vanadate) - HT      
   1.00000000000000     
    10.6194022365248930    0.0000653475243867   -0.0650751533215616
     0.0000572878430858    9.2914025862299781   -0.0000442663598033
    -1.9169170349020961   -0.0000392247208766    5.5317067233684103
   V    Na   O 
     8     8    24
Direct
  0.2899097880087518  0.0923620347445244  0.2604415249276127
  0.7101299841498113  0.9075972402000235  0.7395982521983350
  0.7100934046888232  0.0923656112116417  0.2395827411180852
  0.2898837772639849  0.9076223031717540  0.7604330544485799
  0.7898703639759150  0.5923890300630197  0.2604125787158900
  0.2100827420366153  0.4076340727257058  0.7395657320508802
  0.2101345041813705  0.5924125731666614  0.2395885055340831
  0.7899003297048883  0.4076357376710898  0.7604231465290018
  0.4999916031163456  0.4148319320332712  0.2499288877499614
  0.5000012405675555  0.5851520281626310  0.7499545055897460
 -0.0000097663876179  0.9148492965429125  0.2500485627137812
 -0.0000086851553921  0.0851614047439397  0.7499672044359940
  0.5000211246380069  0.2103211566382951  0.7499787828217167
  0.5000515377604727  0.7896650865548483  0.2500040289704890
  0.0000247522206708  0.7103314210530781  0.7499936122130010
  0.0000132285110051  0.2896763282726936  0.2499810700268086
  0.1241895275839542  0.1037088657127805  0.1610935561910446
  0.8758492075598868  0.8962346921193125  0.8389378453397947
  0.8758213606051958  0.1037569482178495  0.3388945846510516
  0.1241585131294057  0.8962662251677598  0.6611108890757164
  0.6241450724319126  0.6037321184634546  0.1610635882864398
  0.3758042160287317  0.3962427837093474  0.8388683908198057
  0.3758414128128327  0.6037661368165104  0.3388998152271580
  0.6241679265435227  0.3962809285689053  0.6610682461878986
  0.3559504034760534  0.2541301787354877  0.3276508900279322
  0.6440289488330316  0.7458470392724912  0.6723600074590161
  0.6439965131695410  0.2541286654096529  0.1723415065016444
  0.3559583640674512  0.7458443464872503  0.8276821386857424
  0.8559559927550611  0.7541551484535279  0.3276717680180545
  0.1440002998937262  0.2458707145106822  0.6723568058881194
  0.1440356373601456  0.7541495004469707  0.1723586629769267
  0.8559608158154959  0.2458725771668678  0.8276784538680282
  0.3515263087574294  0.0069883476913323  0.0408006335625777
  0.6484903462834443  0.9929679366529798  0.9592272927356094
  0.6485012701116720  0.0069987071685984  0.4592445762197560
  0.3515223084905522  0.9929541916116316  0.5408015668884764
  0.8515090825298796  0.5070471227270819  0.0407771591845475
  0.1485025264391933  0.4930145832227149  0.9592274724374368
  0.1484870324971982  0.5070402548171510  0.4592203728122753
  0.8515069835434469  0.4929947718935733  0.5407615629109941
 
  0.00000000E+00  0.00000000E+00  0.00000000E+00
  0.00000000E+00  0.00000000E+00  0.00000000E+00
  0.00000000E+00  0.00000000E+00  0.00000000E+00
  0.00000000E+00  0.00000000E+00  0.00000000E+00
  0.00000000E+00  0.00000000E+00  0.00000000E+00
  0.00000000E+00  0.00000000E+00  0.00000000E+00
  0.00000000E+00  0.00000000E+00  0.00000000E+00
  0.00000000E+00  0.00000000E+00  0.00000000E+00
  0.00000000E+00  0.00000000E+00  0.00000000E+00
  0.00000000E+00  0.00000000E+00  0.00000000E+00
  0.00000000E+00  0.00000000E+00  0.00000000E+00
  0.00000000E+00  0.00000000E+00  0.00000000E+00
  0.00000000E+00  0.00000000E+00  0.00000000E+00
  0.00000000E+00  0.00000000E+00  0.00000000E+00
  0.00000000E+00  0.00000000E+00  0.00000000E+00
  0.00000000E+00  0.00000000E+00  0.00000000E+00
  0.00000000E+00  0.00000000E+00  0.00000000E+00
  0.00000000E+00  0.00000000E+00  0.00000000E+00
  0.00000000E+00  0.00000000E+00  0.00000000E+00
  0.00000000E+00  0.00000000E+00  0.00000000E+00
  0.00000000E+00  0.00000000E+00  0.00000000E+00
  0.00000000E+00  0.00000000E+00  0.00000000E+00
  0.00000000E+00  0.00000000E+00  0.00000000E+00
  0.00000000E+00  0.00000000E+00  0.00000000E+00
  0.00000000E+00  0.00000000E+00  0.00000000E+00
  0.00000000E+00  0.00000000E+00  0.00000000E+00
  0.00000000E+00  0.00000000E+00  0.00000000E+00
  0.00000000E+00  0.00000000E+00  0.00000000E+00
  0.00000000E+00  0.00000000E+00  0.00000000E+00
  0.00000000E+00  0.00000000E+00  0.00000000E+00
  0.00000000E+00  0.00000000E+00  0.00000000E+00
  0.00000000E+00  0.00000000E+00  0.00000000E+00
  0.00000000E+00  0.00000000E+00  0.00000000E+00
  0.00000000E+00  0.00000000E+00  0.00000000E+00
  0.00000000E+00  0.00000000E+00  0.00000000E+00
  0.00000000E+00  0.00000000E+00  0.00000000E+00
  0.00000000E+00  0.00000000E+00  0.00000000E+00
  0.00000000E+00  0.00000000E+00  0.00000000E+00
  0.00000000E+00  0.00000000E+00  0.00000000E+00
  0.00000000E+00  0.00000000E+00  0.00000000E+00
