Co4 O4 F8                               
    1.000000000000000     
     4.8344315500262427    0.0354018179116893   -0.0104270769087412
     0.0241689834947412    5.0985264836450019   -0.0202777450217505
    -0.0160876632103093   -0.0630531883473692    7.0023664249438191
   Co   O    F 
     4     4     8
Direct
  0.5071250089511112  0.9965975373688174  0.0065875266029096
 -0.0005601452618094  0.5037611777603129  0.0006538807519640
  0.4947589598897138  0.0024872366976478  0.5044660534969534
  0.0038517391606752  0.4929242263919907  0.4990263440580404
  0.1374751744981415  0.4750597920289421  0.2485632622321049
  0.8661745343282661  0.5294249974207789  0.7510752938671078
  0.8375448191044245  0.8171589275199855  0.0566664366117909
  0.1672916980880246  0.1766884430425500  0.5639252138538134
  0.6415690601390674  0.0290758697123098  0.7481785946459912
  0.3537584127839490  0.9759749669767895  0.2578948199809417
  0.6783412623461281  0.3183777811998170  0.0620177865839424
  0.3221784422775353  0.6897086616419934  0.9384339076496285
  0.1822692510449617  0.1959422158358375  0.9312791261638697
  0.3168018805592405  0.6887964521915265  0.5646927802517774
  0.6814108685521586  0.3049641260875985  0.4370525175720936
  0.8100090335384048  0.8030575881231043  0.4294864556770775
 
  0.00000000E+00  0.00000000E+00  0.00000000E+00
  0.00000000E+00  0.00000000E+00  0.00000000E+00
  0.00000000E+00  0.00000000E+00  0.00000000E+00
  0.00000000E+00  0.00000000E+00  0.00000000E+00
  0.00000000E+00  0.00000000E+00  0.00000000E+00
  0.00000000E+00  0.00000000E+00  0.00000000E+00
  0.00000000E+00  0.00000000E+00  0.00000000E+00
  0.00000000E+00  0.00000000E+00  0.00000000E+00
  0.00000000E+00  0.00000000E+00  0.00000000E+00
  0.00000000E+00  0.00000000E+00  0.00000000E+00
  0.00000000E+00  0.00000000E+00  0.00000000E+00
  0.00000000E+00  0.00000000E+00  0.00000000E+00
  0.00000000E+00  0.00000000E+00  0.00000000E+00
  0.00000000E+00  0.00000000E+00  0.00000000E+00
  0.00000000E+00  0.00000000E+00  0.00000000E+00
  0.00000000E+00  0.00000000E+00  0.00000000E+00
