Co4 O4 F8                               
   1.00000000000000     
     5.3731440639244630    0.0932036091591972    0.0010685929480656
     0.0917801505497315    5.5585517352565033    0.0066716172678553
     0.0014565464641527   -0.0083469303069691    7.3416979069806807
   Na   Co   O    F 
     4     4     4     8
Direct
  0.9829604400764993  0.0529855534165999  0.2564368449480586
  0.0176131710294991  0.9471806697951570  0.7570353497177954
  0.4995489069016575  0.4469398784603709  0.7544937082383190
  0.4999774538056395  0.5521795005672844  0.2553023019974524
  0.5259395280653509  0.9850676451919219  0.0015784876016397
  0.9966298043376318  0.5101300054902134  0.0070333925492901
  0.4740245419517458  0.0147458320252959  0.5014837898272424
  0.0030822859108530  0.4902545435490274  0.5071068733281155
  0.0683059966963500  0.4833869813332806  0.2486165606331063
  0.9313747547850881  0.5168471839163395  0.7486864429979646
  0.7929729122112983  0.8084683703091092  0.0404996565921292
  0.2076014590208574  0.1921766439269450  0.5404971726595370
  0.6130396561212480  0.0442462093585408  0.7459732765726068
  0.3869547492847883  0.9553502964833445  0.2460947535950352
  0.6866556214266415  0.3043233114800499  0.0467819908038880
  0.3056270345520458  0.7073749431369027  0.9440998059202942
  0.2223520979709192  0.1923691186350205  0.9537020751402524
  0.3130972128988752  0.6958922850969523  0.5468059451966202
  0.6948668424412593  0.2924473987077489  0.4443644794547706
  0.7773755305117663  0.8076336291199024  0.4534071222258707
 
  0.00000000E+00  0.00000000E+00  0.00000000E+00
  0.00000000E+00  0.00000000E+00  0.00000000E+00
  0.00000000E+00  0.00000000E+00  0.00000000E+00
  0.00000000E+00  0.00000000E+00  0.00000000E+00
  0.00000000E+00  0.00000000E+00  0.00000000E+00
  0.00000000E+00  0.00000000E+00  0.00000000E+00
  0.00000000E+00  0.00000000E+00  0.00000000E+00
  0.00000000E+00  0.00000000E+00  0.00000000E+00
  0.00000000E+00  0.00000000E+00  0.00000000E+00
  0.00000000E+00  0.00000000E+00  0.00000000E+00
  0.00000000E+00  0.00000000E+00  0.00000000E+00
  0.00000000E+00  0.00000000E+00  0.00000000E+00
  0.00000000E+00  0.00000000E+00  0.00000000E+00
  0.00000000E+00  0.00000000E+00  0.00000000E+00
  0.00000000E+00  0.00000000E+00  0.00000000E+00
  0.00000000E+00  0.00000000E+00  0.00000000E+00
  0.00000000E+00  0.00000000E+00  0.00000000E+00
  0.00000000E+00  0.00000000E+00  0.00000000E+00
  0.00000000E+00  0.00000000E+00  0.00000000E+00
  0.00000000E+00  0.00000000E+00  0.00000000E+00
