Na8 V8 O16 F8                           
   1.00000000000000     
     7.5884462884825741    0.0063235972007124    0.0527488325314937
     0.0078428050272035    7.4556768610316873   -0.0375437113321479
    -0.0473639103338670   -0.0600385859938685    7.5253009609224835
   Na   V    O    F 
     8     8    16     8
Direct
  0.2566243943671589  0.2392811948730353  0.2609440344524906
  0.2495561082354758  0.2319618300650225  0.7676102579694016
  0.2479191037513688  0.7248900049671690  0.2440939428318301
  0.2518758557498344  0.7461113910138288  0.7719524061676009
  0.7445221504078875  0.2601151174868187  0.2282741080963336
  0.7473367309429466  0.2683053605595240  0.7585445072870378
  0.7489416195470059  0.7588779319974225  0.2343641568951967
  0.7386922129332792  0.7665923835860187  0.7366855742936607
  0.9956056451505568  0.0016663404081956  0.0209281143359895
 -0.0006090921410832  0.0024182529851796  0.4919156251966424
  0.9946506417740956  0.5013842291735383  0.9853027853722730
 -0.0022335020661584  0.5037790715212681  0.5159323566024511
  0.5001047920070577 -0.0011118743479098  0.0033821965215245
  0.4998651888716230  0.0054959191550436  0.5011374935333708
  0.4967796533599133  0.4983187073510748  0.0017031672325121
  0.5013061973910056  0.5063417364711964  0.4994570632184669
  0.2609701027150202  0.0090070935614342  0.0238409897854958
  0.2619471683982527  0.4983015346020820  0.9722634648865559
  0.7415124729031659 -0.0123860581409207  0.9698379226146249
  0.7376702566494102  0.5010420895256625  0.0243735362947151
  0.9940015274934840  0.2559175271236455 -0.0304213223874591
  0.0396812909111211  0.2404371668940690  0.5305115455067397
  0.0062121681102387  0.7435275860645014  0.0343706814843591
 -0.0387638570818867  0.7612116851983420  0.4733930980980515
  0.4602394856724268  0.2470324961042220  0.5352520481855726
  0.5420881155521804  0.7478677916757601  0.4611556665513257
  0.9658726110384578  0.0373156930163153  0.2461964168890129
 -0.0292816104366663  0.5315388488265399  0.7472218578138982
  0.5345388758617059  0.0393204922549719  0.2587058626850540
  0.4704257535702309 -0.0435691570725962  0.7352603190778363
  0.4722121812809578  0.4596892403664515  0.2599595880125599
  0.5272665508296025  0.5341891840766412  0.7372173887623477
  0.2502325169725235 -0.0417329878438156  0.4432551578060094
  0.2482441927471095  0.5652491705806879  0.5224929977053890
  0.7521453301258846  0.0443501304388767  0.5549140079330903
  0.7538886373160192  0.4414293598977427  0.4669606826525673
  0.5083583323176656  0.2475630586901418  0.9371237312735424
  0.4914372285648174  0.7493281408585307  0.0646336710651704
  0.0408226275914663 -0.0379209168246188  0.7534043571990368
  0.0373403406148390  0.4668632328589002  0.2558485400977463
 
  0.00000000E+00  0.00000000E+00  0.00000000E+00
  0.00000000E+00  0.00000000E+00  0.00000000E+00
  0.00000000E+00  0.00000000E+00  0.00000000E+00
  0.00000000E+00  0.00000000E+00  0.00000000E+00
  0.00000000E+00  0.00000000E+00  0.00000000E+00
  0.00000000E+00  0.00000000E+00  0.00000000E+00
  0.00000000E+00  0.00000000E+00  0.00000000E+00
  0.00000000E+00  0.00000000E+00  0.00000000E+00
  0.00000000E+00  0.00000000E+00  0.00000000E+00
  0.00000000E+00  0.00000000E+00  0.00000000E+00
  0.00000000E+00  0.00000000E+00  0.00000000E+00
  0.00000000E+00  0.00000000E+00  0.00000000E+00
  0.00000000E+00  0.00000000E+00  0.00000000E+00
  0.00000000E+00  0.00000000E+00  0.00000000E+00
  0.00000000E+00  0.00000000E+00  0.00000000E+00
  0.00000000E+00  0.00000000E+00  0.00000000E+00
  0.00000000E+00  0.00000000E+00  0.00000000E+00
  0.00000000E+00  0.00000000E+00  0.00000000E+00
  0.00000000E+00  0.00000000E+00  0.00000000E+00
  0.00000000E+00  0.00000000E+00  0.00000000E+00
  0.00000000E+00  0.00000000E+00  0.00000000E+00
  0.00000000E+00  0.00000000E+00  0.00000000E+00
  0.00000000E+00  0.00000000E+00  0.00000000E+00
  0.00000000E+00  0.00000000E+00  0.00000000E+00
  0.00000000E+00  0.00000000E+00  0.00000000E+00
  0.00000000E+00  0.00000000E+00  0.00000000E+00
  0.00000000E+00  0.00000000E+00  0.00000000E+00
  0.00000000E+00  0.00000000E+00  0.00000000E+00
  0.00000000E+00  0.00000000E+00  0.00000000E+00
  0.00000000E+00  0.00000000E+00  0.00000000E+00
  0.00000000E+00  0.00000000E+00  0.00000000E+00
  0.00000000E+00  0.00000000E+00  0.00000000E+00
  0.00000000E+00  0.00000000E+00  0.00000000E+00
  0.00000000E+00  0.00000000E+00  0.00000000E+00
  0.00000000E+00  0.00000000E+00  0.00000000E+00
  0.00000000E+00  0.00000000E+00  0.00000000E+00
  0.00000000E+00  0.00000000E+00  0.00000000E+00
  0.00000000E+00  0.00000000E+00  0.00000000E+00
  0.00000000E+00  0.00000000E+00  0.00000000E+00
  0.00000000E+00  0.00000000E+00  0.00000000E+00
