Ti4 O4 F8                               
   1.00000000000000     
     5.2886552886873481    0.0043021695488507   -0.0062821616472612
     0.0047343619227595    5.4337094467823182   -0.0002573218059198
    -0.0075354842828303    0.0039584576290958    7.4240821824831906
   Ti   O    F 
     4     4     8
Direct
  0.5043563055217275  0.9931678691813186  0.9855432671177726
  0.0272666995412277  0.5134900279733934  0.9976287516362032
  0.4973349229519848  0.9980739076978749  0.4850559056703106
  0.9798739400568531  0.5246089239843965  0.4976008812107238
  0.2804736203375471  0.7091115560218892  0.9621660345479041
  0.7886815783721602  0.7795756378794014  0.4622877962842032
  0.5681092531011482  0.0114863565826004  0.7522099060132289
  0.4284352007879524  0.9950643898885161  0.2517895832830656
  0.7256549541357813  0.2828800882841211  0.0424919157264855
  0.2057714782519939  0.2119468922148558  0.9588860257737142
  0.7902255546684969  0.7734326061135323  0.0493284542665995
  0.2812925184161236  0.7106310363554064  0.5479011613981630
  0.7157732696137806  0.2901005702344615  0.4586300197455795
  0.2100097835390811  0.2266524589632444  0.5428249097155737
  0.0933219156275396  0.4768218715921355  0.2530995422272121
  0.9034190050766021  0.5029558070328523  0.7525558453832463
 
  0.00000000E+00  0.00000000E+00  0.00000000E+00
  0.00000000E+00  0.00000000E+00  0.00000000E+00
  0.00000000E+00  0.00000000E+00  0.00000000E+00
  0.00000000E+00  0.00000000E+00  0.00000000E+00
  0.00000000E+00  0.00000000E+00  0.00000000E+00
  0.00000000E+00  0.00000000E+00  0.00000000E+00
  0.00000000E+00  0.00000000E+00  0.00000000E+00
  0.00000000E+00  0.00000000E+00  0.00000000E+00
  0.00000000E+00  0.00000000E+00  0.00000000E+00
  0.00000000E+00  0.00000000E+00  0.00000000E+00
  0.00000000E+00  0.00000000E+00  0.00000000E+00
  0.00000000E+00  0.00000000E+00  0.00000000E+00
  0.00000000E+00  0.00000000E+00  0.00000000E+00
  0.00000000E+00  0.00000000E+00  0.00000000E+00
  0.00000000E+00  0.00000000E+00  0.00000000E+00
  0.00000000E+00  0.00000000E+00  0.00000000E+00
