Ni4 O4 F8                               
   1.00000000000000     
     4.8753853719231781    0.0383080596069759    0.1918471045111947
    -2.3991607452090244    4.2494126062096820    0.1760953064144942
    -0.5273307862199847   -0.8330693291217195    9.3264209110590670
   Ni   O    F 
     4     4     8
Direct
  0.3177296640132801  0.7053132242823666  0.6117526090265493
  0.6330719466206659  0.3285470640504334  0.3880624943559533
  0.7011213541900960  0.3114352651429228  0.1116368153496418
  0.3242658306291640  0.6284477141457698  0.8879903361745646
  0.6477903391778523  0.9771337692167616  0.0051935200776983
  0.3946112361041571  0.3541863961081321  0.9869068250730005
  0.9844189066186247  0.6543523312886480  0.5034837559476285
  0.3614826819700587  0.4026654257215850  0.4871139826163819
  0.0182638593234243  0.6412368718056398  0.0081617016251689
  0.6475908643239239  0.0258575209611095  0.5102966453515381
  0.6425954272580719  0.6012503672302248  0.2305449621340386
  0.0255908760506349  0.3882637030759546  0.7438601089194667
  0.3862354569957001  0.0257540423831057  0.2464386426217297
  0.6032572423120766  0.6442460415259942  0.7325490475831504
  0.9676017465890461  0.3432234020471280  0.2726043937798198
  0.3443725678232232  0.9680868610142098  0.7734041593636695
 
  0.00000000E+00  0.00000000E+00  0.00000000E+00
  0.00000000E+00  0.00000000E+00  0.00000000E+00
  0.00000000E+00  0.00000000E+00  0.00000000E+00
  0.00000000E+00  0.00000000E+00  0.00000000E+00
  0.00000000E+00  0.00000000E+00  0.00000000E+00
  0.00000000E+00  0.00000000E+00  0.00000000E+00
  0.00000000E+00  0.00000000E+00  0.00000000E+00
  0.00000000E+00  0.00000000E+00  0.00000000E+00
  0.00000000E+00  0.00000000E+00  0.00000000E+00
  0.00000000E+00  0.00000000E+00  0.00000000E+00
  0.00000000E+00  0.00000000E+00  0.00000000E+00
  0.00000000E+00  0.00000000E+00  0.00000000E+00
  0.00000000E+00  0.00000000E+00  0.00000000E+00
  0.00000000E+00  0.00000000E+00  0.00000000E+00
  0.00000000E+00  0.00000000E+00  0.00000000E+00
  0.00000000E+00  0.00000000E+00  0.00000000E+00
