Na8 Mn8 O16 F8                          
   1.00000000000000     
     7.4397724466269199    0.0000003904045547    0.0000001867164314
     0.0000002698197365    7.5009818741376284    0.0000013824281478
     0.0000001446497237    0.0000014991559756    7.6111026107781630
   Na   Mn   O    F 
     8     8    16     8
Direct
  0.2492040398811278  0.2420706841689868  0.2435436958050306
  0.2492050097410081  0.2420739449976540  0.7564545304304094
  0.2504331982990776  0.7586607867481462  0.2429673569936336
  0.2504330851916508  0.7586603204637271  0.7570332893903736
  0.7504349994314065  0.2413381065122756  0.2429690821741697
  0.7504348347026508  0.2413376927600815  0.7570307587494028
  0.7492042400286314  0.7579299174671879  0.2435430053501809
  0.7492034516409404  0.7579301271699684  0.7564586759560159
  0.9995419664424313  0.9904656571952500  0.9999912442761787
  0.9994469300968091  0.9979345082713796  0.4999968290844983
  0.9999528796924506  0.5084917305888353  0.9999999304100086
  0.9995047750892666  0.4981500015673369  0.4999998050856022
  0.4995432847182184  0.0095356886029118  0.0000061573528014
  0.4994462388699137  0.0020672779217928  0.5000019193355786
  0.4999530479698396  0.4915089168589471  0.0000002297742735
  0.4995050593411786  0.5018497585939753  0.5000002493894412
  0.2501425560100677  0.9997087865825713  0.0000001508672445
  0.2502307664603735  0.5004041358094162  0.0000001163593710
  0.2500998452680756  0.4999707247787108  0.5000001318090601
  0.7501425327312315  0.0002898184872123  0.0000002605787186
  0.7502308792657270  0.4995962865654728  0.0000001051504485
  0.7500997472356842  0.5000277710156893  0.5000001090010275
  0.0003726055198672  0.2533585199512154  0.5000007415251502
  0.9998209609861569  0.7540669659307945  0.9999996113702473
  0.0002081855199453  0.7507498239916108  0.5000001680294193
  0.4998206777906336  0.2459338933184283  0.0000005193927935
  0.5002124340294724  0.2492487806543862  0.5000001201273402
  0.5003723107812871  0.7466412347334802  0.4999995529980955
  0.0002677656995911  0.0121020519755153  0.2535609316171286
  0.0002680275519665  0.0121026205875712  0.7464396107393849
  0.5002676896346828  0.9878970042228359  0.2535607106163364
  0.5002675629018675  0.9878973328653384  0.7464394975395561
  0.2498964167991082  0.9998612220356262  0.5000001357623807
  0.7498964264205926  0.0001388390819827  0.5000001369263125
  0.0006558864148572  0.2504936885688355  0.0000001022616378
  0.5006553033220850  0.7495062716416141  0.0000001703230942
  0.0001559530903404  0.4952779223441185  0.2577520495083891
  0.0001559217519757  0.4952782357959772  0.7422478158285440
  0.5001562087776249  0.5047213127781843  0.2577524216702545
  0.5001562949001847  0.5047216363949635  0.7422480704404444
 
  0.00000000E+00  0.00000000E+00  0.00000000E+00
  0.00000000E+00  0.00000000E+00  0.00000000E+00
  0.00000000E+00  0.00000000E+00  0.00000000E+00
  0.00000000E+00  0.00000000E+00  0.00000000E+00
  0.00000000E+00  0.00000000E+00  0.00000000E+00
  0.00000000E+00  0.00000000E+00  0.00000000E+00
  0.00000000E+00  0.00000000E+00  0.00000000E+00
  0.00000000E+00  0.00000000E+00  0.00000000E+00
  0.00000000E+00  0.00000000E+00  0.00000000E+00
  0.00000000E+00  0.00000000E+00  0.00000000E+00
  0.00000000E+00  0.00000000E+00  0.00000000E+00
  0.00000000E+00  0.00000000E+00  0.00000000E+00
  0.00000000E+00  0.00000000E+00  0.00000000E+00
  0.00000000E+00  0.00000000E+00  0.00000000E+00
  0.00000000E+00  0.00000000E+00  0.00000000E+00
  0.00000000E+00  0.00000000E+00  0.00000000E+00
  0.00000000E+00  0.00000000E+00  0.00000000E+00
  0.00000000E+00  0.00000000E+00  0.00000000E+00
  0.00000000E+00  0.00000000E+00  0.00000000E+00
  0.00000000E+00  0.00000000E+00  0.00000000E+00
  0.00000000E+00  0.00000000E+00  0.00000000E+00
  0.00000000E+00  0.00000000E+00  0.00000000E+00
  0.00000000E+00  0.00000000E+00  0.00000000E+00
  0.00000000E+00  0.00000000E+00  0.00000000E+00
  0.00000000E+00  0.00000000E+00  0.00000000E+00
  0.00000000E+00  0.00000000E+00  0.00000000E+00
  0.00000000E+00  0.00000000E+00  0.00000000E+00
  0.00000000E+00  0.00000000E+00  0.00000000E+00
  0.00000000E+00  0.00000000E+00  0.00000000E+00
  0.00000000E+00  0.00000000E+00  0.00000000E+00
  0.00000000E+00  0.00000000E+00  0.00000000E+00
  0.00000000E+00  0.00000000E+00  0.00000000E+00
  0.00000000E+00  0.00000000E+00  0.00000000E+00
  0.00000000E+00  0.00000000E+00  0.00000000E+00
  0.00000000E+00  0.00000000E+00  0.00000000E+00
  0.00000000E+00  0.00000000E+00  0.00000000E+00
  0.00000000E+00  0.00000000E+00  0.00000000E+00
  0.00000000E+00  0.00000000E+00  0.00000000E+00
  0.00000000E+00  0.00000000E+00  0.00000000E+00
  0.00000000E+00  0.00000000E+00  0.00000000E+00
