Na4 Ni4 O8 F4                           
   1.00000000000000     
     5.3364312733856538   -0.1585887832111440    0.0302092373455744
    -0.1207921498191776    5.4023881413568278    0.0057781877349833
     0.0012295589077186    0.1008215726876877    7.1922656705493111
   Na   Ni   O    F 
     4     4     8     4
Direct
  0.9849813475744931  0.0546409138003414  0.2545073402141406
 -0.0015650143161597  0.9444030228864742  0.7504016866191487
  0.4926421798385549  0.4500948490107753  0.7454044746510833
  0.5337148328807392  0.5511990699539121  0.2508062981305727
  0.4880942165697996  0.0051546613096904 -0.0039516150490908
  0.0281928579701623  0.5077214429751294  0.0067860537246868
  0.4872075983701085 -0.0051503330007317  0.5011864239015531
  0.9956054220403560  0.4947615974129561  0.4928440318877587
  0.1226648271317514  0.4972516911784496  0.2484691316335219
  0.5925941946149953  0.0416139622514419  0.7465655054780681
  0.3924122597657024  0.9776709078387502  0.2518718634128187
  0.3034218985068201  0.7143959834690986  0.9309458628468112
  0.2109170660748409  0.2048540465787660  0.9592621963747798
  0.7668052147382328  0.7862550624774935  0.0302332780186028
  0.2953423971027718  0.7077202711472876  0.5439849915687376
  0.6977310557833837  0.2793582310894284  0.4682058819130875
  0.9065695346151272  0.5119885985263087  0.7552221898144603
  0.7223559743014824  0.2878808617770525  0.0681772784009705
  0.7911631667350324  0.7869896170670763  0.4517862243757231
  0.1891489697018133  0.2011955422502932  0.5472909020825624
 
  0.00000000E+00  0.00000000E+00  0.00000000E+00
  0.00000000E+00  0.00000000E+00  0.00000000E+00
  0.00000000E+00  0.00000000E+00  0.00000000E+00
  0.00000000E+00  0.00000000E+00  0.00000000E+00
  0.00000000E+00  0.00000000E+00  0.00000000E+00
  0.00000000E+00  0.00000000E+00  0.00000000E+00
  0.00000000E+00  0.00000000E+00  0.00000000E+00
  0.00000000E+00  0.00000000E+00  0.00000000E+00
  0.00000000E+00  0.00000000E+00  0.00000000E+00
  0.00000000E+00  0.00000000E+00  0.00000000E+00
  0.00000000E+00  0.00000000E+00  0.00000000E+00
  0.00000000E+00  0.00000000E+00  0.00000000E+00
  0.00000000E+00  0.00000000E+00  0.00000000E+00
  0.00000000E+00  0.00000000E+00  0.00000000E+00
  0.00000000E+00  0.00000000E+00  0.00000000E+00
  0.00000000E+00  0.00000000E+00  0.00000000E+00
  0.00000000E+00  0.00000000E+00  0.00000000E+00
  0.00000000E+00  0.00000000E+00  0.00000000E+00
  0.00000000E+00  0.00000000E+00  0.00000000E+00
  0.00000000E+00  0.00000000E+00  0.00000000E+00
