Ti8 O8 F16                              
   1.00000000000000     
     7.7417263620428702   -0.0000000270507368    0.0000001921684284
    -0.0000000205596571    7.4857942163462852   -0.0000000009602756
     0.0000002044308983    0.0000000018756025    7.8303288413027969
   Ti   O    F 
     8     8    16
Direct
  0.0142698111993340  0.0105713924965773  0.9999998896526066
  0.9996113167273033  0.9996821520701863  0.4999998615235263
  0.9856794896221627  0.4894178342646986  0.0000001291978213
  0.0004559936802825  0.5003236404508709  0.5000001688310675
  0.4856794833576047  0.0105821203130974  0.0000001482969925
  0.5004560824908870  0.9996763934895206  0.5000001101239208
  0.5142699122267164  0.4894286510166903  0.9999998801881865
  0.4996114231638005  0.5003178518725945  0.4999998237096171
  0.2499887167353390  0.9939781316132593 -0.0000000008026029
  0.7499886279683817  0.5060218514816163 -0.0000000185376277
  0.9999744427499107  0.2499765081056813 -0.0000000030749290
  0.9999798573734717  0.2499985947761241  0.5000000050431415
  0.9999783230179832  0.7499966006396916  0.5000000079583282
  0.4999744366927145  0.2500234652194099 -0.0000000124484066
  0.4999798133897412  0.2500014426074481  0.5000000061751771
  0.4999782808054231  0.7500033658055314  0.5000000101494955
  0.9967160259381848  0.9957532638889313  0.2492618048270372
  0.9967160283407918  0.9957532685695456  0.7507380335208340
  0.0032888518947720  0.5042369682024930  0.2492541627575824
  0.0032888468525017  0.5042369640795512  0.7507460113632570
  0.5032888256373308  0.9957630216730816  0.2492541486077831
  0.5032888289624681  0.9957630219761248  0.7507460027537060
  0.4967160000707778  0.5042467380181060  0.2492617471647363
  0.4967160078220676  0.5042467405452655  0.7507380886545381
  0.2500131180992632  0.0001682036185166  0.4999999932174776
  0.2500203483274007  0.5095909123716724  0.0000000114764656
  0.2500070822387215  0.4998539322796007  0.5000000012398419
  0.7500203336866349  0.9904090841036239  0.9999999796800091
  0.7500071353875031  0.0001460748446742  0.5000000028487164
  0.7500131772461721  0.4998317915171804  0.5000000086696902
  0.0000117053898022  0.7499980379687580  0.0000000040001146
  0.5000116729045515  0.7500019801198909 -0.0000000067681040
 
  0.00000000E+00  0.00000000E+00  0.00000000E+00
  0.00000000E+00  0.00000000E+00  0.00000000E+00
  0.00000000E+00  0.00000000E+00  0.00000000E+00
  0.00000000E+00  0.00000000E+00  0.00000000E+00
  0.00000000E+00  0.00000000E+00  0.00000000E+00
  0.00000000E+00  0.00000000E+00  0.00000000E+00
  0.00000000E+00  0.00000000E+00  0.00000000E+00
  0.00000000E+00  0.00000000E+00  0.00000000E+00
  0.00000000E+00  0.00000000E+00  0.00000000E+00
  0.00000000E+00  0.00000000E+00  0.00000000E+00
  0.00000000E+00  0.00000000E+00  0.00000000E+00
  0.00000000E+00  0.00000000E+00  0.00000000E+00
  0.00000000E+00  0.00000000E+00  0.00000000E+00
  0.00000000E+00  0.00000000E+00  0.00000000E+00
  0.00000000E+00  0.00000000E+00  0.00000000E+00
  0.00000000E+00  0.00000000E+00  0.00000000E+00
  0.00000000E+00  0.00000000E+00  0.00000000E+00
  0.00000000E+00  0.00000000E+00  0.00000000E+00
  0.00000000E+00  0.00000000E+00  0.00000000E+00
  0.00000000E+00  0.00000000E+00  0.00000000E+00
  0.00000000E+00  0.00000000E+00  0.00000000E+00
  0.00000000E+00  0.00000000E+00  0.00000000E+00
  0.00000000E+00  0.00000000E+00  0.00000000E+00
  0.00000000E+00  0.00000000E+00  0.00000000E+00
  0.00000000E+00  0.00000000E+00  0.00000000E+00
  0.00000000E+00  0.00000000E+00  0.00000000E+00
  0.00000000E+00  0.00000000E+00  0.00000000E+00
  0.00000000E+00  0.00000000E+00  0.00000000E+00
  0.00000000E+00  0.00000000E+00  0.00000000E+00
  0.00000000E+00  0.00000000E+00  0.00000000E+00
  0.00000000E+00  0.00000000E+00  0.00000000E+00
  0.00000000E+00  0.00000000E+00  0.00000000E+00
