Na4 Mn4 O8 F4                           
   1.00000000000000     
     5.1601084355572384    0.0976510495038982    0.0288566696232938
     0.1034479107295588    5.2564029271586667    0.0284316120162981
     0.0276461594467551    0.0234358034836756    7.6215992263652632
   Na   Mn   O    F 
     4     4     8     4
Direct
  0.9791510418879189  0.0383317152883637  0.2537294890057458
  0.0136183399295090  0.9612935662929992  0.7471861899288114
  0.4789168585841422  0.4538893629947708  0.7393037898357205
  0.5140717206451131  0.5455984713013470  0.2476034589948909
  0.4816478412821352  0.9845669057590538  0.0003402802421677
  0.0144092586853130  0.5142696038368126  0.0106533220305850
  0.5128083978180866  0.0147876304403210  0.5000956385152978
  0.9872977624541002  0.4872630466820054  0.4890878413512709
  0.0831545690868702  0.4881925650912993  0.2479722629165324
  0.9355195010534464  0.4990953759371347  0.7493611319335217
  0.2989457631981003  0.7058941569969945  0.9523645000441785
  0.2055517108691108  0.2081460712326685  0.9614233448372291
  0.7884581133009965  0.7925510605015802  0.0415392919481783
  0.7038322537187617  0.3051919624784964  0.4546005955247883
  0.8037302468025666  0.7984893667605931  0.4800792668008740
  0.2057900222388305  0.2105028720090016  0.5400449062893314
  0.5819337313578915  0.0214227279238345  0.7672303988277769
  0.4079821616101433  0.9725408431868416  0.2384482480488481
  0.7029889896449366  0.2883096307910068  0.0446925640291359
  0.3001917158320345  0.7096630644948750  0.5342434788951226
 
  0.00000000E+00  0.00000000E+00  0.00000000E+00
  0.00000000E+00  0.00000000E+00  0.00000000E+00
  0.00000000E+00  0.00000000E+00  0.00000000E+00
  0.00000000E+00  0.00000000E+00  0.00000000E+00
  0.00000000E+00  0.00000000E+00  0.00000000E+00
  0.00000000E+00  0.00000000E+00  0.00000000E+00
  0.00000000E+00  0.00000000E+00  0.00000000E+00
  0.00000000E+00  0.00000000E+00  0.00000000E+00
  0.00000000E+00  0.00000000E+00  0.00000000E+00
  0.00000000E+00  0.00000000E+00  0.00000000E+00
  0.00000000E+00  0.00000000E+00  0.00000000E+00
  0.00000000E+00  0.00000000E+00  0.00000000E+00
  0.00000000E+00  0.00000000E+00  0.00000000E+00
  0.00000000E+00  0.00000000E+00  0.00000000E+00
  0.00000000E+00  0.00000000E+00  0.00000000E+00
  0.00000000E+00  0.00000000E+00  0.00000000E+00
  0.00000000E+00  0.00000000E+00  0.00000000E+00
  0.00000000E+00  0.00000000E+00  0.00000000E+00
  0.00000000E+00  0.00000000E+00  0.00000000E+00
  0.00000000E+00  0.00000000E+00  0.00000000E+00
