Na4 Cr4 O8 F4                           
   1.00000000000000     
     5.2781558839608316    0.0452922524671809   -0.0343527231885155
     0.0382398971711644    5.3226733212961834    0.0014982647324932
    -0.0369871028603751    0.0058154967927646    7.3386769459785066
   Na   Cr   O    F 
     4     4     8     4
Direct
  0.9946781400533792  0.0344629509799416  0.2548390505068145
  0.0118585047723820  0.9710504498241257  0.7483956791037457
  0.4827474364615862  0.4517105369714859  0.7584258320907412
  0.4912460529747142  0.5280182153962916  0.2487120217456419
  0.5033544118450161  0.9774323945966245  0.0092595068585097
  0.9549183000801509  0.5045098884641500  0.0072479724626080
  0.5008199582311562  0.9977296900677597  0.4812655621727722
  0.0055519308239328  0.5008297696905886  0.5044356296565647
  0.0671054554475209  0.4874210766458555  0.2350624320663101
  0.9449227009981622  0.5062539368400919  0.7636169635117950
  0.4140531595362518  0.9630937550674387  0.2502727984028653
  0.7015233497300248  0.2929236380963318  0.0371512130386753
  0.3005258794380871  0.7396542903794584  0.9514535347513510
  0.7907618956371397  0.7951096123797914  0.0388347325593961
  0.7888462869250618  0.7963676092530378  0.4737232332408708
  0.2286207746353490  0.2072842797424893  0.5338255476306334
  0.5898362416604256  0.0315263343526075  0.7474259374896464
  0.2159438997059447  0.2163442098742179  0.9601883985433619
  0.3008945298765248  0.7066588091847753  0.5454768612954544
  0.7117910911671816  0.2916185521929509  0.4503870928722425
 
  0.00000000E+00  0.00000000E+00  0.00000000E+00
  0.00000000E+00  0.00000000E+00  0.00000000E+00
  0.00000000E+00  0.00000000E+00  0.00000000E+00
  0.00000000E+00  0.00000000E+00  0.00000000E+00
  0.00000000E+00  0.00000000E+00  0.00000000E+00
  0.00000000E+00  0.00000000E+00  0.00000000E+00
  0.00000000E+00  0.00000000E+00  0.00000000E+00
  0.00000000E+00  0.00000000E+00  0.00000000E+00
  0.00000000E+00  0.00000000E+00  0.00000000E+00
  0.00000000E+00  0.00000000E+00  0.00000000E+00
  0.00000000E+00  0.00000000E+00  0.00000000E+00
  0.00000000E+00  0.00000000E+00  0.00000000E+00
  0.00000000E+00  0.00000000E+00  0.00000000E+00
  0.00000000E+00  0.00000000E+00  0.00000000E+00
  0.00000000E+00  0.00000000E+00  0.00000000E+00
  0.00000000E+00  0.00000000E+00  0.00000000E+00
  0.00000000E+00  0.00000000E+00  0.00000000E+00
  0.00000000E+00  0.00000000E+00  0.00000000E+00
  0.00000000E+00  0.00000000E+00  0.00000000E+00
  0.00000000E+00  0.00000000E+00  0.00000000E+00
