Na4 Fe4 O8 F4                           
   1.00000000000000     
     5.3751410026138249   -0.0194204787836292    0.0000345878946654
    -2.7049980220244341    4.6837873370250884   -0.0000198754472242
     0.0000605307522446   -0.0000038758122738    9.1770032928522323
   Na   Fe   O    F 
     4     4     8     4
Direct
  0.0118713126974583  0.0058388842215038  0.9497987904890195
  0.0118611267404560  0.0058072740457931  0.5501928839271457
  0.3525915158978066  0.6761719063597127  0.2500005915675914
  0.6646945005672364  0.3316677958299366  0.7500004424185462
  0.3258316944110931  0.6629122362203432  0.6070500889805501
  0.6585738828625409  0.3292881460121961  0.4055168370061892
  0.6585626470340387  0.3292843771565828  0.0944867617183149
  0.3258176470459446  0.6629044192177176  0.8929501909647968
  0.4709191473331273  0.9751235032979437  0.0049038972996840
  0.9720425790093188  0.4858952389945799  0.9747621466451761
  0.4713851829282021  0.4965170374758614  0.0050531305738275
  0.4709190530881813  0.9751333554733392  0.4950978527563521
  0.9720504669628056  0.4859008303587871  0.5252359346383386
  0.4713914797643710  0.4965209968717232  0.4949465342556465
  0.2252729470107582  0.3866136060492309  0.7500005104183884
  0.2250053934484910  0.8383353261784379  0.7500017846244873
  0.8293524389488169  0.6415973618760304  0.2499988679903424
  0.3566630962896227  0.1785987909146058  0.2500053163617011
  0.6961216860039556  0.8483140527375710  0.7499990586602294
  0.8290722019557748  0.1875748607081178  0.2499983787036797
 
  0.00000000E+00  0.00000000E+00  0.00000000E+00
  0.00000000E+00  0.00000000E+00  0.00000000E+00
  0.00000000E+00  0.00000000E+00  0.00000000E+00
  0.00000000E+00  0.00000000E+00  0.00000000E+00
  0.00000000E+00  0.00000000E+00  0.00000000E+00
  0.00000000E+00  0.00000000E+00  0.00000000E+00
  0.00000000E+00  0.00000000E+00  0.00000000E+00
  0.00000000E+00  0.00000000E+00  0.00000000E+00
  0.00000000E+00  0.00000000E+00  0.00000000E+00
  0.00000000E+00  0.00000000E+00  0.00000000E+00
  0.00000000E+00  0.00000000E+00  0.00000000E+00
  0.00000000E+00  0.00000000E+00  0.00000000E+00
  0.00000000E+00  0.00000000E+00  0.00000000E+00
  0.00000000E+00  0.00000000E+00  0.00000000E+00
  0.00000000E+00  0.00000000E+00  0.00000000E+00
  0.00000000E+00  0.00000000E+00  0.00000000E+00
  0.00000000E+00  0.00000000E+00  0.00000000E+00
  0.00000000E+00  0.00000000E+00  0.00000000E+00
  0.00000000E+00  0.00000000E+00  0.00000000E+00
  0.00000000E+00  0.00000000E+00  0.00000000E+00
