Cr4 O4 F8                               
   1.00000000000000     
     4.9352895093797287    0.0536676256369569    0.0296583411059833
     0.0562290814040715    5.1574021304551083   -0.0083498467993396
    -0.1098551684529900   -0.0716227549781092    7.0436154259037336
   Cr   O    F 
     4     4     8
Direct
  0.5114181407705197 -0.0033875247616944  0.0072362975723302
  0.9817803962220496  0.5276264334135162 -0.0131671073897618
  0.4685314952102531  0.0129266847193350  0.4858586909690648
 -0.0021194358028650  0.4919871208017019  0.5106294484499898
  0.8776391456294469  0.5065845488873382  0.7534814141777986
  0.3947952732993784  0.9554132357210974  0.2549211290235978
  0.8175226048008855  0.8030025730852350  0.0591092787803628
  0.2224594549319670  0.2138021808069081  0.5592180236393760
  0.1113022257555823  0.4714982432609018  0.2482481876915179
  0.6211513464419135  0.0150373123528404  0.7472306018894893
  0.6869586481719603  0.3134957378982060  0.0591082259957256
  0.3103164586863383  0.6935815100372640  0.9353046094904403
  0.1924233948428266  0.1985657743760264  0.9492931503759015
  0.3035508101447983  0.7037751575038128  0.5607099138430118
  0.6959828300941439  0.2932486021640001  0.4313902865151565
  0.8062872108007952  0.8028424097335253  0.4514278489759919
 
  0.00000000E+00  0.00000000E+00  0.00000000E+00
  0.00000000E+00  0.00000000E+00  0.00000000E+00
  0.00000000E+00  0.00000000E+00  0.00000000E+00
  0.00000000E+00  0.00000000E+00  0.00000000E+00
  0.00000000E+00  0.00000000E+00  0.00000000E+00
  0.00000000E+00  0.00000000E+00  0.00000000E+00
  0.00000000E+00  0.00000000E+00  0.00000000E+00
  0.00000000E+00  0.00000000E+00  0.00000000E+00
  0.00000000E+00  0.00000000E+00  0.00000000E+00
  0.00000000E+00  0.00000000E+00  0.00000000E+00
  0.00000000E+00  0.00000000E+00  0.00000000E+00
  0.00000000E+00  0.00000000E+00  0.00000000E+00
  0.00000000E+00  0.00000000E+00  0.00000000E+00
  0.00000000E+00  0.00000000E+00  0.00000000E+00
  0.00000000E+00  0.00000000E+00  0.00000000E+00
  0.00000000E+00  0.00000000E+00  0.00000000E+00
