Ti4 O4 F8                               
   1.00000000000000     
     5.6060816605370327    0.0245024217189941    0.0000003103397905
    -2.7818206467715467    4.8672601397747073   -0.0000004932205682
     0.0000005324304676   -0.0000006733587719    9.5276449371647995
   Ti   O    F 
     4     4     8
Direct
  0.3415744949791067  0.6584075030623638  0.6069904631831397
  0.6584074189565156  0.3415745650497345  0.3930095431921860
  0.6584073633691384  0.3415745855268362  0.1069904400543995
  0.3415745369367629  0.6584073788114256  0.8930095115582455
  0.5000604852593595  0.5000603550066517  0.0000000250406720
  0.5000604845948070  0.5000603835983094  0.4999999733061182
  0.7888973528634110  0.2110642317091599  0.2499999959481187
  0.2110643225127685  0.7888973151239789  0.7500000299764827
  0.4999708749880501  0.0000044977430924  0.9999949649933499
  0.0000044533609742  0.4999708141240078  0.0000050374644647
  0.4999708780997929  0.0000045457429698  0.5000050466914181
  0.0000044520349992  0.4999708607608917  0.4999949741255649
  0.7914108098196474  0.6451208590953451  0.2499999989096998
  0.2086048416251401  0.3548662404187507  0.7499999921000519
  0.3548663374303382  0.2086049791680075  0.2499999806030457
  0.6451208931691812  0.7914108850584747  0.7500000228530639
 
  0.00000000E+00  0.00000000E+00  0.00000000E+00
  0.00000000E+00  0.00000000E+00  0.00000000E+00
  0.00000000E+00  0.00000000E+00  0.00000000E+00
  0.00000000E+00  0.00000000E+00  0.00000000E+00
  0.00000000E+00  0.00000000E+00  0.00000000E+00
  0.00000000E+00  0.00000000E+00  0.00000000E+00
  0.00000000E+00  0.00000000E+00  0.00000000E+00
  0.00000000E+00  0.00000000E+00  0.00000000E+00
  0.00000000E+00  0.00000000E+00  0.00000000E+00
  0.00000000E+00  0.00000000E+00  0.00000000E+00
  0.00000000E+00  0.00000000E+00  0.00000000E+00
  0.00000000E+00  0.00000000E+00  0.00000000E+00
  0.00000000E+00  0.00000000E+00  0.00000000E+00
  0.00000000E+00  0.00000000E+00  0.00000000E+00
  0.00000000E+00  0.00000000E+00  0.00000000E+00
  0.00000000E+00  0.00000000E+00  0.00000000E+00
