V4 O4 F8                                
   1.00000000000000     
     5.4796997734203119    0.0267463754939666    0.0714853678662007
    -2.7178158939020727    4.7376943453878537   -0.0154777526029292
     0.1143506052030418    0.0445501699236668    9.3091784104408042
   V    O    F 
     4     4     8
Direct
  0.3272197310965905  0.6927288356224193  0.5963967732954598
  0.6940167708111883  0.3384671116200367  0.4025542397915715
  0.7067760399808247  0.3502845792017439  0.1017598598311053
  0.3552153501643457  0.6733981202758881  0.8827659696590185
  0.9866379587900433  0.4942538615669292  0.9928136497996425
  0.4886895741045933  0.9888886870257194  0.4978362927727991
  0.9844096008304575  0.4906919268338103  0.5004581613689950
  0.6059915984708574  0.8127519148006351  0.7535991233019829
  0.4879846409497934  0.9881868751227798  0.0128182651953586
  0.4824100956738645  0.4851496608283488  0.0086193706070614
  0.4792783386011466  0.4824546320606069  0.5005425641305490
  0.8278373410733436  0.6354750772462278  0.2504278864185798
  0.1732754523355437  0.3697234598810716  0.7451116902825177
  0.4019732624954971  0.1981799952835920  0.2554947001726736
  0.8349377807583553  0.1890674573810277  0.2479192665104362
  0.1633464638635691  0.8102978052491704  0.7508821868622630
 
  0.00000000E+00  0.00000000E+00  0.00000000E+00
  0.00000000E+00  0.00000000E+00  0.00000000E+00
  0.00000000E+00  0.00000000E+00  0.00000000E+00
  0.00000000E+00  0.00000000E+00  0.00000000E+00
  0.00000000E+00  0.00000000E+00  0.00000000E+00
  0.00000000E+00  0.00000000E+00  0.00000000E+00
  0.00000000E+00  0.00000000E+00  0.00000000E+00
  0.00000000E+00  0.00000000E+00  0.00000000E+00
  0.00000000E+00  0.00000000E+00  0.00000000E+00
  0.00000000E+00  0.00000000E+00  0.00000000E+00
  0.00000000E+00  0.00000000E+00  0.00000000E+00
  0.00000000E+00  0.00000000E+00  0.00000000E+00
  0.00000000E+00  0.00000000E+00  0.00000000E+00
  0.00000000E+00  0.00000000E+00  0.00000000E+00
  0.00000000E+00  0.00000000E+00  0.00000000E+00
  0.00000000E+00  0.00000000E+00  0.00000000E+00
