Na4 Co4 O8 F4                           
    1.000000000000000     
     5.3304934285588601   -0.0956476933992889    0.0270761128580422
    -0.1278633370299639    5.4561838177023256    0.0543181281285738
    -0.0426966027234294    0.0808681319940149    7.4248836287229611
   Na   Co   O    F 
     4     4     8     4
Direct
  0.0061164212729770  0.0516106777783001  0.2468219592125926
  0.9988542825423818  0.9733109621014557  0.7595609710262192
  0.4820955291342363  0.4550734406180003  0.7599368433826789
  0.5093432114015426  0.5323862479519162  0.2423612273369274
  0.5036189296236143  0.0069346093858306  0.0053825572482343
  0.9888243250618693  0.5073442524507740  0.9829361720828680
  0.5262050971880450  0.9801740640686125  0.4834686342309125
  0.9850788704082133  0.5080369266808853  0.5058512650665534
  0.6942588031374137  0.2715911133145878  0.0316683441205148
  0.3166265283200021  0.7407751961054796  0.9633650798049529
  0.7187446887147794  0.2710349535424253  0.4792215431481495
  0.8196432698276573  0.7676021292057280  0.4594018673824165
  0.1474275176577383  0.2376886666102626  0.5352994505725891
  0.9236054812680174  0.5445169192749065  0.7578315875984201
  0.5429167442389160  0.0018034394231657  0.7451908861508767
  0.4311837698485942  0.9789818977881324  0.2560440710662009
  0.1956685545316117  0.2179727612123485  0.9575744826649560
  0.8087209750759230  0.7955367700263641  0.0588490336190701
  0.3190912057213464  0.6791386032598351  0.5342672735757699
  0.0819757950251282  0.4784863692009828  0.2349667507090685
 
  0.00000000E+00  0.00000000E+00  0.00000000E+00
  0.00000000E+00  0.00000000E+00  0.00000000E+00
  0.00000000E+00  0.00000000E+00  0.00000000E+00
  0.00000000E+00  0.00000000E+00  0.00000000E+00
  0.00000000E+00  0.00000000E+00  0.00000000E+00
  0.00000000E+00  0.00000000E+00  0.00000000E+00
  0.00000000E+00  0.00000000E+00  0.00000000E+00
  0.00000000E+00  0.00000000E+00  0.00000000E+00
  0.00000000E+00  0.00000000E+00  0.00000000E+00
  0.00000000E+00  0.00000000E+00  0.00000000E+00
  0.00000000E+00  0.00000000E+00  0.00000000E+00
  0.00000000E+00  0.00000000E+00  0.00000000E+00
  0.00000000E+00  0.00000000E+00  0.00000000E+00
  0.00000000E+00  0.00000000E+00  0.00000000E+00
  0.00000000E+00  0.00000000E+00  0.00000000E+00
  0.00000000E+00  0.00000000E+00  0.00000000E+00
  0.00000000E+00  0.00000000E+00  0.00000000E+00
  0.00000000E+00  0.00000000E+00  0.00000000E+00
  0.00000000E+00  0.00000000E+00  0.00000000E+00
  0.00000000E+00  0.00000000E+00  0.00000000E+00
