Disodium chromate(IV)                   
   1.00000000000000     
     5.7954865817917245    0.0000120879126030   -0.0000000385824852
     0.0000188028700307    9.0994316704505351    0.0000007937785369
    -0.0000000472091916    0.0000006189132036    7.0498828956293078
   Na   Cr   O 
     8     4    16
Direct
  0.2502012598104315  0.4360109125266476  0.2500000950438306
  0.7501994999398534  0.5639940080631050  0.7499998805225943
  0.2502003245521323  0.0640060901206567  0.7499998841264812
  0.7502027340223307  0.9359936401070286  0.2500000972632748
  0.7493102924582686  0.2500066946292918  0.0000079380703824
  0.2493179731478605  0.7499915520664473  0.9999686093606996
  0.7493104908521815  0.2500066676220953  0.4999921545770505
  0.2493184339805197  0.7499915628241212  0.5000314338730547
  0.2500750648672962  0.1040807821784995  0.2500000270780163
  0.7500774872319980  0.8959198948248712  0.7499999667224913
  0.2500772237325322  0.3959220783006216  0.7499999684018803
  0.7500773431964092  0.6040807893341835  0.2500000210556195
  0.0184130190408993  0.2105602058679921  0.2499999572862492
  0.9817305231956510  0.7893838450597883  0.7500000182152107
  0.0184102079563928  0.2894398638900100  0.7500000181345854
  0.9817510537400835  0.7106179180865126  0.2499999958110735
  0.4817408461260158  0.2893815038505139  0.7500000338295081
  0.5184039489556369  0.7105639723853443  0.2499999420971761
  0.4817354888944934  0.2106179194058413  0.2499999942979301
  0.5184189659108966  0.7894425973571444  0.7500000185251707
  0.2501273598618852  0.9994736105217328  0.0612150921280090
  0.7501261674235522  0.0005245840934762  0.9387811690500314
  0.2501292119238201  0.5005261661494274  0.9387842496385161
  0.7501311863769118  0.4994694088129492  0.0612073132691080
  0.2501292270165720  0.5005262792650740  0.5612159575044942
  0.7501311599734493  0.4994692826274658  0.4387924383088162
  0.2501273417882430  0.9994734951850077  0.4387846738975014
  0.7501261740236913  0.0005246978441420  0.5612190239112564
 
  0.00000000E+00  0.00000000E+00  0.00000000E+00
  0.00000000E+00  0.00000000E+00  0.00000000E+00
  0.00000000E+00  0.00000000E+00  0.00000000E+00
  0.00000000E+00  0.00000000E+00  0.00000000E+00
  0.00000000E+00  0.00000000E+00  0.00000000E+00
  0.00000000E+00  0.00000000E+00  0.00000000E+00
  0.00000000E+00  0.00000000E+00  0.00000000E+00
  0.00000000E+00  0.00000000E+00  0.00000000E+00
  0.00000000E+00  0.00000000E+00  0.00000000E+00
  0.00000000E+00  0.00000000E+00  0.00000000E+00
  0.00000000E+00  0.00000000E+00  0.00000000E+00
  0.00000000E+00  0.00000000E+00  0.00000000E+00
  0.00000000E+00  0.00000000E+00  0.00000000E+00
  0.00000000E+00  0.00000000E+00  0.00000000E+00
  0.00000000E+00  0.00000000E+00  0.00000000E+00
  0.00000000E+00  0.00000000E+00  0.00000000E+00
  0.00000000E+00  0.00000000E+00  0.00000000E+00
  0.00000000E+00  0.00000000E+00  0.00000000E+00
  0.00000000E+00  0.00000000E+00  0.00000000E+00
  0.00000000E+00  0.00000000E+00  0.00000000E+00
  0.00000000E+00  0.00000000E+00  0.00000000E+00
  0.00000000E+00  0.00000000E+00  0.00000000E+00
  0.00000000E+00  0.00000000E+00  0.00000000E+00
  0.00000000E+00  0.00000000E+00  0.00000000E+00
  0.00000000E+00  0.00000000E+00  0.00000000E+00
  0.00000000E+00  0.00000000E+00  0.00000000E+00
  0.00000000E+00  0.00000000E+00  0.00000000E+00
  0.00000000E+00  0.00000000E+00  0.00000000E+00
