Ti4 O4 F8                               
   1.00000000000000     
     5.2611588187385872   -0.0018508197434940   -0.0038970255772743
    -0.0003351400127731    5.4061181756468564    0.0075991318551510
    -0.0033104355907354    0.0101074493458307    7.4296600892727245
   Ti   O    F 
     4     4     8
Direct
  0.5031860946811569  0.0133840757809483  0.0164357828987440
  0.9773071284835968  0.4869860798862213  0.9900835114644718
  0.5140818853877782  0.9881958977191608  0.4843296841007842
  0.9887324152642072  0.5190787122474979  0.5095904780216386
  0.7123240028317092  0.2816483658907150  0.0418783231552713
  0.7929845405742224  0.7886951005448731  0.4585123864566226
  0.9214260075258063  0.5097874196900147  0.7493683295214988
  0.4109434475756599  0.9853740333399851  0.2510068948820240
  0.2844064766244256  0.7150808490569550  0.9623810434702592
  0.2089900027674894  0.2109852100176826  0.9530190033060988
  0.7894720447216057  0.7868831454367597  0.0448113632379209
  0.2971214658189431  0.7098902505296570  0.5477162800809299
  0.7164756073104938  0.2868691104513570  0.4535969063476836
  0.2226584400108465  0.2212202236828834  0.5376470138193656
  0.0888805656275786  0.4875202561891253  0.2492128267906527
  0.5710098747944947  0.0084012695361636  0.7504101724460340
 
  0.00000000E+00  0.00000000E+00  0.00000000E+00
  0.00000000E+00  0.00000000E+00  0.00000000E+00
  0.00000000E+00  0.00000000E+00  0.00000000E+00
  0.00000000E+00  0.00000000E+00  0.00000000E+00
  0.00000000E+00  0.00000000E+00  0.00000000E+00
  0.00000000E+00  0.00000000E+00  0.00000000E+00
  0.00000000E+00  0.00000000E+00  0.00000000E+00
  0.00000000E+00  0.00000000E+00  0.00000000E+00
  0.00000000E+00  0.00000000E+00  0.00000000E+00
  0.00000000E+00  0.00000000E+00  0.00000000E+00
  0.00000000E+00  0.00000000E+00  0.00000000E+00
  0.00000000E+00  0.00000000E+00  0.00000000E+00
  0.00000000E+00  0.00000000E+00  0.00000000E+00
  0.00000000E+00  0.00000000E+00  0.00000000E+00
  0.00000000E+00  0.00000000E+00  0.00000000E+00
  0.00000000E+00  0.00000000E+00  0.00000000E+00
