Fe4 O4 F8                               
   1.00000000000000     
     5.6512312365309514    0.2526353218217212   -0.0186388866739930
    -2.6137665125602902    4.5466786217832302   -0.0363614216085885
     0.0327287918884493    0.0147386552335580    9.9357399333556895
   Fe   O    F 
     4     4     8
Direct
  0.3099288139806858  0.6668598938359828  0.6139540027572510
  0.6900405021045000  0.3333240578302933  0.3860302702977877
  0.6908589737589805  0.3536505034919742  0.1130481570104111
  0.3090718315151628  0.6462767415241750  0.8869767784395916
  0.5001551598561272  0.0001037978403723 -0.0000332797331179
  0.4999129656793606  0.4997667241842461 -0.0000897630318328
  0.4999865690831575  0.0000079702538730  0.4999771427596745
  0.5000722327000748  0.4999522011143110  0.4999455788963871
  0.0000086013355448  0.4999339977475790  0.0000418230780492
 -0.0000531442317324  0.5000552627528679  0.5000209998075538
  0.8184748145425856  0.6499821426532538  0.2516398338277191
  0.1817526913096956  0.3500835981427801  0.7483896227287350
  0.4056540852256404  0.1877089006529065  0.2479896416724778
  0.5942748725667624  0.8125093999621502  0.7520204774126077
  0.8451991097634785  0.1919629203404752  0.2489181938197256
  0.1546619208099901  0.8078218876727511  0.7511705202569799
 
  0.00000000E+00  0.00000000E+00  0.00000000E+00
  0.00000000E+00  0.00000000E+00  0.00000000E+00
  0.00000000E+00  0.00000000E+00  0.00000000E+00
  0.00000000E+00  0.00000000E+00  0.00000000E+00
  0.00000000E+00  0.00000000E+00  0.00000000E+00
  0.00000000E+00  0.00000000E+00  0.00000000E+00
  0.00000000E+00  0.00000000E+00  0.00000000E+00
  0.00000000E+00  0.00000000E+00  0.00000000E+00
  0.00000000E+00  0.00000000E+00  0.00000000E+00
  0.00000000E+00  0.00000000E+00  0.00000000E+00
  0.00000000E+00  0.00000000E+00  0.00000000E+00
  0.00000000E+00  0.00000000E+00  0.00000000E+00
  0.00000000E+00  0.00000000E+00  0.00000000E+00
  0.00000000E+00  0.00000000E+00  0.00000000E+00
  0.00000000E+00  0.00000000E+00  0.00000000E+00
  0.00000000E+00  0.00000000E+00  0.00000000E+00
