Na4 Fe4 O8 F4                           
   1.00000000000000     
     5.2136800188570298    0.1506587608187685   -0.0248521138322725
     0.1518933382565686    5.2769790393969433   -0.0221858817664640
    -0.0360603138585179   -0.0398252412332072    7.6227342747546096
   Na   Fe   O    F 
     4     4     8     4
Direct
  0.9858978613967182  0.0374136925160097  0.2470293733324481
  0.0103682673844981  0.9724946921881169  0.7446639414314105
  0.4877965516069233  0.4535829651473441  0.7486598980366856
  0.5064692197988480  0.5341323778391941  0.2490388462773481
  0.4839552104801315  0.9839263092625933  0.0100908697427307
  0.0097450859139030  0.5109170257723616  0.9857784926855838
  0.5058916006253806  0.0141071096424836  0.4853708737706957
  0.9803751541315109  0.4907463339219462  0.5110723384207818
  0.9286621083699779  0.5197981682578989  0.7507473662666729
  0.4296581533165909  0.9937702506418579  0.2508458918945913
  0.2915400406399821  0.7098806604851010  0.9676999833866277
  0.2114045780557782  0.2127316012166098  0.9615834377585210
  0.7860113429194272  0.7847862350396906  0.0380781374127989
  0.7111142182483438  0.2900516052315851  0.4671126005022339
  0.7928952862717558  0.7866525151610583  0.4639220342750802
  0.2170832009622694  0.2145974385442844  0.5381301128558950
  0.0768695367600517  0.4787241060723587  0.2508927048157747
  0.5788456188015826  0.0131943155252553  0.7511951326396529
  0.7088446301494803  0.2888749125462026  0.0391048758481797
  0.2965723341668608  0.7096176849880336  0.5389830886462949
 
  0.00000000E+00  0.00000000E+00  0.00000000E+00
  0.00000000E+00  0.00000000E+00  0.00000000E+00
  0.00000000E+00  0.00000000E+00  0.00000000E+00
  0.00000000E+00  0.00000000E+00  0.00000000E+00
  0.00000000E+00  0.00000000E+00  0.00000000E+00
  0.00000000E+00  0.00000000E+00  0.00000000E+00
  0.00000000E+00  0.00000000E+00  0.00000000E+00
  0.00000000E+00  0.00000000E+00  0.00000000E+00
  0.00000000E+00  0.00000000E+00  0.00000000E+00
  0.00000000E+00  0.00000000E+00  0.00000000E+00
  0.00000000E+00  0.00000000E+00  0.00000000E+00
  0.00000000E+00  0.00000000E+00  0.00000000E+00
  0.00000000E+00  0.00000000E+00  0.00000000E+00
  0.00000000E+00  0.00000000E+00  0.00000000E+00
  0.00000000E+00  0.00000000E+00  0.00000000E+00
  0.00000000E+00  0.00000000E+00  0.00000000E+00
  0.00000000E+00  0.00000000E+00  0.00000000E+00
  0.00000000E+00  0.00000000E+00  0.00000000E+00
  0.00000000E+00  0.00000000E+00  0.00000000E+00
  0.00000000E+00  0.00000000E+00  0.00000000E+00
