Ti2 O2 F4                               
   1.00000000000000     
    -2.6036666339226873   -4.5094691282836505   -0.0003182140864564
    -5.2607144925689511    0.0307561261351345   -0.0536904759236772
    -2.6670400417618332   -1.4665396199356271   -4.4610901096826971
   Ti   O    F 
     2     2     4
Direct
  0.9702774984893807  0.0088977939811556  0.9993591496955503
  0.5214652719815973  0.5088988434484349  0.4993685693652949
  0.6695149146195689  0.8297825668231411  0.2467485725396088
  0.7539645037660918  0.3297802749225269  0.7467456481761729
  0.2519087646514251  0.6676713995083716  0.2499078182443384
  0.3305186538903158  0.1676628180316371  0.7499114570690466
  0.1648159914970364  0.7436453786143602  0.7539907286612646
  0.8375344011045911  0.2436609246703796  0.2539680562487234
 
  0.00000000E+00  0.00000000E+00  0.00000000E+00
  0.00000000E+00  0.00000000E+00  0.00000000E+00
  0.00000000E+00  0.00000000E+00  0.00000000E+00
  0.00000000E+00  0.00000000E+00  0.00000000E+00
  0.00000000E+00  0.00000000E+00  0.00000000E+00
  0.00000000E+00  0.00000000E+00  0.00000000E+00
  0.00000000E+00  0.00000000E+00  0.00000000E+00
  0.00000000E+00  0.00000000E+00  0.00000000E+00
