Na4 Cr4 O8 F4                           
   1.00000000000000     
     5.1718369181741526    0.0000008922475395   -0.0871861939524804
    -0.0000087205903442    5.2030724437733662   -0.0000029839911236
    -0.0953094938812367   -0.0000480151007622    7.7306448609576526
   Na   Cr   O    F 
     4     4     8     4
Direct
  0.9865840214125200  0.0372573883078858  0.2558578721195646
  0.0216864295319270  0.9609631434038630  0.7416605377555102
  0.4865498071468827  0.4627568710300944  0.7558945861011669
  0.5217117934467494  0.5388775940840936  0.2416559955018727
  0.5318141461609780  0.9828915936207351  0.9740109282371149
  0.9928885589670254  0.5116581667280193  0.0074204437042102
  0.4929218444959313  0.9883489369714640  0.5074227594406623
  0.0317594934046133  0.5171306510181409  0.4740255245480469
  0.6891913264473116  0.2749066236917876  0.0349952532387492
  0.2894593978231749  0.7421456159968249  0.9700695728911307
  0.7813418332537871  0.7881995303670811  0.0529866090797473
  0.2813797169013521  0.7118011343881510  0.5529671435060958
  0.7894924377625051  0.7578961551158926  0.4700852708083180
  0.1892607039082826  0.2251257135205249  0.5349772358113239
  0.0873348699491062  0.4906462983912037  0.2528025130756604
  0.5874414508280027  0.0093512975316158  0.7528142393500810
  0.2058127333992356  0.2182058903247605  0.9484245132256481
  0.7058463334074437  0.2818210233655965  0.4484362017698230
  0.9137573343195359  0.5208894823134035  0.7617389294813272
  0.4137657674336279  0.9791268898288479  0.2617538703539610
 
  0.00000000E+00  0.00000000E+00  0.00000000E+00
  0.00000000E+00  0.00000000E+00  0.00000000E+00
  0.00000000E+00  0.00000000E+00  0.00000000E+00
  0.00000000E+00  0.00000000E+00  0.00000000E+00
  0.00000000E+00  0.00000000E+00  0.00000000E+00
  0.00000000E+00  0.00000000E+00  0.00000000E+00
  0.00000000E+00  0.00000000E+00  0.00000000E+00
  0.00000000E+00  0.00000000E+00  0.00000000E+00
  0.00000000E+00  0.00000000E+00  0.00000000E+00
  0.00000000E+00  0.00000000E+00  0.00000000E+00
  0.00000000E+00  0.00000000E+00  0.00000000E+00
  0.00000000E+00  0.00000000E+00  0.00000000E+00
  0.00000000E+00  0.00000000E+00  0.00000000E+00
  0.00000000E+00  0.00000000E+00  0.00000000E+00
  0.00000000E+00  0.00000000E+00  0.00000000E+00
  0.00000000E+00  0.00000000E+00  0.00000000E+00
  0.00000000E+00  0.00000000E+00  0.00000000E+00
  0.00000000E+00  0.00000000E+00  0.00000000E+00
  0.00000000E+00  0.00000000E+00  0.00000000E+00
  0.00000000E+00  0.00000000E+00  0.00000000E+00
