Mn4 O4 F8                               
   1.00000000000000     
     4.9374211750552313    0.0367424569600402   -0.0159763395862733
     0.0311924663354035    5.2290934237480986   -0.0720974224762225
    -0.0448390821796331   -0.0925857656066877    6.9310714238385325
   Mn   O    F 
     4     4     8
Direct
  0.5056823129141726  0.9988377802474216  0.9884204609933289
  0.9981703823566780  0.4983399731654146  0.9965320037429765
  0.5147485047788607  0.9866058798874743  0.5126910025238935
  0.9813173827438130  0.5116493237227604  0.5075486902125940
  0.7873789340197536  0.7835461598104709  0.4322319393394962
  0.1129156343845626  0.4803489235799011  0.2490495877577107
  0.8713633606579094  0.5256535060144054  0.7516555974324853
  0.6394302216155467  0.0287605728300100  0.7527897550057328
  0.6635501032063461  0.3012813794844252  0.0627649742631576
  0.3368543650510755  0.6955174885827624  0.9378873660652052
  0.1900103899991149  0.1697238187137004  0.9334627699013199
  0.8139397325233187  0.8297335780201551  0.0637897778159096
  0.2918336372712786  0.7147054888148079  0.5669658909257312
  0.7047847442578535  0.2827127683584926  0.4400814371521345
  0.2104274393547281  0.2159597588114376  0.5559694949747284
  0.3775928548650023  0.9766235999563606  0.2481592518935885
 
  0.00000000E+00  0.00000000E+00  0.00000000E+00
  0.00000000E+00  0.00000000E+00  0.00000000E+00
  0.00000000E+00  0.00000000E+00  0.00000000E+00
  0.00000000E+00  0.00000000E+00  0.00000000E+00
  0.00000000E+00  0.00000000E+00  0.00000000E+00
  0.00000000E+00  0.00000000E+00  0.00000000E+00
  0.00000000E+00  0.00000000E+00  0.00000000E+00
  0.00000000E+00  0.00000000E+00  0.00000000E+00
  0.00000000E+00  0.00000000E+00  0.00000000E+00
  0.00000000E+00  0.00000000E+00  0.00000000E+00
  0.00000000E+00  0.00000000E+00  0.00000000E+00
  0.00000000E+00  0.00000000E+00  0.00000000E+00
  0.00000000E+00  0.00000000E+00  0.00000000E+00
  0.00000000E+00  0.00000000E+00  0.00000000E+00
  0.00000000E+00  0.00000000E+00  0.00000000E+00
  0.00000000E+00  0.00000000E+00  0.00000000E+00
