Vanadium(III) fluoride                  
   1.00000000000000     
     5.3452830078577795    0.0308579635387592    0.0176737286986480
     2.8938069967759694    4.4929005489397076    0.0187435876597642
     2.8965765549175866    1.5904042938663985    4.1774480570137520
   V    F 
     2     6
Direct
 -0.0000209711603037  0.0000444211590675  0.0000568121292270
  0.4999831376245000  0.5000216844306983  0.5000136373464349
  0.8734073918798688  0.6267068858410225  0.2498063701241673
  0.1266134119734746  0.3732460549564008  0.7501518236967826
  0.2485607321296023  0.8737859455746539  0.6274331820907472
  0.7514527566743753  0.1261924606182603  0.3725908037087723
  0.6259705758220873  0.2515581205883562  0.8726628204328206
  0.3740329800564001  0.7484444418315450  0.1272845654710598
 
  0.00000000E+00  0.00000000E+00  0.00000000E+00
  0.00000000E+00  0.00000000E+00  0.00000000E+00
  0.00000000E+00  0.00000000E+00  0.00000000E+00
  0.00000000E+00  0.00000000E+00  0.00000000E+00
  0.00000000E+00  0.00000000E+00  0.00000000E+00
  0.00000000E+00  0.00000000E+00  0.00000000E+00
  0.00000000E+00  0.00000000E+00  0.00000000E+00
  0.00000000E+00  0.00000000E+00  0.00000000E+00
