Na2 Co2 O4 F2                           
   1.00000000000000     
    -2.5997097260906825   -4.5320653746546702    0.0561069412803909
    -5.4198511340643991    0.1288866080214955   -0.2731790325630050
    -2.9144512292586411   -1.2845930355307167   -4.4083015573523108
   Na   Co   O    F 
     2     2     4     2
Direct
  0.2706808771185711  0.2526459652457849  0.2350034695192192
  0.7401162609608757  0.7538461321068802  0.7380766812462306
  0.0046522758827432  0.0047179830274884  0.9865871466974733
  0.5036878889049059  0.5046392775155433  0.4870739456613004
  0.3015553420673403  0.7129677115157588  0.1866574666380947
  0.7052640417323037  0.7772727565241725  0.2880189676892900
  0.3036709721350687  0.2316535090157905  0.6843710345063760
  0.7070346927817618  0.2965136666133426  0.7861160138345960
  0.1598330268171804  0.7695769628101385  0.7326239639437667
  0.8495046215992625  0.2421660356251066  0.2374713102636410
 
  0.00000000E+00  0.00000000E+00  0.00000000E+00
  0.00000000E+00  0.00000000E+00  0.00000000E+00
  0.00000000E+00  0.00000000E+00  0.00000000E+00
  0.00000000E+00  0.00000000E+00  0.00000000E+00
  0.00000000E+00  0.00000000E+00  0.00000000E+00
  0.00000000E+00  0.00000000E+00  0.00000000E+00
  0.00000000E+00  0.00000000E+00  0.00000000E+00
  0.00000000E+00  0.00000000E+00  0.00000000E+00
  0.00000000E+00  0.00000000E+00  0.00000000E+00
  0.00000000E+00  0.00000000E+00  0.00000000E+00
