Na2 Fe2 O4 F2                           
   1.00000000000000     
     3.8169730965685624    0.0000000003715599    0.0000030987261205
    -0.0000000077470311    3.6832367786529532   -0.0000000029652894
     0.0001020253511476    0.0000000015787532    7.7887544511576658
   Na   Fe   O    F 
     2     2     4     2
Direct
  0.9999998336954835  0.9999999991336151  0.0083604549863735
  0.9999222335261496  0.0000000004428552  0.4860202919091078
  0.4999905309491658  0.4999999996829031  0.2629866120205309
  0.4999890606230469  0.5000000015626549  0.7381413014726573
  0.5000071069009299  0.5000000007875044  0.5073526783492653
  0.5000287129433464 -0.0000000011613765  0.2511726352794974
  0.5000350126826483  0.0000000003140572  0.7512541084454033
  0.0000123978810259  0.4999999978121664  0.2515992450280766
  0.5000141222067427  0.4999999989573911  0.9995851336925596
  0.0000009885914751  0.5000000024682220  0.7865275388165130
 
  0.00000000E+00  0.00000000E+00  0.00000000E+00
  0.00000000E+00  0.00000000E+00  0.00000000E+00
  0.00000000E+00  0.00000000E+00  0.00000000E+00
  0.00000000E+00  0.00000000E+00  0.00000000E+00
  0.00000000E+00  0.00000000E+00  0.00000000E+00
  0.00000000E+00  0.00000000E+00  0.00000000E+00
  0.00000000E+00  0.00000000E+00  0.00000000E+00
  0.00000000E+00  0.00000000E+00  0.00000000E+00
  0.00000000E+00  0.00000000E+00  0.00000000E+00
  0.00000000E+00  0.00000000E+00  0.00000000E+00
