Na4 Cr4 O8 F4                           
   1.00000000000000     
     5.2855837891129411    0.1762511708798714    0.0000162301863016
     0.1801832234080996    5.3320890247155663    0.0000209285688895
    -0.0000237862169581   -0.0000109737647361    7.2460533169861101
   Na   Cr   O    F 
     4     4     8     4
Direct
  0.9987624006572030  0.0265777169775884  0.2500045818223237
  0.0013371265329442  0.9736351403201650  0.7500001371320152
  0.4969061478938310  0.4548684001745308  0.7500054251749066
  0.5029657299475423  0.5449671288396772  0.2499926203571448
  0.4998467263258522  0.0001045863797868  0.0000480099330660
  0.9997657115912505  0.5002516225766260  0.0000295809554564
  0.4998444342718989  0.0000966711643598  0.4999471460494830
  0.9997671788453039  0.5002500663461885  0.4999710275524521
  0.2090182952877150  0.2096905058097922  0.9657572871248268
  0.7912032950514378  0.7902299853776892  0.0342989562318550
  0.7912043714821034  0.7902159211028528  0.4657019126970873
  0.2090120184224102  0.2096954926438652  0.5342414349704862
  0.0730213863975389  0.4920203152681033  0.2500082715956688
  0.9270701229665627  0.5077881285330228  0.7499943250272370
  0.5707516295414045  0.0179232880939256  0.7500005592529010
  0.4296010011101919  0.9817826855036808  0.2499996252705153
  0.7046856926212419  0.2942241444656044  0.0420953635666854
  0.2952784551649402  0.7057285809988587  0.9579207749960599
  0.2952760821027978  0.7057255573560332  0.5420772234388862
  0.7046821937858295  0.2942240620676422  0.4579057368509507
 
  0.00000000E+00  0.00000000E+00  0.00000000E+00
  0.00000000E+00  0.00000000E+00  0.00000000E+00
  0.00000000E+00  0.00000000E+00  0.00000000E+00
  0.00000000E+00  0.00000000E+00  0.00000000E+00
  0.00000000E+00  0.00000000E+00  0.00000000E+00
  0.00000000E+00  0.00000000E+00  0.00000000E+00
  0.00000000E+00  0.00000000E+00  0.00000000E+00
  0.00000000E+00  0.00000000E+00  0.00000000E+00
  0.00000000E+00  0.00000000E+00  0.00000000E+00
  0.00000000E+00  0.00000000E+00  0.00000000E+00
  0.00000000E+00  0.00000000E+00  0.00000000E+00
  0.00000000E+00  0.00000000E+00  0.00000000E+00
  0.00000000E+00  0.00000000E+00  0.00000000E+00
  0.00000000E+00  0.00000000E+00  0.00000000E+00
  0.00000000E+00  0.00000000E+00  0.00000000E+00
  0.00000000E+00  0.00000000E+00  0.00000000E+00
  0.00000000E+00  0.00000000E+00  0.00000000E+00
  0.00000000E+00  0.00000000E+00  0.00000000E+00
  0.00000000E+00  0.00000000E+00  0.00000000E+00
  0.00000000E+00  0.00000000E+00  0.00000000E+00
