Ni2 O2 F4                               
   1.00000000000000     
     3.6204460770760623    0.0001720853070808   -0.0002941271575356
    -0.0001585726170011    3.8020204724675919   -0.0000424041064928
     0.0003579173042377    0.0005596822610499    7.6019333968204412
   Ni   O    F 
     2     2     4
Direct
  0.4999590897853185  0.4999665876926153  0.2574673539869419
  0.4999629999369110  0.5000280572382660  0.7574237457711748
  0.0001078139347994  0.4999813412439393  0.2557335893179206
  0.0000951632704312  0.5000024839315740  0.7557160722786432
  0.4999387363986578  0.5000821805111885  0.0063652181985547
  0.4997863876514100  0.4999421649168858  0.5064326790929224
  0.5000913630255547  0.0000103915369805  0.2519003378865871
  0.5000584459969175 -0.0000132070714568  0.7519610034672400
 
  0.00000000E+00  0.00000000E+00  0.00000000E+00
  0.00000000E+00  0.00000000E+00  0.00000000E+00
  0.00000000E+00  0.00000000E+00  0.00000000E+00
  0.00000000E+00  0.00000000E+00  0.00000000E+00
  0.00000000E+00  0.00000000E+00  0.00000000E+00
  0.00000000E+00  0.00000000E+00  0.00000000E+00
  0.00000000E+00  0.00000000E+00  0.00000000E+00
  0.00000000E+00  0.00000000E+00  0.00000000E+00
