Na4 Ti4 O8 F4                           
   1.00000000000000     
     5.3034312301530999    0.0497832599004257    0.0046999465834716
     0.0498080193575812    5.3997530755635346   -0.0020325234155131
     0.0091500522677438   -0.0045724954474562    7.8238997959830998
   Na   Ti   O    F 
     4     4     8     4
Direct
  0.9784765988679235  0.0215409640817640  0.2659848077279581
  0.0179908912168806  0.9699151154767679  0.7340258379200606
  0.4842987679519350  0.4683629233222558  0.7299261302021899
  0.5197938177483425  0.5310043537898929  0.2676267576282509
  0.4857316264939706  0.9812962165288851  0.9948654250809170
  0.0204012420249608  0.5094767764577962  0.0141037978997159
  0.5002667302228525  0.0016614831312260  0.5001458366098156
  0.0071703740504141  0.4985749473106961  0.4869410320598969
  0.2891693773337754  0.7155608007498213  0.9482426354863335
  0.2182737685876457  0.2152748352571137  0.9592606378306531
  0.7805534199087214  0.7886850802841368  0.0390019110995995
  0.2751097216083054  0.7288743077346511  0.5388371039949663
  0.7225133130116123  0.2717237423986017  0.4614386869348083
  0.7715186046144148  0.7742804698123716  0.4654239443659863
  0.2257353966982970  0.2250242395646090  0.5450204971489381
  0.0824255838132695  0.4880728332062438  0.2454436783377985
  0.7072212964413311  0.2878180010746859  0.0470002274416816
  0.9096269089784920  0.5115845493989181  0.7567461757704601
  0.5954516935543669  0.0269453999318356  0.7541871846740105
  0.4082708668724823  0.9843229604877339  0.2457776917859523
 
  0.00000000E+00  0.00000000E+00  0.00000000E+00
  0.00000000E+00  0.00000000E+00  0.00000000E+00
  0.00000000E+00  0.00000000E+00  0.00000000E+00
  0.00000000E+00  0.00000000E+00  0.00000000E+00
  0.00000000E+00  0.00000000E+00  0.00000000E+00
  0.00000000E+00  0.00000000E+00  0.00000000E+00
  0.00000000E+00  0.00000000E+00  0.00000000E+00
  0.00000000E+00  0.00000000E+00  0.00000000E+00
  0.00000000E+00  0.00000000E+00  0.00000000E+00
  0.00000000E+00  0.00000000E+00  0.00000000E+00
  0.00000000E+00  0.00000000E+00  0.00000000E+00
  0.00000000E+00  0.00000000E+00  0.00000000E+00
  0.00000000E+00  0.00000000E+00  0.00000000E+00
  0.00000000E+00  0.00000000E+00  0.00000000E+00
  0.00000000E+00  0.00000000E+00  0.00000000E+00
  0.00000000E+00  0.00000000E+00  0.00000000E+00
  0.00000000E+00  0.00000000E+00  0.00000000E+00
  0.00000000E+00  0.00000000E+00  0.00000000E+00
  0.00000000E+00  0.00000000E+00  0.00000000E+00
  0.00000000E+00  0.00000000E+00  0.00000000E+00
