Co4 O4 F8                               
   1.00000000000000     
     5.5166113969762289    0.0210113369089158    0.0347172804290855
    -2.7425411047577501    4.7481301044468358   -0.0025181838421903
     0.0409786765293332    0.0373031405622332    9.5017793284590084
   Co   O    F 
     4     4     8
Direct
  0.3521842730205993  0.6757306114724898  0.6111899990422448
  0.6889788232989928  0.3445393336723707  0.3957434400235170
  0.6565687047983054  0.3281580421026796  0.1108844470902180
  0.3227971531165773  0.6621281950129314  0.8952778349600170
  0.0016316384933466  0.5017538195030852  0.0039187170649463
 -0.0098594123735879  0.4962496310714697  0.5038459648362605
  0.3706813658570602  0.1833558530331083  0.2509874074005416
  0.6325551871034059  0.8134889308378168  0.7505454812084428
  0.5030770094883149  0.0027150067304403  0.9965453617992041
  0.5017161123372307  0.5009234808247711  0.9976909822015569
  0.4920445924889187 -0.0083513742969411  0.4914688362028466
  0.4898916976949608  0.5007083659086166  0.4907829726804083
  0.8105894737626295  0.6306146030402893  0.2505120739959305
  0.1872660575262953  0.3723804673405208  0.7505251499161594
  0.8118075374378245  0.1804010669227022  0.2504215143424783
  0.1880697859491258  0.8152039668236423  0.7496598172352276
 
  0.00000000E+00  0.00000000E+00  0.00000000E+00
  0.00000000E+00  0.00000000E+00  0.00000000E+00
  0.00000000E+00  0.00000000E+00  0.00000000E+00
  0.00000000E+00  0.00000000E+00  0.00000000E+00
  0.00000000E+00  0.00000000E+00  0.00000000E+00
  0.00000000E+00  0.00000000E+00  0.00000000E+00
  0.00000000E+00  0.00000000E+00  0.00000000E+00
  0.00000000E+00  0.00000000E+00  0.00000000E+00
  0.00000000E+00  0.00000000E+00  0.00000000E+00
  0.00000000E+00  0.00000000E+00  0.00000000E+00
  0.00000000E+00  0.00000000E+00  0.00000000E+00
  0.00000000E+00  0.00000000E+00  0.00000000E+00
  0.00000000E+00  0.00000000E+00  0.00000000E+00
  0.00000000E+00  0.00000000E+00  0.00000000E+00
  0.00000000E+00  0.00000000E+00  0.00000000E+00
  0.00000000E+00  0.00000000E+00  0.00000000E+00
