Co4 O4 F8                               
   1.00000000000000     
     5.5447969590680044    0.0703794533494878    0.0000891508162926
    -2.7100939068372925    4.7154550111429643    0.0004222270740876
     0.0004738556007942    0.0005836782024584    9.4520336277037238
   Co   O    F 
     4     4     8
Direct
  0.3215880175696088  0.6607019911697743  0.6055518710287355
  0.6771895680159108  0.3368128081619102  0.3949968812048502
  0.6771321718562204  0.3367801142943606  0.1049856470219281
  0.3216204301567970  0.6607349402888202  0.8944546634777611
 -0.0002861118146641  0.5074499172587192  0.9997272721241276
 -0.0002966771724980  0.5074963578237260  0.5002904834727796
  0.1925356958616547  0.3635736710892504  0.7500327485191476
  0.8102837447539241  0.1714119640631871  0.2499980165710043
  0.5062245534922232  0.0188531434401083  0.9881775797025040
  0.4941680787355730  0.5133567389419178  0.0111984080921673
  0.5062248815025865  0.0188636654495006  0.5118272471362003
  0.4942021601620579  0.5133689030443525  0.4887815569391292
  0.8221316505905437  0.6261761523255621  0.2499597480990545
  0.3854845366883112  0.1704062282066887  0.2500371500453298
  0.6145760584765515  0.7866844070404505  0.7499786675424943
  0.1772212411252002  0.8073289974016785  0.7500020590227722
 
  0.00000000E+00  0.00000000E+00  0.00000000E+00
  0.00000000E+00  0.00000000E+00  0.00000000E+00
  0.00000000E+00  0.00000000E+00  0.00000000E+00
  0.00000000E+00  0.00000000E+00  0.00000000E+00
  0.00000000E+00  0.00000000E+00  0.00000000E+00
  0.00000000E+00  0.00000000E+00  0.00000000E+00
  0.00000000E+00  0.00000000E+00  0.00000000E+00
  0.00000000E+00  0.00000000E+00  0.00000000E+00
  0.00000000E+00  0.00000000E+00  0.00000000E+00
  0.00000000E+00  0.00000000E+00  0.00000000E+00
  0.00000000E+00  0.00000000E+00  0.00000000E+00
  0.00000000E+00  0.00000000E+00  0.00000000E+00
  0.00000000E+00  0.00000000E+00  0.00000000E+00
  0.00000000E+00  0.00000000E+00  0.00000000E+00
  0.00000000E+00  0.00000000E+00  0.00000000E+00
  0.00000000E+00  0.00000000E+00  0.00000000E+00
