Ni4 O4 F8                               
   1.00000000000000     
     4.8756926672833449    0.0392791427314782    0.0128920526450734
     0.0495215653469342    5.0265969285108723   -0.0254821161770750
     0.0977954281021361    0.0033004458820007    7.0395407088068565
   Ni   O    F 
     4     4     8
Direct
  0.5044270988313915 -0.0053205637189864  0.0026830033782593
 -0.0033047453921536  0.5020487649012408 -0.0015063048345249
  0.4916414144723544  0.0108155926206598  0.5054716744220813
  0.0007786115433450  0.4961411861535763  0.4999066058519409
  0.1441373260179628  0.4685620971598979  0.2552056131744903
  0.8543533317949393  0.5344636258873177  0.7439170054078952
  0.8488033214873842  0.8101849056854057  0.0666071916262476
  0.1554529211517864  0.1850563633000146  0.5674093122867521
  0.6479740661078862  0.0278003895004315  0.7577363956869226
  0.3584914115163511  0.9726913571714267  0.2457308130877748
  0.6701279585845146  0.3145687459491761  0.0643787318730033
  0.3296346661763147  0.6858686992769718  0.9326245706243856
  0.1687887399182961  0.1928208803789880  0.9303854365358274
  0.3023589237695603  0.6704070130766407  0.5656623099736778
  0.6980890071097511  0.3258273838803841  0.4320459175616191
  0.8282459469103098  0.8080635587768540  0.4317417233436546
 
  0.00000000E+00  0.00000000E+00  0.00000000E+00
  0.00000000E+00  0.00000000E+00  0.00000000E+00
  0.00000000E+00  0.00000000E+00  0.00000000E+00
  0.00000000E+00  0.00000000E+00  0.00000000E+00
  0.00000000E+00  0.00000000E+00  0.00000000E+00
  0.00000000E+00  0.00000000E+00  0.00000000E+00
  0.00000000E+00  0.00000000E+00  0.00000000E+00
  0.00000000E+00  0.00000000E+00  0.00000000E+00
  0.00000000E+00  0.00000000E+00  0.00000000E+00
  0.00000000E+00  0.00000000E+00  0.00000000E+00
  0.00000000E+00  0.00000000E+00  0.00000000E+00
  0.00000000E+00  0.00000000E+00  0.00000000E+00
  0.00000000E+00  0.00000000E+00  0.00000000E+00
  0.00000000E+00  0.00000000E+00  0.00000000E+00
  0.00000000E+00  0.00000000E+00  0.00000000E+00
  0.00000000E+00  0.00000000E+00  0.00000000E+00
