Sodium tetrafluorovanadate(III)         
   1.00000000000000     
     7.8177282818267209   -0.0000018984681167    0.0408042109516816
    -0.0000012630171135    5.2664971137275707   -0.0000006590418994
    -1.4415241978382203   -0.0000006924368933    7.3823600555308042
   F    Na   V 
    16     4     4
Direct
  0.1736252387409181  0.1228303358690113  0.0532011432947215
  0.8263574007356098  0.8770765477187439  0.9468045800428797
  0.8263576126304315  0.6229229672470495  0.4468046036969255
  0.1736251307990244  0.3771700271990071  0.5532011719041492
  0.0396012937657417  0.5603502361847603  0.1999188137558576
  0.9604229233245931  0.4395774194940429  0.8000458141269604
  0.9604229098464359  0.0604223653640688  0.3000456227846158
  0.0396013468000476  0.9396498691465851  0.6999191042817117
  0.3738124328605537  0.4626740595186263  0.3099458258471230
  0.6262486118546207  0.5372685105284773  0.6900276070865274
  0.6262486346830016  0.9627307804631471  0.1900283492489478
  0.3738124703107530  0.0373266023145007  0.8099453113307860
  0.3146317655160829  0.9783741531411039  0.3826413670871389
  0.6853158844503184  0.0215314284180437  0.6174029396246752
  0.6853158870814156  0.4784680314286760  0.1174027109478217
  0.3146317612310838  0.5216262910560374  0.8826415153895439
  0.3643949531124662  0.7862332834270163  0.1129368605145160
  0.6356389240236311  0.2137960987383067  0.8870937033050481
  0.6356390038874977  0.2862039250241040  0.3870939424625774
  0.3643950515227132  0.7137671527997824  0.6129367764688212
  0.1728439566920343  0.2567866876525358  0.3019064627968433
  0.8271064362651543  0.7432134113056392  0.6980746496671060
  0.8271063638977907  0.7567862461001269  0.1980745934612642
  0.1728440059680736  0.2432135848606052  0.8019065208734375
 
  0.00000000E+00  0.00000000E+00  0.00000000E+00
  0.00000000E+00  0.00000000E+00  0.00000000E+00
  0.00000000E+00  0.00000000E+00  0.00000000E+00
  0.00000000E+00  0.00000000E+00  0.00000000E+00
  0.00000000E+00  0.00000000E+00  0.00000000E+00
  0.00000000E+00  0.00000000E+00  0.00000000E+00
  0.00000000E+00  0.00000000E+00  0.00000000E+00
  0.00000000E+00  0.00000000E+00  0.00000000E+00
  0.00000000E+00  0.00000000E+00  0.00000000E+00
  0.00000000E+00  0.00000000E+00  0.00000000E+00
  0.00000000E+00  0.00000000E+00  0.00000000E+00
  0.00000000E+00  0.00000000E+00  0.00000000E+00
  0.00000000E+00  0.00000000E+00  0.00000000E+00
  0.00000000E+00  0.00000000E+00  0.00000000E+00
  0.00000000E+00  0.00000000E+00  0.00000000E+00
  0.00000000E+00  0.00000000E+00  0.00000000E+00
  0.00000000E+00  0.00000000E+00  0.00000000E+00
  0.00000000E+00  0.00000000E+00  0.00000000E+00
  0.00000000E+00  0.00000000E+00  0.00000000E+00
  0.00000000E+00  0.00000000E+00  0.00000000E+00
  0.00000000E+00  0.00000000E+00  0.00000000E+00
  0.00000000E+00  0.00000000E+00  0.00000000E+00
  0.00000000E+00  0.00000000E+00  0.00000000E+00
  0.00000000E+00  0.00000000E+00  0.00000000E+00
