Na2 Ni2 O4 F2                           
   1.00000000000000     
    -2.7515794100445450   -4.6471932465890751    0.0695273536443610
    -5.3525889909517099   -0.1203160863688315   -0.0423562602225213
    -2.6750059891267948   -1.3387718860488167   -4.2093575648595172
   Na   Ni   O    F 
     2     2     4     2
Direct
  0.2475286253617881  0.2431222139993494  0.2358912020424810
  0.7568592286771079  0.7655600510240390  0.7383264653218191
  0.0213994607994863  0.9994655830441772  0.9763497055079213
  0.4933133832224001  0.5080416516908102  0.5047668055392336
  0.2837857776254467  0.6496057044738421  0.2262403661158032
  0.3016834710232246  0.2102126718800150  0.7330977731606154
  0.1802103402739021  0.7839557641962571  0.7067125861506582
  0.7398919490415068  0.3471207827378393  0.7515396748408421
  0.6932129475121371  0.8175165433503722  0.2144272792743678
  0.8281148164629997  0.2213990336032978  0.2746481420462388
 
  0.00000000E+00  0.00000000E+00  0.00000000E+00
  0.00000000E+00  0.00000000E+00  0.00000000E+00
  0.00000000E+00  0.00000000E+00  0.00000000E+00
  0.00000000E+00  0.00000000E+00  0.00000000E+00
  0.00000000E+00  0.00000000E+00  0.00000000E+00
  0.00000000E+00  0.00000000E+00  0.00000000E+00
  0.00000000E+00  0.00000000E+00  0.00000000E+00
  0.00000000E+00  0.00000000E+00  0.00000000E+00
  0.00000000E+00  0.00000000E+00  0.00000000E+00
  0.00000000E+00  0.00000000E+00  0.00000000E+00
