V4 O4 F8                                
   1.00000000000000     
     5.1486514159045829    0.0523356704173891    0.0446228236782045
     0.0607871679316205    5.2943864222966344   -0.0029026180979991
     0.0162248969552569   -0.0357174832857851    7.3193595440211210
   V    O    F 
     4     4     8
Direct
  0.4957806716282518  0.9982692928932164  0.0212369562286825
  0.9848111984055195  0.5263296231250314  0.0016400389194006
  0.4726978481325512  0.0129346240616818  0.5012009452211702
  0.9920803794750628  0.4954409145045733  0.5212141909099123
  0.9262026939942348  0.5104221248025091  0.7438764573206104
  0.4257619900298364  0.9825518626139481  0.2433137209072552
  0.7977040946486125  0.7834339414980820  0.0340048854835543
  0.2135548777704782  0.2017940021021213  0.5354151766236201
  0.0887719712623889  0.4847376874789598  0.2532824985982488
  0.5865587053034705  0.0118745933490674  0.7529963937234062
  0.7067044286733533  0.2930218597464486  0.0423838252800733
  0.3022507921646007  0.7030688844454713  0.9498337866281930
  0.2032817248262627  0.2138598999674625  0.9549060753966881
  0.3050916889750410  0.6961283727762142  0.5399864777531258
  0.7059175044473779  0.2905081359139451  0.4493197686154629
  0.7928294302629431  0.7956241807212604  0.4553888023906034
 
  0.00000000E+00  0.00000000E+00  0.00000000E+00
  0.00000000E+00  0.00000000E+00  0.00000000E+00
  0.00000000E+00  0.00000000E+00  0.00000000E+00
  0.00000000E+00  0.00000000E+00  0.00000000E+00
  0.00000000E+00  0.00000000E+00  0.00000000E+00
  0.00000000E+00  0.00000000E+00  0.00000000E+00
  0.00000000E+00  0.00000000E+00  0.00000000E+00
  0.00000000E+00  0.00000000E+00  0.00000000E+00
  0.00000000E+00  0.00000000E+00  0.00000000E+00
  0.00000000E+00  0.00000000E+00  0.00000000E+00
  0.00000000E+00  0.00000000E+00  0.00000000E+00
  0.00000000E+00  0.00000000E+00  0.00000000E+00
  0.00000000E+00  0.00000000E+00  0.00000000E+00
  0.00000000E+00  0.00000000E+00  0.00000000E+00
  0.00000000E+00  0.00000000E+00  0.00000000E+00
  0.00000000E+00  0.00000000E+00  0.00000000E+00
