Na4 Ni4 O8 F4                           
   1.00000000000000     
     5.3008622934413898   -0.0126986469372971    0.0272113250365531
    -2.6611982602711328    4.6107077648587707   -0.0538636895491156
     0.0315649114487992   -0.0516841022281741    9.1648806443649082
   Na   Ni   O    F 
     4     4     8     4
Direct
  0.9999756601637592  0.9999540027479037  0.0000266964547952
  0.9999440533358956  0.9999082674888362  0.4999823087574017
  0.3219117741344301  0.6608236954689874  0.2500533679017543
  0.6780642868621958  0.3391726893126599  0.7499301294777964
  0.3291805122767726  0.6610395983675602  0.6166436363012845
  0.6708897675580847  0.3388980280968313  0.3833402995612092
  0.6710452454800165  0.3320143766961757  0.1166308118960315
  0.3289194699159942  0.6679144811910472  0.8833518794405212
  0.4999714757991515  0.9998603226695031  0.0000738225162458
  0.0000963185232766  0.5002714268794357  0.0000512791713598
  0.9998590605325578  0.5001808576780411  0.5000739754623528
  0.5000648638813479  0.4999119303259383  0.5000660108258511
  0.8131602789797219  0.6307231233602331  0.2498761621416598
  0.1868442451447777  0.3692870780715308  0.7501011040038560
  0.8132443958549456  0.1825213859178120  0.2500440534945457
  0.1868104385020087  0.8175249890177296  0.7499180790176002
  0.5000205240939942  0.4999266768976841  0.9999189918964299
  0.4999747685398074  0.9998928071458790  0.4999164900822267
  0.3230670034856956  0.1616590780308363  0.2500703002980204
  0.6769558569355733  0.8385151846353679  0.7499306012990511
 
  0.00000000E+00  0.00000000E+00  0.00000000E+00
  0.00000000E+00  0.00000000E+00  0.00000000E+00
  0.00000000E+00  0.00000000E+00  0.00000000E+00
  0.00000000E+00  0.00000000E+00  0.00000000E+00
  0.00000000E+00  0.00000000E+00  0.00000000E+00
  0.00000000E+00  0.00000000E+00  0.00000000E+00
  0.00000000E+00  0.00000000E+00  0.00000000E+00
  0.00000000E+00  0.00000000E+00  0.00000000E+00
  0.00000000E+00  0.00000000E+00  0.00000000E+00
  0.00000000E+00  0.00000000E+00  0.00000000E+00
  0.00000000E+00  0.00000000E+00  0.00000000E+00
  0.00000000E+00  0.00000000E+00  0.00000000E+00
  0.00000000E+00  0.00000000E+00  0.00000000E+00
  0.00000000E+00  0.00000000E+00  0.00000000E+00
  0.00000000E+00  0.00000000E+00  0.00000000E+00
  0.00000000E+00  0.00000000E+00  0.00000000E+00
  0.00000000E+00  0.00000000E+00  0.00000000E+00
  0.00000000E+00  0.00000000E+00  0.00000000E+00
  0.00000000E+00  0.00000000E+00  0.00000000E+00
  0.00000000E+00  0.00000000E+00  0.00000000E+00
