Na4 V4 O8 F4                            
   1.00000000000000     
     5.3198189238444371    0.0011813115727162    0.0348255656790836
    -0.0006512489754548    5.4065139677522387    0.0030568267359208
     0.0144561912937204   -0.0054527158137694    7.4257577942216741
   Na   V    O    F 
     4     4     8     4
Direct
  0.0004718847151538  0.0337602026877335  0.2435131852352827
 -0.0001954536674228  0.9665116144612165  0.7568045170686032
  0.5003556403923677  0.4661725394441621  0.7434765628355007
  0.4998825609673379  0.5328019347473476  0.2568187312143850
  0.5000067908079672  0.9998711882028435  0.0000343009041290
  0.0000898574046537  0.5000662230656199 -0.0000561984695635
  0.4999370255717360 -0.0000213047860618  0.5000303223132173
 -0.0002660866814466  0.5001828214477465  0.4999952109706954
  0.0562164271800426  0.4838045407971660  0.2623785845645055
  0.9435434589481392  0.5166646146626585  0.7376028093743271
  0.5561418000379689  0.0161509613865574  0.7622945989537478
  0.4435311330432875  0.9834162271720105  0.2375159627163858
  0.1928955172326589  0.2247223130309221  0.9729657788288534
  0.8069896478062594  0.7753405707025267  0.0270340560101235
  0.3068661526814511  0.7249557107657921  0.5269427772291130
  0.6928656446097780  0.2755399295817901  0.4729918493490954
  0.6939774614242700  0.3033202589985844  0.0404123546986783
  0.3067059753294037  0.6961145573583439  0.9595290228185800
  0.8063401233469315  0.8039751002942261  0.4593530153369581
  0.1936444388494484  0.1966499959787998  0.5403625580473683
 
  0.00000000E+00  0.00000000E+00  0.00000000E+00
  0.00000000E+00  0.00000000E+00  0.00000000E+00
  0.00000000E+00  0.00000000E+00  0.00000000E+00
  0.00000000E+00  0.00000000E+00  0.00000000E+00
  0.00000000E+00  0.00000000E+00  0.00000000E+00
  0.00000000E+00  0.00000000E+00  0.00000000E+00
  0.00000000E+00  0.00000000E+00  0.00000000E+00
  0.00000000E+00  0.00000000E+00  0.00000000E+00
  0.00000000E+00  0.00000000E+00  0.00000000E+00
  0.00000000E+00  0.00000000E+00  0.00000000E+00
  0.00000000E+00  0.00000000E+00  0.00000000E+00
  0.00000000E+00  0.00000000E+00  0.00000000E+00
  0.00000000E+00  0.00000000E+00  0.00000000E+00
  0.00000000E+00  0.00000000E+00  0.00000000E+00
  0.00000000E+00  0.00000000E+00  0.00000000E+00
  0.00000000E+00  0.00000000E+00  0.00000000E+00
  0.00000000E+00  0.00000000E+00  0.00000000E+00
  0.00000000E+00  0.00000000E+00  0.00000000E+00
  0.00000000E+00  0.00000000E+00  0.00000000E+00
  0.00000000E+00  0.00000000E+00  0.00000000E+00
