V4 O4 F8                                
   1.00000000000000     
     5.4260022345540699    0.0265415132080846   -0.2164453602583243
    -2.6938184611187586    4.7527538476282514    0.0807036682808597
    -0.3714254322365865   -0.0607239085807061    9.3436808026872615
   V    O    F 
     4     4     8
Direct
  0.3794427168811177  0.6969260881995004  0.6163086179871312
  0.6500634467395194  0.3039033626990450  0.3981097649896291
  0.6984324604369067  0.3257751176357904  0.1156646338509916
  0.2844566638660526  0.6403912173749482  0.8984470729582569
  0.0045960587749383  0.5011050633281415  0.9983103382805226
  0.5121369281753272  0.0138333950084678  0.4978195109259571
  0.6176484193456967  0.8010668611474704  0.7538820318168340
  0.8091537274374612  0.1835149993279202  0.2492696749485906
  0.5056807547920400  0.0053287927689572  0.9884622217336778
  0.5064155854325872  0.5018472867224965  0.0035319334800483
  0.0073619810010725  0.5140274447491378  0.5036906870056466
  0.5030207646118785  0.5127516531039956  0.4916581970496088
  0.8123493730745194  0.6277835168112531  0.2549099061351613
  0.1707926457428014  0.3629895549247957  0.7485202203401407
  0.3663636962226576  0.1956635099841706  0.2385210479573756
  0.1720847774654166  0.8130921362139030  0.7428941405404423
 
  0.00000000E+00  0.00000000E+00  0.00000000E+00
  0.00000000E+00  0.00000000E+00  0.00000000E+00
  0.00000000E+00  0.00000000E+00  0.00000000E+00
  0.00000000E+00  0.00000000E+00  0.00000000E+00
  0.00000000E+00  0.00000000E+00  0.00000000E+00
  0.00000000E+00  0.00000000E+00  0.00000000E+00
  0.00000000E+00  0.00000000E+00  0.00000000E+00
  0.00000000E+00  0.00000000E+00  0.00000000E+00
  0.00000000E+00  0.00000000E+00  0.00000000E+00
  0.00000000E+00  0.00000000E+00  0.00000000E+00
  0.00000000E+00  0.00000000E+00  0.00000000E+00
  0.00000000E+00  0.00000000E+00  0.00000000E+00
  0.00000000E+00  0.00000000E+00  0.00000000E+00
  0.00000000E+00  0.00000000E+00  0.00000000E+00
  0.00000000E+00  0.00000000E+00  0.00000000E+00
  0.00000000E+00  0.00000000E+00  0.00000000E+00
