Mn4 O4 F8                               
   1.00000000000000     
     4.7703426754216673   -0.0006855546724585   -0.0608358591901384
     0.0007153959017334    4.9264765804211779    0.0015066634130329
    -0.0431915080006625   -0.0008162958611788    7.4347281309569571
   Mn   O    F 
     4     4     8
Direct
  0.5002370378830256  0.0000164144116642  0.0002031010187060
 -0.0000312802850353  0.4998366488457897  0.0000001401421448
  0.4997695791485599 -0.0000994901496753  0.5000562243286252
 -0.0001800271687108  0.4998576455933474  0.4998504992778003
  0.6548694599461385  0.3411596947951274  0.0517562281355736
  0.3451039665739306  0.6593196586350942  0.9482426098411245
  0.8450348091203609  0.8407527409728853  0.4482283865304951
  0.1547870975381783  0.1589465795947617  0.5516998986968725
  0.1473411791163375  0.1740736136276251  0.9314182763138461
  0.8532685320780955  0.8259415292448782  0.0684398903244972
  0.3527945480146195  0.6739078571158414  0.5684605786006111
  0.6469467192690869  0.3257522175208615  0.4314781430546448
  0.1099940432140197  0.4437918431715960  0.2351564885699158
  0.8901960104997473  0.5566667905012819  0.7649707305023837
  0.6098934253542094  0.0564596642034135  0.7350556382678090
  0.3899748996974436  0.9436165919155151  0.2649831663949366
 
  0.00000000E+00  0.00000000E+00  0.00000000E+00
  0.00000000E+00  0.00000000E+00  0.00000000E+00
  0.00000000E+00  0.00000000E+00  0.00000000E+00
  0.00000000E+00  0.00000000E+00  0.00000000E+00
  0.00000000E+00  0.00000000E+00  0.00000000E+00
  0.00000000E+00  0.00000000E+00  0.00000000E+00
  0.00000000E+00  0.00000000E+00  0.00000000E+00
  0.00000000E+00  0.00000000E+00  0.00000000E+00
  0.00000000E+00  0.00000000E+00  0.00000000E+00
  0.00000000E+00  0.00000000E+00  0.00000000E+00
  0.00000000E+00  0.00000000E+00  0.00000000E+00
  0.00000000E+00  0.00000000E+00  0.00000000E+00
  0.00000000E+00  0.00000000E+00  0.00000000E+00
  0.00000000E+00  0.00000000E+00  0.00000000E+00
  0.00000000E+00  0.00000000E+00  0.00000000E+00
  0.00000000E+00  0.00000000E+00  0.00000000E+00
