Na4 Fe4 O8 F4                           
   1.00000000000000     
     5.4023205286589331   -0.0126373052171547    0.0000005268388385
    -2.7121039909979388    4.6722284400064913   -0.0000009654069283
     0.0000009400800251   -0.0000013947191868    9.1367612495027171
   Na   Fe   O    F 
     4     4     8     4
Direct
  0.9999995282622578  0.9999995256233163  0.9999989610270035
  0.9999998319278021  0.9999992208729864  0.5000051805752079
  0.3383760730933503  0.6616231955160998  0.2499998788298399
  0.6616230346988416  0.3383762344461445  0.7499998930490719
  0.3337572039188927  0.6662417257691544  0.6015870754140877
  0.6662415873441887  0.3337573084265344  0.3984124448228741
  0.6662417645346963  0.3337571693969750  0.1015871264828618
  0.3337569113733778  0.6662420082900908  0.8984125524914859
  0.4999931065060963  0.9999974057680419  0.0000021886382839
  0.9999962203714077  0.4999921168749211  0.9999972390424432
  0.5000062079826861  0.5000059228136067  0.9999993031301742
  0.4999930098742027  0.9999976332406106  0.4999972792693370
  0.9999960093345948  0.4999922313324063  0.5000022155379256
  0.5000063089830320  0.5000058557413496  0.4999998088745912
  0.8016874504893110  0.1983218771338358  0.2499999396968704
  0.1983213158350239  0.8016880125603549  0.7499999330238083
  0.8070078103149285  0.6653097500289888  0.2499997565469485
  0.1929927256293951  0.3346920779942621  0.7499997317379368
  0.3346931203514174  0.1929928240432517  0.2499995909454924
  0.6653107791745043  0.8070079041270617  0.7499999008637417
 
  0.00000000E+00  0.00000000E+00  0.00000000E+00
  0.00000000E+00  0.00000000E+00  0.00000000E+00
  0.00000000E+00  0.00000000E+00  0.00000000E+00
  0.00000000E+00  0.00000000E+00  0.00000000E+00
  0.00000000E+00  0.00000000E+00  0.00000000E+00
  0.00000000E+00  0.00000000E+00  0.00000000E+00
  0.00000000E+00  0.00000000E+00  0.00000000E+00
  0.00000000E+00  0.00000000E+00  0.00000000E+00
  0.00000000E+00  0.00000000E+00  0.00000000E+00
  0.00000000E+00  0.00000000E+00  0.00000000E+00
  0.00000000E+00  0.00000000E+00  0.00000000E+00
  0.00000000E+00  0.00000000E+00  0.00000000E+00
  0.00000000E+00  0.00000000E+00  0.00000000E+00
  0.00000000E+00  0.00000000E+00  0.00000000E+00
  0.00000000E+00  0.00000000E+00  0.00000000E+00
  0.00000000E+00  0.00000000E+00  0.00000000E+00
  0.00000000E+00  0.00000000E+00  0.00000000E+00
  0.00000000E+00  0.00000000E+00  0.00000000E+00
  0.00000000E+00  0.00000000E+00  0.00000000E+00
  0.00000000E+00  0.00000000E+00  0.00000000E+00
