Na4 Ni4 O8 F4                           
   1.00000000000000     
     5.3480850754033336    0.0006054689785878   -0.0184703219744177
     0.0003464830510954    5.3165180490961124   -0.0001214050094841
    -0.0433702676305594   -0.0001131932033839    7.1412193525816141
   Na   Ni   O    F 
     4     4     8     4
Direct
  0.9858309854194548  0.0450928263350283  0.2425717468339040
  0.0153244141040058  0.9560376629556728  0.7421669961805794
  0.4857522523966085  0.4547200498417151  0.7428552041115875
  0.5150584297725256  0.5437065183865037  0.2423923632742023
  0.4881624918485612  0.0007097500675020  0.0037047544949422
  0.0154466829034096  0.5016720518981287 -0.0019075183028844
  0.5154504105563080  0.9982509147216397  0.4980124172809392
  0.9881119685107901  0.4992462653988827  0.5036910198514961
  0.2935516171644718  0.7076405847025962  0.9545603462394668
  0.2081551876498467  0.2039627777645207  0.9578551256771860
  0.7080516461973435  0.2959912989423064  0.4582627046570035
  0.7935510759168467  0.7927224985663500  0.4540603197070157
  0.0892069508393540  0.4931482689629845  0.2545330596210585
  0.9045596497144491  0.5170999967621688  0.7520629633249887
  0.5894602218829849  0.0066131901019870  0.7545927808829772
  0.4042892535681959  0.9833164999841888  0.2520351475042366
  0.7171290483820690  0.2885007741703445  0.0465535296343899
  0.7827491067038431  0.7888567227593359  0.0478066329760317
  0.2827409602385997  0.7111701918602956  0.5476608842040658
  0.2174176462303257  0.2115411558178627  0.5465295218468194
 
  0.00000000E+00  0.00000000E+00  0.00000000E+00
  0.00000000E+00  0.00000000E+00  0.00000000E+00
  0.00000000E+00  0.00000000E+00  0.00000000E+00
  0.00000000E+00  0.00000000E+00  0.00000000E+00
  0.00000000E+00  0.00000000E+00  0.00000000E+00
  0.00000000E+00  0.00000000E+00  0.00000000E+00
  0.00000000E+00  0.00000000E+00  0.00000000E+00
  0.00000000E+00  0.00000000E+00  0.00000000E+00
  0.00000000E+00  0.00000000E+00  0.00000000E+00
  0.00000000E+00  0.00000000E+00  0.00000000E+00
  0.00000000E+00  0.00000000E+00  0.00000000E+00
  0.00000000E+00  0.00000000E+00  0.00000000E+00
  0.00000000E+00  0.00000000E+00  0.00000000E+00
  0.00000000E+00  0.00000000E+00  0.00000000E+00
  0.00000000E+00  0.00000000E+00  0.00000000E+00
  0.00000000E+00  0.00000000E+00  0.00000000E+00
  0.00000000E+00  0.00000000E+00  0.00000000E+00
  0.00000000E+00  0.00000000E+00  0.00000000E+00
  0.00000000E+00  0.00000000E+00  0.00000000E+00
  0.00000000E+00  0.00000000E+00  0.00000000E+00
