Fe4 O4 F8                               
   1.00000000000000     
     5.5403225298130261   -0.0000208546005108    0.0087015947881606
    -2.7728240707037370    4.7573400962796466   -0.0062777704408862
     0.0182676151719294    0.0030054918862357    9.3959114086544027
   Fe   O    F 
     4     4     8
Direct
  0.3435287599458429  0.6874882485438075  0.6054751271552953
  0.6548859611179174  0.3091581936287094  0.3995629306064748
  0.6566414983204515  0.3123199390898148  0.1055567570365778
  0.3476179845424878  0.6897762852362246  0.8999427149078327
  0.5070312328508565  0.0141419499563726  0.0036005493092843
  0.4918940048681832 -0.0136788548341346  0.5039940104224175
  0.8065828695535163  0.6145224083116084  0.2384569471553364
  0.1892571627337754  0.3857409768952615  0.7383662075668086
  0.0012305057894731  0.4981512871651311  0.0018710316024287
  0.5009716586333202  0.4982982124328823  0.0008552745433841
  0.0014701479386927  0.5028751283380141  0.4999256133704622
  0.5013129158669534  0.5020735395795892  0.5011182159439194
  0.3644633454900911  0.1830577147028974  0.2505160396507524
  0.6362364927070528  0.8208962997337711  0.7497340677043092
  0.8125214721888548  0.1765719376108725  0.2497784024061665
  0.1843539874525455  0.8186067336091706  0.7512461106185425
 
  0.00000000E+00  0.00000000E+00  0.00000000E+00
  0.00000000E+00  0.00000000E+00  0.00000000E+00
  0.00000000E+00  0.00000000E+00  0.00000000E+00
  0.00000000E+00  0.00000000E+00  0.00000000E+00
  0.00000000E+00  0.00000000E+00  0.00000000E+00
  0.00000000E+00  0.00000000E+00  0.00000000E+00
  0.00000000E+00  0.00000000E+00  0.00000000E+00
  0.00000000E+00  0.00000000E+00  0.00000000E+00
  0.00000000E+00  0.00000000E+00  0.00000000E+00
  0.00000000E+00  0.00000000E+00  0.00000000E+00
  0.00000000E+00  0.00000000E+00  0.00000000E+00
  0.00000000E+00  0.00000000E+00  0.00000000E+00
  0.00000000E+00  0.00000000E+00  0.00000000E+00
  0.00000000E+00  0.00000000E+00  0.00000000E+00
  0.00000000E+00  0.00000000E+00  0.00000000E+00
  0.00000000E+00  0.00000000E+00  0.00000000E+00
