Ti4 O4 F8                               
   1.00000000000000     
     5.6056946964393628    0.0288937641526376   -0.0000005250680258
    -2.7778241604044385    4.8691226602080544    0.0000003266219170
    -0.0000008111692215    0.0000000998037252    9.4162792030681413
   Ti   O    F 
     4     4     8
Direct
  0.3214889219959221  0.6785126213318604  0.5960296965969685
  0.6785080603620324  0.3214928155291032  0.4039554879274393
  0.6785080824244220  0.3214928149014932  0.0960445602296878
  0.3214888688039729  0.6785126283602482  0.9039702578146400
  0.4999675651884923 -0.0000071916164967 -0.0000037680954949
  0.0000155728428075  0.4999786435955283 -0.0000034177534577
  0.4999675781404164 -0.0000071902885213  0.5000037655021621
  0.0000155716194632  0.4999786269115531  0.5000034192754199
  0.4999970695199306  0.5000001396983219 -0.0000011900134397
  0.4999970654964022  0.5000001367727047  0.5000012030553338
  0.8089770984078757  0.6113632968290948  0.2499999831978524
  0.1910400549871658  0.3886521610280242  0.7500000252428092
  0.3886538012815486  0.1910404179365652  0.2499999713177933
  0.6113649122582729  0.8089773754125374  0.7500000366133108
  0.8194137729743309  0.1805975059541093  0.2499999871721001
  0.1805960036969516  0.8194151976438739  0.7499999819168822
 
  0.00000000E+00  0.00000000E+00  0.00000000E+00
  0.00000000E+00  0.00000000E+00  0.00000000E+00
  0.00000000E+00  0.00000000E+00  0.00000000E+00
  0.00000000E+00  0.00000000E+00  0.00000000E+00
  0.00000000E+00  0.00000000E+00  0.00000000E+00
  0.00000000E+00  0.00000000E+00  0.00000000E+00
  0.00000000E+00  0.00000000E+00  0.00000000E+00
  0.00000000E+00  0.00000000E+00  0.00000000E+00
  0.00000000E+00  0.00000000E+00  0.00000000E+00
  0.00000000E+00  0.00000000E+00  0.00000000E+00
  0.00000000E+00  0.00000000E+00  0.00000000E+00
  0.00000000E+00  0.00000000E+00  0.00000000E+00
  0.00000000E+00  0.00000000E+00  0.00000000E+00
  0.00000000E+00  0.00000000E+00  0.00000000E+00
  0.00000000E+00  0.00000000E+00  0.00000000E+00
  0.00000000E+00  0.00000000E+00  0.00000000E+00
