Na1 Ti16 O16 F32
1.0
11.463225 0.141761 -0.000032
0.138845 11.496363 0.000046
-0.000025 0.000036 8.016119
Na Ti O F
1 16 16 32
direct
0.476024 0.451518 0.248571 Na
0.218455 0.014976 0.005867 Ti
0.219107 0.531065 0.006418 Ti
0.751253 0.018362 0.033355 Ti
0.728522 0.522458 0.004438 Ti
0.003670 0.257931 0.965151 Ti
0.989569 0.755708 0.961614 Ti
0.499674 0.216456 0.965345 Ti
0.506859 0.755601 0.962861 Ti
0.244719 0.991808 0.462212 Ti
0.224690 0.518233 0.465721 Ti
0.754939 0.019007 0.496645 Ti
0.754856 0.503912 0.462994 Ti
0.028532 0.233115 0.507464 Ti
0.999069 0.748665 0.497037 Ti
0.502833 0.221821 0.507725 Ti
0.535222 0.745671 0.509483 Ti
0.121030 0.132481 0.007226 O
0.111339 0.639823 0.003675 O
0.629916 0.120752 0.001450 O
0.612436 0.626227 0.010876 O
0.134541 0.122421 0.507397 O
0.115036 0.630330 0.490345 O
0.635509 0.123163 0.501758 O
0.633989 0.630249 0.505187 O
0.500576 0.229403 0.744787 O
0.501018 0.750798 0.746051 O
0.005123 0.254555 0.749157 O
0.994590 0.755771 0.745742 O
0.240886 0.501880 0.244695 O
0.244104 0.994977 0.244828 O
0.755463 0.511737 0.245892 O
0.757638 0.007873 0.251691 O
0.374353 0.111007 0.997681 F
0.363365 0.615609 0.004134 F
0.877342 0.129826 0.000252 F
0.866684 0.642438 0.997339 F
0.120043 0.381577 0.002020 F
0.107859 0.885061 0.999018 F
0.638053 0.388705 0.011143 F
0.621602 0.871628 0.998162 F
0.409822 0.350289 0.019281 F
0.380180 0.852729 0.012898 F
0.885878 0.369137 0.008076 F
0.869696 0.881270 0.995087 F
0.135462 0.373000 0.507290 F
0.123897 0.875154 0.494813 F
0.637645 0.389783 0.484818 F
0.634117 0.876013 0.499930 F
0.380904 0.111720 0.492122 F
0.363277 0.597667 0.503097 F
0.885759 0.128817 0.503768 F
0.873959 0.634832 0.498129 F
0.400070 0.356022 0.486416 F
0.365205 0.881731 0.508484 F
0.875846 0.396433 0.506538 F
0.879702 0.880279 0.499110 F
0.005221 0.255750 0.278447 F
0.990416 0.760744 0.261532 F
0.513020 0.237443 0.264600 F
0.489894 0.742632 0.286122 F
0.246106 0.993410 0.776650 F
0.237868 0.499661 0.775797 F
0.760278 0.001799 0.735083 F
0.755921 0.510022 0.774654 F
