Na4 Cr4 O8 F4                           
   1.00000000000000     
     5.1873983465136888    0.1731598105162287    0.1353572568951395
     0.1923366196249828    5.2276624029582761    0.0844713707452546
    -0.0873038438673239   -0.1204031795510935    7.7011427776685233
   Na   Cr   O    F 
     4     4     8     4
Direct
  0.9747401308424912  0.0302403236255192  0.2433441634556970
  0.0127130810969965  0.9748080066033993  0.7344062814021662
  0.4910137002103661  0.4622085413558605  0.7441898708361446
  0.5246336926812211  0.5343265620048224  0.2671564414967744
  0.4798299308156523  0.9842880171905857  0.0027558685965620
  0.0359611903298228  0.5195821342724498  0.0248633153800725
  0.4926155742976565  0.9860432661540957  0.5056792943607858
 -0.0097337853169942  0.4894884729029778  0.4881317420298462
  0.2766546894205889  0.7104458391707145  0.9521551121089356
  0.1767561177324218  0.2170959392868716  0.9611846492819458
  0.7783144085017336  0.7525554248919114  0.0361552478476755
  0.2958294835423455  0.7378126177200017  0.5411495893343513
  0.7459918564164161  0.2801815915257994  0.4610761114559203
  0.7914190027571705  0.7894257900711259  0.4487173242710107
  0.2493970502196241  0.2467252452325814  0.5472656868294484
  0.0996866822562496  0.4921153336402061  0.2440687827145036
  0.6865236661256215  0.2712080008142261  0.0507942881633317
  0.9117336502419054  0.5263636306663764  0.7389391452509231
  0.5808638979883933  0.0126263076110192  0.7568097036932483
  0.4050559798403162  0.9824589552594561  0.2511573814906702
 
  0.00000000E+00  0.00000000E+00  0.00000000E+00
  0.00000000E+00  0.00000000E+00  0.00000000E+00
  0.00000000E+00  0.00000000E+00  0.00000000E+00
  0.00000000E+00  0.00000000E+00  0.00000000E+00
  0.00000000E+00  0.00000000E+00  0.00000000E+00
  0.00000000E+00  0.00000000E+00  0.00000000E+00
  0.00000000E+00  0.00000000E+00  0.00000000E+00
  0.00000000E+00  0.00000000E+00  0.00000000E+00
  0.00000000E+00  0.00000000E+00  0.00000000E+00
  0.00000000E+00  0.00000000E+00  0.00000000E+00
  0.00000000E+00  0.00000000E+00  0.00000000E+00
  0.00000000E+00  0.00000000E+00  0.00000000E+00
  0.00000000E+00  0.00000000E+00  0.00000000E+00
  0.00000000E+00  0.00000000E+00  0.00000000E+00
  0.00000000E+00  0.00000000E+00  0.00000000E+00
  0.00000000E+00  0.00000000E+00  0.00000000E+00
  0.00000000E+00  0.00000000E+00  0.00000000E+00
  0.00000000E+00  0.00000000E+00  0.00000000E+00
  0.00000000E+00  0.00000000E+00  0.00000000E+00
  0.00000000E+00  0.00000000E+00  0.00000000E+00
