Na4 V4 O4 F8                            
   1.00000000000000     
     5.3068505252106233    0.0000021521961142    0.0006601171662446
     0.0000022081628386    5.4556758660842570   -0.0000000973731235
    -0.0014115843049678   -0.0000004840426368    7.8377366635847654
   Na   V    O    F 
     4     4     4     8
Direct
  0.9773792473065073  0.0474076094926059  0.2521580139981092
  0.0226421898289735  0.9526804496380219  0.7522034002107946
  0.4773773685904420  0.4525934883431899  0.7521575204783220
  0.5226432079276460  0.5473197861905890  0.2522036899898327
  0.5293482095244401  0.0052888864091263  0.0022613173233656
  0.9706027321453937  0.5053555788176963  0.0022798232001147
  0.4706014919976026  0.9946453311536168  0.5022796928620724
  0.0293496989825592  0.4947087538821158  0.5022625423078240
  0.7112962811614688  0.2855791242872336  0.0544334249633736
  0.7887024553125945  0.7855273710984054  0.0542234843062637
  0.2887008338177470  0.7144717429463675  0.5542240680127259
  0.2112942629300782  0.2144217593906264  0.5544316279117247
  0.2862831718047190  0.7170397047584992  0.9440180342488991
  0.2137376307119517  0.2170309686718724  0.9439658259562397
  0.7137364788916312  0.2829690402086786  0.4439661337667496
  0.7862816432782542  0.7829589221703770  0.4440182910593656
  0.1094903401377539  0.4678508398196096  0.2472285789717607
  0.8905210570234228  0.5320950439518181  0.7472286029519196
  0.6094898714280603  0.0321515622057207  0.7472278253045589
  0.3905218271987537  0.9679040365638368  0.2472281021759839
 
  0.00000000E+00  0.00000000E+00  0.00000000E+00
  0.00000000E+00  0.00000000E+00  0.00000000E+00
  0.00000000E+00  0.00000000E+00  0.00000000E+00
  0.00000000E+00  0.00000000E+00  0.00000000E+00
  0.00000000E+00  0.00000000E+00  0.00000000E+00
  0.00000000E+00  0.00000000E+00  0.00000000E+00
  0.00000000E+00  0.00000000E+00  0.00000000E+00
  0.00000000E+00  0.00000000E+00  0.00000000E+00
  0.00000000E+00  0.00000000E+00  0.00000000E+00
  0.00000000E+00  0.00000000E+00  0.00000000E+00
  0.00000000E+00  0.00000000E+00  0.00000000E+00
  0.00000000E+00  0.00000000E+00  0.00000000E+00
  0.00000000E+00  0.00000000E+00  0.00000000E+00
  0.00000000E+00  0.00000000E+00  0.00000000E+00
  0.00000000E+00  0.00000000E+00  0.00000000E+00
  0.00000000E+00  0.00000000E+00  0.00000000E+00
  0.00000000E+00  0.00000000E+00  0.00000000E+00
  0.00000000E+00  0.00000000E+00  0.00000000E+00
  0.00000000E+00  0.00000000E+00  0.00000000E+00
  0.00000000E+00  0.00000000E+00  0.00000000E+00
