Na4 Ni4 O8 F4                           
   1.00000000000000     
     5.4083357167606829    0.0010664139834877    0.0010868177902172
     0.0022950812458830    5.5420920755259191   -0.0760058666291765
     0.0017586303508790   -0.1538903282925570    7.0715807853327819
   Na   Ni   O    F 
     4     4     8     4
Direct
  0.9880226598643898  0.0347986212530040  0.2408755897492553
  0.0159649048420722  0.9487231078312593  0.7376138532628788
  0.4872911705983805  0.4642832986116980  0.7580061960287181
  0.5162291009682798  0.5516378913721691  0.2617437280796966
  0.4966814063955161  0.9905686363111847  0.9962196041397786
  0.9971090828714664  0.5103065006972362  0.0047624410998082
  0.5034524223644127  0.0130355610502005  0.4972017079894017
  0.0045933706362912  0.4856670628446362  0.5035290906915836
  0.1045704560317747  0.4857512850039910  0.2484492654434086
  0.8962297705158057  0.5397217530861380  0.7600609085772683
  0.6038809271431739  0.0150131493120815  0.7519985953978885
  0.3959798322189165  0.9601758834920925  0.2405125721526042
  0.2575079030857250  0.7213963060492780  0.9505782382057517
  0.7574166493807819  0.7792732228088185  0.0487131436102986
  0.7075865139470773  0.2934620264208995  0.4625217190776968
  0.2078056689790206  0.2058146892281793  0.5372974445401680
  0.7287383320000801  0.2829869311353655  0.0606454570794500
  0.2282971682029725  0.2175848684055544  0.9395544095995397
  0.3012337035537733  0.7086455260634322  0.5551898694043429
  0.8014089564001111  0.7911536790227894  0.4445261658704683
 
  0.00000000E+00  0.00000000E+00  0.00000000E+00
  0.00000000E+00  0.00000000E+00  0.00000000E+00
  0.00000000E+00  0.00000000E+00  0.00000000E+00
  0.00000000E+00  0.00000000E+00  0.00000000E+00
  0.00000000E+00  0.00000000E+00  0.00000000E+00
  0.00000000E+00  0.00000000E+00  0.00000000E+00
  0.00000000E+00  0.00000000E+00  0.00000000E+00
  0.00000000E+00  0.00000000E+00  0.00000000E+00
  0.00000000E+00  0.00000000E+00  0.00000000E+00
  0.00000000E+00  0.00000000E+00  0.00000000E+00
  0.00000000E+00  0.00000000E+00  0.00000000E+00
  0.00000000E+00  0.00000000E+00  0.00000000E+00
  0.00000000E+00  0.00000000E+00  0.00000000E+00
  0.00000000E+00  0.00000000E+00  0.00000000E+00
  0.00000000E+00  0.00000000E+00  0.00000000E+00
  0.00000000E+00  0.00000000E+00  0.00000000E+00
  0.00000000E+00  0.00000000E+00  0.00000000E+00
  0.00000000E+00  0.00000000E+00  0.00000000E+00
  0.00000000E+00  0.00000000E+00  0.00000000E+00
  0.00000000E+00  0.00000000E+00  0.00000000E+00
