Fe8 O8 F16                              
    1.000000000000000     
     7.7055756672650846    0.0008675674143687    0.0218760462933097
     0.0011668760109852    7.7351437639694050    0.0043886154050719
     0.0148599522868753    0.0000134744465594    7.7660021963339547
   Fe   O    F 
     8     8    16
Direct
  0.9870377117910885 -0.0000545344847231  0.9973375464000407
  0.9947553730440826  0.9999646739960052  0.4971035866357666
  0.0006219906784610  0.4998038835621818  0.9974861663127573
  0.0033414377537035  0.5000030511879903  0.4969963220983794
  0.5150891495159292  0.0000744241388046  0.0008286598894531
  0.5013107843816211  0.0000090603050370  0.5020159979888618
  0.4994516104932993  0.4999512583488348  0.0058507538008472
  0.5034382023259243  0.4999941012725274  0.4987966275836749
  0.2481936430359548  0.9995034968935471  0.4998679892343257
  0.7504173834095051  0.5000552628230501  0.0101625663564835
  0.5026513918297216  0.4986325668639825  0.7528108329461852
  0.2404808762158967  0.0001745267554601  0.9994807987433802
  0.2501782059737233  0.5000796794016340  0.0121430099470245
  0.7569853541524734  0.0000488571674795  0.9991161348178841
  0.9912294751452152  0.2505861458756219  0.4982354146878961
  0.9905690252248879  0.7493521615645783  0.4985973703872137
  0.0006442037714047  0.0001481554997490  0.2479159197229898
  0.4939650934506918 -0.0000821628437345  0.7490710092834634
  0.2525187318251448  0.5003591327840656  0.4943152494005121
  0.7532392833814553  0.5003366817520494  0.4910766949794161
  0.0076991928025006  0.7526341343335577  0.9979597352707037
  0.4929190010056355  0.2481389198323988  0.9930454841978344
  0.0033185992534651  0.0003285681923500  0.7470839854274089
  0.0014906359110649  0.5006290550660628  0.2461157784026237
  0.0036174867962660  0.4991839896712378  0.7499170558063315
  0.4929965002848610  0.0003281488940211  0.2533031559172115
  0.5018285217355367  0.5007847687038235  0.2536111035681565
  0.7459923281421914 -0.0003009364037974  0.4969475953080077
  0.0077805786842536  0.2470969018852576  0.9951625955832465
  0.5065582688592614  0.2525907430248627  0.5107980177770616
  0.4931452295350023  0.7522661297061435  0.9953171263542359
  0.5065347295897700  0.7473791542299406  0.5115297151706159
 
  0.00000000E+00  0.00000000E+00  0.00000000E+00
  0.00000000E+00  0.00000000E+00  0.00000000E+00
  0.00000000E+00  0.00000000E+00  0.00000000E+00
  0.00000000E+00  0.00000000E+00  0.00000000E+00
  0.00000000E+00  0.00000000E+00  0.00000000E+00
  0.00000000E+00  0.00000000E+00  0.00000000E+00
  0.00000000E+00  0.00000000E+00  0.00000000E+00
  0.00000000E+00  0.00000000E+00  0.00000000E+00
  0.00000000E+00  0.00000000E+00  0.00000000E+00
  0.00000000E+00  0.00000000E+00  0.00000000E+00
  0.00000000E+00  0.00000000E+00  0.00000000E+00
  0.00000000E+00  0.00000000E+00  0.00000000E+00
  0.00000000E+00  0.00000000E+00  0.00000000E+00
  0.00000000E+00  0.00000000E+00  0.00000000E+00
  0.00000000E+00  0.00000000E+00  0.00000000E+00
  0.00000000E+00  0.00000000E+00  0.00000000E+00
  0.00000000E+00  0.00000000E+00  0.00000000E+00
  0.00000000E+00  0.00000000E+00  0.00000000E+00
  0.00000000E+00  0.00000000E+00  0.00000000E+00
  0.00000000E+00  0.00000000E+00  0.00000000E+00
  0.00000000E+00  0.00000000E+00  0.00000000E+00
  0.00000000E+00  0.00000000E+00  0.00000000E+00
  0.00000000E+00  0.00000000E+00  0.00000000E+00
  0.00000000E+00  0.00000000E+00  0.00000000E+00
  0.00000000E+00  0.00000000E+00  0.00000000E+00
  0.00000000E+00  0.00000000E+00  0.00000000E+00
  0.00000000E+00  0.00000000E+00  0.00000000E+00
  0.00000000E+00  0.00000000E+00  0.00000000E+00
  0.00000000E+00  0.00000000E+00  0.00000000E+00
  0.00000000E+00  0.00000000E+00  0.00000000E+00
  0.00000000E+00  0.00000000E+00  0.00000000E+00
  0.00000000E+00  0.00000000E+00  0.00000000E+00
