Na15 Mn16 O16 F32
1.0
-5.761146 -9.514394 0.182285
-11.120777 -0.273458 0.161625
-5.438320 -3.170709 -8.939338
Na Mn O F
15 16 16 32
direct
0.391599 0.360460 0.373708 Na
0.118877 0.140452 0.112832 Na
0.116330 0.140967 0.616842 Na
0.115016 0.639404 0.117797 Na
0.113329 0.641023 0.618065 Na
0.614871 0.139457 0.118372 Na
0.614013 0.635488 0.122743 Na
0.613304 0.638072 0.618812 Na
0.394353 0.363386 0.862220 Na
0.389581 0.866235 0.367346 Na
0.391294 0.866426 0.865138 Na
0.888592 0.363545 0.370033 Na
0.888739 0.365291 0.867961 Na
0.888756 0.865327 0.369505 Na
0.889369 0.866304 0.866094 Na
-0.002546 0.003001 0.479935 Mn
0.002059 0.002505 0.977553 Mn
0.002202 0.502727 0.477748 Mn
0.002357 0.501926 0.976893 Mn
0.503421 0.003052 0.478859 Mn
0.504918 0.002207 0.974355 Mn
0.503112 0.499664 0.479758 Mn
0.503417 0.501904 0.977811 Mn
0.252671 0.251173 0.258615 Mn
0.254947 0.251614 0.756544 Mn
0.252722 0.752210 0.259413 Mn
0.251930 0.752516 0.758413 Mn
0.752424 0.249600 0.262081 Mn
0.751611 0.251329 0.757593 Mn
0.752155 0.752517 0.258641 Mn
0.751587 0.757147 0.756412 Mn
0.101115 0.352688 0.392289 O
0.098982 0.355833 0.889252 O
0.099202 0.853841 0.392862 O
0.100260 0.851208 0.894003 O
0.600701 0.362493 0.381694 O
0.601991 0.351239 0.893874 O
0.601800 0.851408 0.394034 O
0.599366 0.848447 0.897739 O
0.403076 0.153039 0.342969 O
0.391575 0.154391 0.855311 O
0.399354 0.655293 0.346659 O
0.402232 0.653324 0.843753 O
0.906545 0.155055 0.338356 O
0.903698 0.153059 0.841851 O
0.903702 0.654461 0.341996 O
0.900747 0.655771 0.843484 O
0.107215 0.353249 0.138776 F
0.105328 0.356781 0.637810 F
0.106447 0.853962 0.139280 F
0.104527 0.855315 0.639813 F
0.608488 0.353637 0.137576 F
0.608109 0.365194 0.637054 F
0.607022 0.853156 0.140371 F
0.605261 0.852727 0.640154 F
0.329709 0.424790 0.118075 F
0.328938 0.425720 0.618196 F
0.330198 0.922426 0.120787 F
0.328559 0.924223 0.618189 F
0.832210 0.424269 0.115743 F
0.830394 0.426195 0.618202 F
0.829557 0.925035 0.117774 F
0.835844 0.918837 0.618048 F
0.173496 0.079095 0.370609 F
0.174518 0.079177 0.869380 F
0.177006 0.579350 0.368191 F
0.175101 0.577779 0.868639 F
0.676803 0.080130 0.359778 F
0.674340 0.077840 0.876846 F
0.675392 0.580008 0.367467 F
0.675441 0.580875 0.866691 F
0.401105 0.145295 0.099752 F
0.389970 0.146157 0.599844 F
0.401020 0.647459 0.097454 F
0.397463 0.649479 0.598372 F
0.900934 0.147505 0.096046 F
0.901430 0.149364 0.596446 F
0.900531 0.647712 0.097318 F
0.899340 0.649873 0.596649 F
