Na8 Ni8 O16 F8                          
   1.00000000000000     
     7.7271814766447431   -0.0823159140758245    0.2274897314453417
     0.0494108086369809    7.6487913971566295   -0.2904239172329903
    -0.2562021656919596    0.1431033546624354    7.0964180605638596
   Na   Ni   O    F 
     8     8    16     8
Direct
  0.2418555289935265  0.2310407200208278  0.2855567582629930
  0.2607758791804372  0.2278706485095498  0.7779085328492620
  0.2475579120390136  0.7214846516007191  0.2708971958331662
  0.2458210656858708  0.7351370032849265  0.7512192895307894
  0.7450052019030903  0.2681734345995492  0.2278463045975997
  0.7490210490881518  0.2574307669773419  0.7400604208845406
  0.7565892963549889  0.7802493620690244  0.2224583073164033
  0.7454032512132147  0.7660234711983714  0.7168399066574861
  0.9975329257084784  0.0027923721410797  0.0000089310058804
  0.0042657817550191  0.0021956771192464  0.5018875165339317
  0.0119338123779457  0.5025180057843274  0.0025606702429566
  0.9955119242881277  0.5010397167941582  0.5031898090649365
  0.4915404613925450  0.9907389719893941  0.9946858136393844
  0.5034697011458095 -0.0002968198753879  0.4921807308961350
  0.4936730702792078  0.4993910048873025  0.0035174338093985
  0.5119686079756047  0.4956189031742198  0.4952816231217749
  0.2512675979030642  0.9740842594858283  0.4673090419328298
  0.2700312618543554  0.4939487125653804  0.9350882535318193
  0.7537744520933686  0.0213097611146397  0.5283868292827011
  0.7530714710606605  0.4595849543920860  0.4886690210628067
  0.9751850888219893  0.2620450322705953  0.9637843821458231
  0.0168455548167807  0.7465748773805339  0.0360898973557443
  0.5235225637834053  0.2620397292240339  0.9694692498766908
  0.4545753763874628  0.7348879223746844  0.0508162393394756
  0.9552825968566493  0.0636139383728300  0.2613109404479296
  0.0440135318486517  0.9445884273968350  0.7446207272834305
  0.0457456911618003  0.4437272909275270  0.2468187040964623
  0.9585089173585565  0.5650638044139785  0.7635628692871156
  0.5481504552137821  0.0507228243189724  0.2497895277252946
  0.4529838462630970  0.9437756822946946  0.7313319884003512
  0.4487603806521366  0.4318914605111086  0.2397348502766001
  0.5448085220281947  0.5547207573309563  0.7570150010318939
  0.2477615735276885  0.0373656673854423  0.0465448202310318
  0.2539033397765706  0.5392496898136551  0.5216119470622101
  0.7444911279623097  0.9674355101828566  0.9474085213319875
  0.7343411518565220  0.5237379274921411  0.0666654021256853
  0.0383511682345779  0.2526861939118789  0.5803780772343287
  0.9755730346317901  0.7502038982139744  0.4272111990242750
  0.4699192023248605  0.2482080061567617  0.5634237207843665
  0.5372066242007085  0.7471257821939546  0.4268595448824938
 
  0.00000000E+00  0.00000000E+00  0.00000000E+00
  0.00000000E+00  0.00000000E+00  0.00000000E+00
  0.00000000E+00  0.00000000E+00  0.00000000E+00
  0.00000000E+00  0.00000000E+00  0.00000000E+00
  0.00000000E+00  0.00000000E+00  0.00000000E+00
  0.00000000E+00  0.00000000E+00  0.00000000E+00
  0.00000000E+00  0.00000000E+00  0.00000000E+00
  0.00000000E+00  0.00000000E+00  0.00000000E+00
  0.00000000E+00  0.00000000E+00  0.00000000E+00
  0.00000000E+00  0.00000000E+00  0.00000000E+00
  0.00000000E+00  0.00000000E+00  0.00000000E+00
  0.00000000E+00  0.00000000E+00  0.00000000E+00
  0.00000000E+00  0.00000000E+00  0.00000000E+00
  0.00000000E+00  0.00000000E+00  0.00000000E+00
  0.00000000E+00  0.00000000E+00  0.00000000E+00
  0.00000000E+00  0.00000000E+00  0.00000000E+00
  0.00000000E+00  0.00000000E+00  0.00000000E+00
  0.00000000E+00  0.00000000E+00  0.00000000E+00
  0.00000000E+00  0.00000000E+00  0.00000000E+00
  0.00000000E+00  0.00000000E+00  0.00000000E+00
  0.00000000E+00  0.00000000E+00  0.00000000E+00
  0.00000000E+00  0.00000000E+00  0.00000000E+00
  0.00000000E+00  0.00000000E+00  0.00000000E+00
  0.00000000E+00  0.00000000E+00  0.00000000E+00
  0.00000000E+00  0.00000000E+00  0.00000000E+00
  0.00000000E+00  0.00000000E+00  0.00000000E+00
  0.00000000E+00  0.00000000E+00  0.00000000E+00
  0.00000000E+00  0.00000000E+00  0.00000000E+00
  0.00000000E+00  0.00000000E+00  0.00000000E+00
  0.00000000E+00  0.00000000E+00  0.00000000E+00
  0.00000000E+00  0.00000000E+00  0.00000000E+00
  0.00000000E+00  0.00000000E+00  0.00000000E+00
  0.00000000E+00  0.00000000E+00  0.00000000E+00
  0.00000000E+00  0.00000000E+00  0.00000000E+00
  0.00000000E+00  0.00000000E+00  0.00000000E+00
  0.00000000E+00  0.00000000E+00  0.00000000E+00
  0.00000000E+00  0.00000000E+00  0.00000000E+00
  0.00000000E+00  0.00000000E+00  0.00000000E+00
  0.00000000E+00  0.00000000E+00  0.00000000E+00
  0.00000000E+00  0.00000000E+00  0.00000000E+00
