Co8 O8 F16                              
   1.00000000000000     
     7.6411951857476730   -0.0050988182475931    0.0045342771026065
     0.0074440897036064    7.5844535057753761    0.0125404005494558
    -0.0030428423171316    0.0172682293159740    7.5766276556263064
   Co   O    F 
     8     8    16
Direct
  0.0000750106093605  0.0025026118575388  0.9983289826359399
 -0.0000984989267366  0.0000849692438006  0.4967909619223337
  0.0001005829712346  0.5061475888339326 -0.0042514989654114
 -0.0007869716981020  0.4999499227597256  0.4906365134004505
  0.5000156186809992 -0.0002227513015954  0.0018952448918187
  0.4999653697316926  0.9977543171803340  0.5022344311141028
  0.5003389393968488  0.4998023025076951 -0.0176187737582782
  0.4993847303004237  0.4979635111294317  0.4827346277890936
  0.4998155219473572  0.9984091980923032  0.7533582045017333
  0.0005526150402693  0.7491383244856361  0.0065711585573951
  0.0009492545677163  0.5024353824525867  0.2540361515037837
  0.5007798399561312  0.9990249496436108  0.2523179936425979
  0.4997547058972303  0.4981284586568406  0.2471805757442380
  0.5001805206343108  0.4991182849297824  0.7481211833787756
 -0.0008075460267150  0.2483721942545094  0.4927446268227876
 -0.0004779579472675  0.7515852354213246  0.4948687353894719
  0.0007822283697876  0.0044501137148900  0.2422519007074473
  0.2506550993857627 -0.0013791958452924  0.5022768515254352
  0.2584772161684796  0.4982394610348673  0.5194000716461012
  0.7506598291562885  0.5045338499294133  0.9884044027540324
  0.7407254399995289  0.4991940760995906  0.5191504242803632
  0.5004700980962051  0.2544342879342162  0.0196085210329129
  0.0002875287933079  0.0042410753869259  0.7554939796198834
  0.9991492183899521  0.4952349815091437  0.7463250560753903
  0.2531006016501205 -0.0021719091321988  0.0000774635623430
  0.2496689559230225  0.5032418339957747  0.9875487058930007
  0.7471532414781901 -0.0029731377410410  0.9995945105724492
  0.7494055306962017  0.9979854135374697  0.5040042190190324
 -0.0003776072370592  0.2538203198594353  0.0077126558639066
  0.5007956106620950  0.2465022598307413  0.4957729454125087
  0.4999284058575881  0.7451680507926809  0.0195557920093032
  0.4993768674757966  0.7492840189459252  0.4928733814550648
 
  0.00000000E+00  0.00000000E+00  0.00000000E+00
  0.00000000E+00  0.00000000E+00  0.00000000E+00
  0.00000000E+00  0.00000000E+00  0.00000000E+00
  0.00000000E+00  0.00000000E+00  0.00000000E+00
  0.00000000E+00  0.00000000E+00  0.00000000E+00
  0.00000000E+00  0.00000000E+00  0.00000000E+00
  0.00000000E+00  0.00000000E+00  0.00000000E+00
  0.00000000E+00  0.00000000E+00  0.00000000E+00
  0.00000000E+00  0.00000000E+00  0.00000000E+00
  0.00000000E+00  0.00000000E+00  0.00000000E+00
  0.00000000E+00  0.00000000E+00  0.00000000E+00
  0.00000000E+00  0.00000000E+00  0.00000000E+00
  0.00000000E+00  0.00000000E+00  0.00000000E+00
  0.00000000E+00  0.00000000E+00  0.00000000E+00
  0.00000000E+00  0.00000000E+00  0.00000000E+00
  0.00000000E+00  0.00000000E+00  0.00000000E+00
  0.00000000E+00  0.00000000E+00  0.00000000E+00
  0.00000000E+00  0.00000000E+00  0.00000000E+00
  0.00000000E+00  0.00000000E+00  0.00000000E+00
  0.00000000E+00  0.00000000E+00  0.00000000E+00
  0.00000000E+00  0.00000000E+00  0.00000000E+00
  0.00000000E+00  0.00000000E+00  0.00000000E+00
  0.00000000E+00  0.00000000E+00  0.00000000E+00
  0.00000000E+00  0.00000000E+00  0.00000000E+00
  0.00000000E+00  0.00000000E+00  0.00000000E+00
  0.00000000E+00  0.00000000E+00  0.00000000E+00
  0.00000000E+00  0.00000000E+00  0.00000000E+00
  0.00000000E+00  0.00000000E+00  0.00000000E+00
  0.00000000E+00  0.00000000E+00  0.00000000E+00
  0.00000000E+00  0.00000000E+00  0.00000000E+00
  0.00000000E+00  0.00000000E+00  0.00000000E+00
  0.00000000E+00  0.00000000E+00  0.00000000E+00
