Na8 Fe8 O16 F8                          
   1.00000000000000     
     7.5367205446146679    0.0001178628617121   -0.0000469614592448
    -0.0000874032235663    7.6485194380270096    0.0008377547274751
    -0.0000249983990118    0.0008425980242469    7.6484240326021347
   Na   Fe   O    F 
     8     8    16     8
Direct
  0.2501641760040486  0.2424032549731129  0.2576736217860715
  0.2542989538640094  0.2446773633552665  0.7451095659665791
  0.2457336929240706  0.7548821370150569  0.2553402508397754
  0.2499908064703966  0.7538955803378761  0.7461062945988154
  0.7500123507069573  0.2423812041949086  0.2576664817273188
  0.7457158830654056  0.2446703068606021  0.7451119323236532
  0.7542749884736477  0.7548820116636441  0.2553354540186893
  0.7500074494586823  0.7538972218988754  0.7461016774979883
  0.9999791405961738 -0.0002396590774488  0.9894418679072656
  0.0000739305646507  0.9990932197394226  0.5142823083841371
  0.9999792511642782  0.4997659632567510  0.0006437445611794
  0.9999801814620162  0.4987767248012746  0.4980860057197257
  0.4999516776047671  0.0018994658627187  0.0011809070932703
  0.5000819722805384  0.9857087892792156  0.5008969282839772
  0.4999817470702616  0.4993491718730612  0.0002289460672273
  0.4999882194429283  0.5105645705231391  0.5002414640386722
  0.2506948907463269  0.9994665194167461  0.0042186982061241
  0.2500278658089076  0.9992905939535155  0.5006864287982744
  0.2492651787488889  0.4957918116359810  0.5005265128863262
  0.7492629266376202  0.9994752086244453  0.0042270008968389
  0.7500166252325269  0.9993277920019882  0.5006841071060705
  0.7507140973842680  0.4957512914220877  0.5005227926942425
  0.9999796680625377  0.2401727997156579  0.0015759441639653
  0.9999658181427474  0.7589997816223305  0.0015269910769622
  0.4999795489391214  0.2451327426981870  0.0008609046148699
  0.4999884876371088  0.7605035050192486  0.0009407156978825
  0.5000417676092936  0.7523795681361488  0.5020387020957197
  0.0000021285381518  0.9979536768771532  0.7476172435135767
  0.9999766229735131  0.4991306396654141  0.2548776488113535
  0.9999792000231218  0.4990609949378688  0.7394896617583437
  0.4999727479026744  0.4984104716195562  0.2598246879933825
  0.4999708387079287  0.4984631311255170  0.7409968978619638
  0.2499749401000928  0.5025683132670049  0.9974395999882311
  0.7499754393917423  0.5025569894617835  0.9974458269362071
  0.0000215051369803  0.2460638985081132  0.4850996064230477
  0.9999826049068642  0.7511222788771752  0.4857216334920237
  0.4999894686404354  0.2443648185745532  0.5017999088893683
 -0.0000003310952120  0.9981966939162814  0.2556356504444831
  0.4999973584197398  0.0149253080511744  0.2539206138908325
  0.5000061802518098  0.0142838443145983  0.7488747709455497
 
  0.00000000E+00  0.00000000E+00  0.00000000E+00
  0.00000000E+00  0.00000000E+00  0.00000000E+00
  0.00000000E+00  0.00000000E+00  0.00000000E+00
  0.00000000E+00  0.00000000E+00  0.00000000E+00
  0.00000000E+00  0.00000000E+00  0.00000000E+00
  0.00000000E+00  0.00000000E+00  0.00000000E+00
  0.00000000E+00  0.00000000E+00  0.00000000E+00
  0.00000000E+00  0.00000000E+00  0.00000000E+00
  0.00000000E+00  0.00000000E+00  0.00000000E+00
  0.00000000E+00  0.00000000E+00  0.00000000E+00
  0.00000000E+00  0.00000000E+00  0.00000000E+00
  0.00000000E+00  0.00000000E+00  0.00000000E+00
  0.00000000E+00  0.00000000E+00  0.00000000E+00
  0.00000000E+00  0.00000000E+00  0.00000000E+00
  0.00000000E+00  0.00000000E+00  0.00000000E+00
  0.00000000E+00  0.00000000E+00  0.00000000E+00
  0.00000000E+00  0.00000000E+00  0.00000000E+00
  0.00000000E+00  0.00000000E+00  0.00000000E+00
  0.00000000E+00  0.00000000E+00  0.00000000E+00
  0.00000000E+00  0.00000000E+00  0.00000000E+00
  0.00000000E+00  0.00000000E+00  0.00000000E+00
  0.00000000E+00  0.00000000E+00  0.00000000E+00
  0.00000000E+00  0.00000000E+00  0.00000000E+00
  0.00000000E+00  0.00000000E+00  0.00000000E+00
  0.00000000E+00  0.00000000E+00  0.00000000E+00
  0.00000000E+00  0.00000000E+00  0.00000000E+00
  0.00000000E+00  0.00000000E+00  0.00000000E+00
  0.00000000E+00  0.00000000E+00  0.00000000E+00
  0.00000000E+00  0.00000000E+00  0.00000000E+00
  0.00000000E+00  0.00000000E+00  0.00000000E+00
  0.00000000E+00  0.00000000E+00  0.00000000E+00
  0.00000000E+00  0.00000000E+00  0.00000000E+00
  0.00000000E+00  0.00000000E+00  0.00000000E+00
  0.00000000E+00  0.00000000E+00  0.00000000E+00
  0.00000000E+00  0.00000000E+00  0.00000000E+00
  0.00000000E+00  0.00000000E+00  0.00000000E+00
  0.00000000E+00  0.00000000E+00  0.00000000E+00
  0.00000000E+00  0.00000000E+00  0.00000000E+00
  0.00000000E+00  0.00000000E+00  0.00000000E+00
  0.00000000E+00  0.00000000E+00  0.00000000E+00
