V4 O4 F8                                
   1.00000000000000     
     5.0925289351290006   -0.0000239912324520   -0.0071045782254451
    -0.0000257709558557    5.3126326801665487   -0.0000151298577154
     0.0106195599747472   -0.0000178442003933    7.3851513072348158
   V    O    F 
     4     4     8
Direct
  0.4698890094456953  0.0300786367942724  0.9937154929126124
  0.9791429449425351  0.5384202065944877  0.0058774928650449
  0.4791584090152182  0.9615895462417031  0.5058758711188422
  0.9699170708459671  0.4699268111140760  0.4937221749973314
  0.2225744718989379  0.2203616056380277  0.9539144501889567
  0.7933389514713466  0.7850322017087521  0.0437990441294830
  0.2933340557132324  0.7149796735099029  0.5437983090866845
  0.7225990078809753  0.2796240216663369  0.4539160480147291
  0.7227567021388506  0.2830252875761550  0.0600344814805824
  0.3001035511449830  0.7125009828888426  0.9434348553182912
  0.8000996059608743  0.7874872849538872  0.4434399496802243
  0.2227888987479936  0.2169847552188769  0.5600384746794423
  0.1125507764023602  0.4857596987758841  0.2497881954701715
  0.8996014283340839  0.5162745697882271  0.7494285546356142
  0.6125408759233708  0.0142389977103484  0.7497902278644192
  0.3996042401335756  0.9837157198202199  0.2494263775575780
 
  0.00000000E+00  0.00000000E+00  0.00000000E+00
  0.00000000E+00  0.00000000E+00  0.00000000E+00
  0.00000000E+00  0.00000000E+00  0.00000000E+00
  0.00000000E+00  0.00000000E+00  0.00000000E+00
  0.00000000E+00  0.00000000E+00  0.00000000E+00
  0.00000000E+00  0.00000000E+00  0.00000000E+00
  0.00000000E+00  0.00000000E+00  0.00000000E+00
  0.00000000E+00  0.00000000E+00  0.00000000E+00
  0.00000000E+00  0.00000000E+00  0.00000000E+00
  0.00000000E+00  0.00000000E+00  0.00000000E+00
  0.00000000E+00  0.00000000E+00  0.00000000E+00
  0.00000000E+00  0.00000000E+00  0.00000000E+00
  0.00000000E+00  0.00000000E+00  0.00000000E+00
  0.00000000E+00  0.00000000E+00  0.00000000E+00
  0.00000000E+00  0.00000000E+00  0.00000000E+00
  0.00000000E+00  0.00000000E+00  0.00000000E+00
