Na2 V2 O4 F2                            
   1.00000000000000     
     3.8495655079790048    0.0000000038492740   -0.0000430236076343
    -0.0000000106435648    3.8545815827629761   -0.0000000140976860
     0.0001176945122723    0.0000000348586965    7.3947817336286050
   Na   V    O    F 
     2     2     4     2
Direct
  0.0000376332080393  0.0000000351725187  0.0034133304695536
  0.0000830678923813  0.9999999891844337  0.5036452989886107
  0.5000967866598968  0.4999999904478477  0.2541845960924317
  0.5000048608367705  0.5000000179508054  0.7542010202121243
  0.4999761101443743  0.4999999626346916  0.0038284477026471
  0.4999643442251203  0.5000000318719456  0.5049580585096725
  0.4999498984828080  0.0000000043121578  0.7541141993754840
  0.9999352114246517  0.4999999867039592  0.2541079642017900
  0.4999238144854636  0.9999999897853095  0.2552960860363916
  0.0000282726404870  0.4999999919363308  0.7552509984112865
 
  0.00000000E+00  0.00000000E+00  0.00000000E+00
  0.00000000E+00  0.00000000E+00  0.00000000E+00
  0.00000000E+00  0.00000000E+00  0.00000000E+00
  0.00000000E+00  0.00000000E+00  0.00000000E+00
  0.00000000E+00  0.00000000E+00  0.00000000E+00
  0.00000000E+00  0.00000000E+00  0.00000000E+00
  0.00000000E+00  0.00000000E+00  0.00000000E+00
  0.00000000E+00  0.00000000E+00  0.00000000E+00
  0.00000000E+00  0.00000000E+00  0.00000000E+00
  0.00000000E+00  0.00000000E+00  0.00000000E+00
