Na15 Mn16 O16 F32                       
   1.00000000000000     
    -5.7589769999999998   -9.5136559999999992    0.1831540000000000
   -11.1198160000000001   -0.2714780000000000    0.1621230000000000
    -5.4371780000000003   -3.1693980000000002   -8.9432910000000003
   Na   Mn   O    F 
    15    16    16    32
Direct
  0.4535958598647958  0.2856225193608898  0.4541765735720940
  0.1286044811718536  0.1385990615321065  0.1142030841653906
  0.1183741486960349  0.1396515890775153  0.6152468999588869
  0.1233873562450637  0.6359510268871421  0.1209198700640116
  0.1219314326634463  0.6358168146007537  0.6149975829139581
  0.6096937617666476  0.1444537490824556  0.1246958819184117
  0.6090571570823972  0.6355998884153171  0.1180595568803173
  0.6153044638384478  0.6336354833204791  0.6213003508387489
  0.3960717896903634  0.3591123294307425  0.8614812522156952
  0.3902392735431484  0.8725214002914683  0.3585198576337448
  0.3896213771443502  0.8661973245217566  0.8665271463248333
  0.8888733387894030  0.3616652000763323  0.3714804893454986
  0.8847782084295445  0.3624982600061628  0.8709846248028543
  0.8846486687391436  0.8715795053017635  0.3764823995460272
  0.8893780108303111  0.8740217868362904  0.8617159308879524
  0.9984990635952038  0.0048290363541026  0.4772606381606409
 -0.0001132834280179 -0.0010006588716820  0.9825279191315419
  0.0055476402074588  0.5034538508660935  0.4783176322567730
  0.0002768470829808  0.5092940618688900  0.9741870636896535
  0.5013192583312446 -0.0080172766807749  0.4842818295272647
  0.5077885873191818 -0.0012621499682746  0.9742390763528582
  0.5096230778841516  0.5073539147042122  0.4751640744571783
  0.5031692690059720  0.4996510645216982  0.9792338291703165
  0.2529671250693601  0.2534800521844820  0.2601464512983198
  0.2454584625470397  0.2461743515855109  0.7688911707507338
  0.2534968317668578  0.7468609082146943  0.2624963953834555
  0.2509648864660710  0.7494195977008952  0.7593551136085155
  0.7610176854637906  0.2555349950556006  0.2528081916545413
  0.7524064748143555  0.2518704851609305  0.7574119323224408
  0.7591848467891524  0.7523904210105469  0.2559305039358265
  0.7540203009137341  0.7566357556370646  0.7566138495931599
  0.0992605039963010  0.3569663349523769  0.3909517705058667
  0.0932772956207638  0.3587763039796009  0.8923591128085631
  0.1067255724530554  0.8516757210893535  0.3937673522355702
  0.1028607909347980  0.8496457649731245  0.8955974966763047
  0.6261776262138722  0.3688445711609633  0.3762227930948225
  0.6019340732809525  0.3491710735139624  0.8955653147557853
  0.6065094194480197  0.8476043519146479  0.3930775723188496
  0.6040203309996452  0.8504817285368499  0.8926674804881346
  0.3990282714979564  0.1456739072613522  0.3528962576134754
  0.3873674396625366  0.1509973092645221  0.8600717839226886
  0.4057751098491111  0.6548313479195390  0.3417884400250631
  0.4012276945508724  0.6498562376717394  0.8433457985377039
  0.9167174947176152  0.1539919576534920  0.3304862281534333
  0.9028389554208314  0.1490636817520090  0.8445222249073003
  0.9081227202892446  0.6580971218288345  0.3415502280633071
  0.9022672105759286  0.6610461843747304  0.8404694758630390
  0.1042260028471989  0.3626157985077924  0.1320819502464614
  0.1020930229352924  0.3506008186748517  0.6459498619904440
  0.1027755777658093  0.8494312580913205  0.1478420235327365
  0.0998850755775991  0.8575035266577407  0.6414803101470316
  0.6119929665799426  0.3537568459482211  0.1396043209327864
  0.6067887624936485  0.3704336174077064  0.6366429448362653
  0.6120299536847849  0.8522474441456810  0.1362688362341010
  0.6097237459456321  0.8409405462558354  0.6464015013114599
  0.3331001042587780  0.4178338582096515  0.1143870433269948
  0.3340401101724762  0.4127024379100130  0.6198088187465975
  0.3330086680386695  0.9137003484577219  0.1226510274661117
  0.3287808914542305  0.9144977103403455  0.6141917668973783
  0.8321452800903563  0.4347647271328015  0.1067852645373402
  0.8322037104719733  0.4262814019021388  0.6201081879283528
  0.8258007746398943  0.9282879359870199  0.1201891973196393
  0.8333558020492586  0.9348922975938423  0.6022206662619736
  0.1716994027659855  0.0843665108599387  0.3682994061800343
  0.1649163263766545  0.0753622836034197  0.8900854007248320
  0.1778590006469334  0.5793827813587674  0.3763951848646852
  0.1800103930194983  0.5783059862949917  0.8599948786772166
  0.6626111378542967  0.0842774761172448  0.3768371206555006
  0.6725166177787395  0.0817699104674815  0.8715909830738112
  0.6873228435223139  0.5842072135603484  0.3653849043650936
  0.6729938956192862  0.5723843586346244  0.8729335879397048
  0.4011750262138900  0.1390452309185915  0.1012203283288196
  0.3737028364508849  0.1146651502301967  0.6325838193082850
  0.3969069924026800  0.6485366776243534  0.0944474081174172
  0.3971387725163328  0.6511886130060209  0.5927646787561565
  0.8956446425893950  0.1460532746780819  0.1011595059763012
  0.9018467530019147  0.1534455002668745  0.5942362230130178
  0.9090085709481757  0.6550718759847363  0.0894974263085730
  0.9008562551776630  0.6527753863155942  0.6002811526914827
 
             NaN             NaN             NaN
             NaN             NaN             NaN
             NaN             NaN             NaN
             NaN             NaN             NaN
             NaN             NaN             NaN
             NaN             NaN             NaN
             NaN             NaN             NaN
             NaN             NaN             NaN
             NaN             NaN             NaN
             NaN             NaN             NaN
             NaN             NaN             NaN
             NaN             NaN             NaN
             NaN             NaN             NaN
             NaN             NaN             NaN
             NaN             NaN             NaN
             NaN             NaN             NaN
             NaN             NaN             NaN
             NaN             NaN             NaN
             NaN             NaN             NaN
             NaN             NaN             NaN
             NaN             NaN             NaN
             NaN             NaN             NaN
             NaN             NaN             NaN
             NaN             NaN             NaN
             NaN             NaN             NaN
             NaN             NaN             NaN
             NaN             NaN             NaN
             NaN             NaN             NaN
             NaN             NaN             NaN
             NaN             NaN             NaN
             NaN             NaN             NaN
             NaN             NaN             NaN
             NaN             NaN             NaN
             NaN             NaN             NaN
             NaN             NaN             NaN
             NaN             NaN             NaN
             NaN             NaN             NaN
             NaN             NaN             NaN
             NaN             NaN             NaN
             NaN             NaN             NaN
             NaN             NaN             NaN
             NaN             NaN             NaN
             NaN             NaN             NaN
             NaN             NaN             NaN
             NaN             NaN             NaN
             NaN             NaN             NaN
             NaN             NaN             NaN
             NaN             NaN             NaN
             NaN             NaN             NaN
             NaN             NaN             NaN
             NaN             NaN             NaN
             NaN             NaN             NaN
             NaN             NaN             NaN
             NaN             NaN             NaN
             NaN             NaN             NaN
             NaN             NaN             NaN
             NaN             NaN             NaN
             NaN             NaN             NaN
             NaN             NaN             NaN
             NaN             NaN             NaN
             NaN             NaN             NaN
             NaN             NaN             NaN
             NaN             NaN             NaN
             NaN             NaN             NaN
             NaN             NaN             NaN
             NaN             NaN             NaN
             NaN             NaN             NaN
             NaN             NaN             NaN
             NaN             NaN             NaN
             NaN             NaN             NaN
             NaN             NaN             NaN
             NaN             NaN             NaN
             NaN             NaN             NaN
             NaN             NaN             NaN
             NaN             NaN             NaN
             NaN             NaN             NaN
             NaN             NaN             NaN
             NaN             NaN             NaN
             NaN             NaN             NaN
