Na15 Mn16 O16 F32
1.0
-5.758977 -9.513656 0.183154
-11.119816 -0.271478 0.162123
-5.437178 -3.169398 -8.943291
Na Mn O F
15 16 16 32
direct
0.464343 0.287658 0.454239 Na
0.117907 0.140237 0.114250 Na
0.116119 0.141131 0.617124 Na
0.115363 0.639359 0.118250 Na
0.114014 0.640170 0.617829 Na
0.614118 0.141186 0.119290 Na
0.613734 0.636595 0.121268 Na
0.613817 0.638239 0.618860 Na
0.392813 0.363885 0.864322 Na
0.389960 0.867104 0.367640 Na
0.391288 0.866544 0.865341 Na
0.887583 0.363655 0.369470 Na
0.888461 0.364616 0.868804 Na
0.889488 0.864775 0.369170 Na
0.889304 0.866026 0.866823 Na
-0.000904 0.002814 0.478776 Mn
0.002139 0.002189 0.977818 Mn
0.003937 0.502310 0.477075 Mn
0.002399 0.502026 0.977077 Mn
0.502783 0.003673 0.478568 Mn
0.503684 0.002390 0.975699 Mn
0.502000 0.500594 0.478782 Mn
0.502688 0.501861 0.978732 Mn
0.252516 0.252410 0.258875 Mn
0.254262 0.252196 0.756259 Mn
0.252879 0.750541 0.259774 Mn
0.252095 0.752359 0.758520 Mn
0.751487 0.250752 0.260833 Mn
0.751695 0.252005 0.757702 Mn
0.752164 0.752446 0.259000 Mn
0.752044 0.755531 0.756918 Mn
0.100004 0.351865 0.392984 O
0.099461 0.354734 0.890452 O
0.100714 0.852329 0.393412 O
0.100287 0.851030 0.894260 O
0.604624 0.358690 0.386311 O
0.601683 0.351731 0.893697 O
0.602865 0.850880 0.394712 O
0.600343 0.849641 0.896398 O
0.403224 0.149733 0.342258 O
0.395035 0.154318 0.851187 O
0.401212 0.655816 0.344904 O
0.402316 0.653628 0.843479 O
0.906142 0.153243 0.338799 O
0.903457 0.152818 0.841964 O
0.904240 0.653472 0.341883 O
0.901812 0.655439 0.842763 O
0.106106 0.354253 0.138975 F
0.104759 0.355832 0.639287 F
0.106166 0.853812 0.139862 F
0.104428 0.855465 0.640111 F
0.610720 0.354947 0.135279 F
0.606733 0.362870 0.638342 F
0.605977 0.854144 0.140579 F
0.606064 0.853115 0.640201 F
0.329120 0.424652 0.115925 F
0.329415 0.425995 0.619986 F
0.329805 0.922823 0.119797 F
0.328706 0.924326 0.618055 F
0.831472 0.424674 0.116360 F
0.830618 0.425950 0.618083 F
0.828850 0.925137 0.118245 F
0.833589 0.921646 0.617369 F
0.173200 0.079486 0.369615 F
0.174290 0.078962 0.869883 F
0.174464 0.581315 0.368273 F
0.175092 0.578357 0.868446 F
0.676296 0.079788 0.362712 F
0.674426 0.078544 0.874005 F
0.675017 0.580733 0.368003 F
0.675641 0.580747 0.866565 F
0.399588 0.146880 0.098476 F
0.392310 0.143490 0.602164 F
0.400717 0.648645 0.096321 F
0.397695 0.649836 0.597878 F
0.900552 0.147259 0.096135 F
0.900344 0.149741 0.596086 F
0.899967 0.648419 0.096818 F
0.899880 0.649409 0.596359 F
