Na1 V16 O16 F32                         
   1.00000000000000     
    10.4637869999999999   -0.0090770000000000   -0.0157890000000000
    -0.0094720000000000   10.5902809999999992    0.0008670000000000
    -0.0013260000000000    0.0007930000000000    7.6569180000000001
   Na   V    O    F 
     1    16    16    32
Direct
  0.5051613391472598  0.4990949788840296  0.8264141382089083
  0.2594781555721489 -0.0002013348425564  0.0075455535189572
  0.2601917317264261  0.5015768814938224  0.0137167024251908
  0.7631849375911579  0.0024699731092296  0.0082940865626604
  0.7733604813955788  0.5010022300723683  0.0130040659756794
  0.4820881829716920  0.2457910983393098  0.0146459271890718
  0.4841558808937587  0.7562712113892232  0.0127220808809972
  0.9878528022376086  0.2484828066274585  0.0079444770728801
  0.9862174034380806  0.7548185340517769  0.0083907986919355
  0.2348035425140885  0.4973721065400211  0.5074949019879156
  0.2369089419989418  0.9956733035337415  0.5080055978689123
  0.7403307013375303  0.4951282198986237  0.5054684452748702
  0.7340554243215834  0.9986822087346321  0.5089421743328515
  0.0156676622487935  0.2451805384060557  0.5085803428729401
  0.0138364991783552  0.7482762222879518  0.5093130021888568
  0.5131090340728784  0.2481191233224032  0.5082723888022361
  0.5157864196980668  0.7467171550053593  0.5080026936482483
  0.3677567691976854  0.1272527701544902  0.0323630550494526
  0.3732720174228680  0.6273564594628163  0.0306882125081394
  0.8702741829469380  0.1304606989785806  0.0288540771430049
  0.8760267686370828  0.6291684605575848  0.0337678318652516
  0.3780556977475097  0.3773462160734626  0.0328933599220454
  0.3744310086436333  0.8781116571755361  0.0310339559742387
  0.8847590560028679  0.3802307024187462  0.0316617250435065
  0.8773689848139582  0.8799086645311540  0.0279389113752633
  0.1291890006129941  0.3692503870516387  0.5302849786495423
  0.1298060663589065  0.8699385737598391  0.5320586423149818
  0.6304046586053462  0.3692241489024816  0.5297992894478540
  0.6316993290514914  0.8693126483972037  0.5296304150523369
  0.1194312039695952  0.1209717865985601  0.5301525625273568
  0.1166832090926658  0.6221457917449467  0.5305757689300780
  0.6209031902313944  0.1167226321287188  0.5293592776640811
  0.6161759210257298  0.6197170002865423  0.5306284183787285
  0.1316926201172361  0.3684491592004535  0.9659506783217030
  0.1278626873200168  0.8702452730667365  0.9609509814592463
  0.6326989033242815  0.3710233452907575  0.9719441272084420
  0.6246071409325716  0.8761711159742471  0.9704161246263647
  0.1177819212438862  0.1183310837439386  0.9650552287047098
  0.1210061319900097  0.6209209420632446  0.9677025186181977
  0.6188170700202319  0.1220420910028869  0.9704964077583257
  0.6287364537645334  0.6282085210903821  0.9711605676137165
  0.3688379002540181  0.1302437012539994  0.4704561924299732
  0.3668759818876934  0.6304214342379747  0.4711565068621782
  0.8694016612826733  0.1322110665925810  0.4690440099717089
  0.8671981257843603  0.6322715491152386  0.4663153843594904
  0.3807915214302710  0.3821926527057290  0.4710579662376477
  0.3819539127982462  0.8791515203347883  0.4718180371910154
  0.8824562401159398  0.3809054764544976  0.4670346710793487
  0.8816508035753291  0.8821226799482671  0.4707887738206167
  0.0366225178000257  0.2468955014571155  0.2520432619515990
  0.0357997518086391  0.7540231404867218  0.2522691967633121
  0.5349020425737749  0.2457801846519501  0.2536412975412702
  0.5337915805356951  0.7507020011676141  0.2541954533540869
  0.4666509324050201  0.2558834645538315  0.7549920418507335
  0.4669362201006493  0.7468621382517547  0.7530449949339751
  0.9647554336074864  0.2514651353856800  0.7495592688521100
  0.9620919166592474  0.7510286992669707  0.7502763198056509
  0.2849310036475698  0.0020009432118059  0.7521600326295130
  0.2891404560798274  0.5008196654979618  0.7528652523874630
  0.7835535913830093  0.0025392714431293  0.7505448893748837
  0.7830359521637429  0.5020168091830421  0.7535335964832802
  0.2091805493200055  0.4994607696391972  0.2537265927976707
  0.2112029836339975  0.9968118072438151  0.2511507452494143
  0.7153547828512461  0.4985687963358286  0.2507265916601271
  0.7170189654644588  0.9991747232317438  0.2529074200470648
 
             NaN             NaN             NaN
             NaN             NaN             NaN
             NaN             NaN             NaN
             NaN             NaN             NaN
             NaN             NaN             NaN
             NaN             NaN             NaN
             NaN             NaN             NaN
             NaN             NaN             NaN
             NaN             NaN             NaN
             NaN             NaN             NaN
             NaN             NaN             NaN
             NaN             NaN             NaN
             NaN             NaN             NaN
             NaN             NaN             NaN
             NaN             NaN             NaN
             NaN             NaN             NaN
             NaN             NaN             NaN
             NaN             NaN             NaN
             NaN             NaN             NaN
             NaN             NaN             NaN
             NaN             NaN             NaN
             NaN             NaN             NaN
             NaN             NaN             NaN
             NaN             NaN             NaN
             NaN             NaN             NaN
             NaN             NaN             NaN
             NaN             NaN             NaN
             NaN             NaN             NaN
             NaN             NaN             NaN
             NaN             NaN             NaN
             NaN             NaN             NaN
             NaN             NaN             NaN
             NaN             NaN             NaN
             NaN             NaN             NaN
             NaN             NaN             NaN
             NaN             NaN             NaN
             NaN             NaN             NaN
             NaN             NaN             NaN
             NaN             NaN             NaN
             NaN             NaN             NaN
             NaN             NaN             NaN
             NaN             NaN             NaN
             NaN             NaN             NaN
             NaN             NaN             NaN
             NaN             NaN             NaN
             NaN             NaN             NaN
             NaN             NaN             NaN
             NaN             NaN             NaN
             NaN             NaN             NaN
             NaN             NaN             NaN
             NaN             NaN             NaN
             NaN             NaN             NaN
             NaN             NaN             NaN
             NaN             NaN             NaN
             NaN             NaN             NaN
             NaN             NaN             NaN
             NaN             NaN             NaN
             NaN             NaN             NaN
             NaN             NaN             NaN
             NaN             NaN             NaN
             NaN             NaN             NaN
             NaN             NaN             NaN
             NaN             NaN             NaN
             NaN             NaN             NaN
             NaN             NaN             NaN
