Na1 V16 O16 F32
1.0
10.463787 -0.009077 -0.015789
-0.009472 10.590281 0.000867
-0.001326 0.000793 7.656918
Na V O F
1 16 16 32
direct
0.503541 0.494565 -0.163369 Na
0.261686 0.001564 0.005953 V
0.262073 0.501997 0.009979 V
0.763993 0.001741 0.007015 V
0.767864 0.501455 0.007469 V
0.484158 0.248949 0.008268 V
0.484423 0.754537 0.008193 V
0.986256 0.250452 0.007113 V
0.985932 0.753141 0.007093 V
0.232379 0.498134 0.506181 V
0.236130 0.997547 0.506224 V
0.738539 0.497480 0.503912 V
0.737947 0.997456 0.506934 V
0.014401 0.246218 0.507319 V
0.013997 0.748952 0.507008 V
0.515801 0.244780 0.504709 V
0.515652 0.749756 0.505304 V
0.367441 0.131680 0.029142 O
0.367924 0.631519 0.030162 O
0.868629 0.131397 0.029000 O
0.868144 0.631985 0.029841 O
0.381632 0.382274 0.026953 O
0.380958 0.881981 0.027387 O
0.881860 0.381436 0.028392 O
0.881750 0.881723 0.027661 O
0.132598 0.366929 0.529814 O
0.132413 0.867521 0.528989 O
0.633317 0.367522 0.528544 O
0.633097 0.867311 0.528972 O
0.117795 0.117113 0.527835 O
0.116911 0.617447 0.527840 O
0.618213 0.116702 0.527056 O
0.618150 0.616485 0.526760 O
0.132298 0.367208 0.965440 F
0.132592 0.866531 0.963517 F
0.630348 0.369857 0.958186 F
0.632349 0.865951 0.964686 F
0.116843 0.116927 0.965408 F
0.116498 0.616533 0.968164 F
0.616924 0.117749 0.967076 F
0.614897 0.613716 0.962919 F
0.366800 0.135096 0.463297 F
0.367632 0.632102 0.466665 F
0.866652 0.133797 0.464557 F
0.866945 0.633333 0.462854 F
0.386373 0.387609 0.473737 F
0.384117 0.883183 0.466851 F
0.884560 0.383912 0.465484 F
0.883870 0.883464 0.466139 F
0.036447 0.248001 0.249893 F
0.036556 0.749321 0.249460 F
0.537555 0.250752 0.249140 F
0.537626 0.747805 0.249075 F
0.464191 0.254968 0.748906 F
0.464312 0.745772 0.749465 F
0.963850 0.251142 0.749439 F
0.963758 0.750948 0.749555 F
0.286217 0.003225 0.748642 F
0.287231 0.504404 0.750151 F
0.786106 0.002846 0.750227 F
0.785626 0.503230 0.749269 F
0.212426 0.495685 0.251517 F
0.213660 0.996793 0.249599 F
0.712315 0.495990 0.247377 F
0.714367 0.996630 0.249182 F
