Na15 Ti16 O16 F32                       
   1.00000000000000     
    11.1125633436872047    0.1385632375844386   -0.0276004582644498
     0.1698488897898245   11.2862709399971877   -0.0167664256009903
     0.0145920877709101    0.0156733117169813    7.8431080120209122
   Na   Ti   O    F 
    15    16    16    32
Direct
  0.4906562713624881  0.4858627674896682  0.8251615861096284
  0.9981136507616767  0.0147678842680024  0.2532258747616185
  0.9916327306164227  0.5147048808078385  0.2556120731046249
  0.4982098530485323  0.0102190902240861  0.2553716255880470
  0.0018263907025554  0.4822719353391111  0.7485650680545501
  0.0005675530092868  0.9858758935097021  0.7479665525582433
  0.4995613086936043  0.9859119064216342  0.7471373578866125
  0.2498193964022550  0.2280495899494841  0.7500224751162889
  0.2536100546941722  0.7211545742988072  0.7505116751091582
  0.7439035785764370  0.2281825031230206  0.7540294357070902
  0.7463438329206590  0.7237020909331516  0.7486823693642993
  0.2559412341099035  0.2744016124443968  0.2556943441800846
  0.2517568922169885  0.7625414477654399  0.2482742582008300
  0.7391199037405747  0.2710037708862549  0.2543008258022983
  0.7424595255572320  0.7644046103028699  0.2542165614695424
  0.2362015674768810  0.0027095792553884  0.0156889747520555
  0.2342681168175388  0.5040451243961364  0.0189146022569558
  0.7403828494010235  0.0054728371726545  0.0156549307848136
  0.7408852172226248  0.5075223862474378  0.0198115115752929
  0.0016587875993681  0.2399596465968614  0.9815427847143547
  0.0042136906827717  0.7422751424516839  0.9806823463259307
  0.5005632395656738  0.2362335809919625  0.9860755126141567
  0.5058173825677944  0.7430574598758315  0.9854029372726079
  0.2370690957678325  0.0032245566579011  0.4871169417260424
  0.2398797758286460  0.5049563592714462  0.4875262485405030
  0.7384930671719239  0.0059067781602737  0.4870719126303540
  0.7363101880703385  0.5053359162012652  0.4887739606302689
  0.0021932259485399  0.2404144080012268  0.5195758211875191
  0.0047056151690936  0.7406960328738279  0.5226867790048763
  0.5014424329046928  0.2423106642962935  0.5214364171848295
  0.5038093976132901  0.7386908613690789  0.5212208174551641
  0.1034568211299857  0.1039545622174407  0.9700211281079898
  0.1043627913426011  0.6067144435493321  0.9641584906154744
  0.6073289508215859  0.1049172710441127  0.9670052445957528
  0.6143489950363586  0.6139345258349292  0.9704791792506297
  0.1040477693773199  0.1045554701148501  0.5310741882721844
  0.1063179334181012  0.6060805576586726  0.5409360800946127
  0.6061448834014274  0.1063146374490662  0.5342106479352966
  0.6094214183002186  0.6090138205333780  0.5394966521235165
  0.4641583729719392  0.2555933568662928  0.7537326203041324
  0.4669657240408123  0.7614529233737811  0.7527965676920958
  0.9599825533396569  0.2541220040748071  0.7505837515094569
  0.9598005308040665  0.7610906921778028  0.7520501194115053
  0.2105034164973709  0.4930246593043901  0.2529941831812468
  0.2170783899031141  0.9825819659672811  0.2516371818647380
  0.7305826950981574  0.4881988776799638  0.2537418000474397
  0.7199147636137128  0.9868558151418589  0.2507366773692020
  0.3506141207938288  0.1431445290925180  0.0536883065657238
  0.3522300885805162  0.6471006805173327  0.0382428474121764
  0.8484671854619462  0.1537292822329791  0.0541723772785740
  0.8551037082739390  0.6519782526823590  0.0559386142394205
  0.1468124797357765  0.3519318633016547  0.9486416904087773
  0.1558643192719066  0.8476043313450561  0.9490419629045539
  0.6458614840814160  0.3548485907773413  0.9610362222152058
  0.6564326300047123  0.8524082826375637  0.9519856549483628
  0.3830105022797365  0.3831846995359183  0.0369081877285577
  0.4000633735404878  0.8997822714385556  0.0338063556099302
  0.9025679696946550  0.4005477789028192  0.0304791783663702
  0.9062365112893042  0.9040644956369560  0.0346681632387602
  0.1495166515182425  0.3511748104756121  0.5505159575776897
  0.1533196441220487  0.8497972364992288  0.5540278865362022
  0.6542281352394991  0.3475770664670924  0.5411569347984029
  0.6544421046860275  0.8510309806933208  0.5470146527376378
  0.3503607984377637  0.1463962663649014  0.4553726281343483
  0.3470296206813262  0.6538263132905472  0.4643672190978066
  0.8507095743511606  0.1508069720442451  0.4469605176309813
  0.8527107601167691  0.6506200733140802  0.4552154635855017
  0.3865552348894204  0.3864322684463058  0.4667726879318705
  0.4007305216563222  0.9010145229193692  0.4729500445271493
  0.9030736328862680  0.4005511412317135  0.4729582844109692
  0.9035378660488016  0.9013540492816541  0.4679294015903686
  0.0369437648394430  0.2517062789880669  0.2503573982441767
  0.0384673819913463  0.7510314232139133  0.2521138126526905
  0.5317960561519464  0.2393077887964651  0.2518954650593008
  0.5326981516576612  0.7646777003535501  0.2536451595956765
  0.2908421151669547  0.0158229047929757  0.7520286993050764
  0.2927004207061925  0.5098780311707402  0.7548155482198847
  0.7948004884666336  0.0173395499333484  0.7508269923672025
  0.7941487767194620  0.5121267898122653  0.7527225016514953
 
             NaN             NaN             NaN
             NaN             NaN             NaN
             NaN             NaN             NaN
             NaN             NaN             NaN
             NaN             NaN             NaN
             NaN             NaN             NaN
             NaN             NaN             NaN
             NaN             NaN             NaN
             NaN             NaN             NaN
             NaN             NaN             NaN
             NaN             NaN             NaN
             NaN             NaN             NaN
             NaN             NaN             NaN
             NaN             NaN             NaN
             NaN             NaN             NaN
             NaN             NaN             NaN
             NaN             NaN             NaN
             NaN             NaN             NaN
             NaN             NaN             NaN
             NaN             NaN             NaN
             NaN             NaN             NaN
             NaN             NaN             NaN
             NaN             NaN             NaN
             NaN             NaN             NaN
             NaN             NaN             NaN
             NaN             NaN             NaN
             NaN             NaN             NaN
             NaN             NaN             NaN
             NaN             NaN             NaN
             NaN             NaN             NaN
             NaN             NaN             NaN
             NaN             NaN             NaN
             NaN             NaN             NaN
             NaN             NaN             NaN
             NaN             NaN             NaN
             NaN             NaN             NaN
             NaN             NaN             NaN
             NaN             NaN             NaN
             NaN             NaN             NaN
             NaN             NaN             NaN
             NaN             NaN             NaN
             NaN             NaN             NaN
             NaN             NaN             NaN
             NaN             NaN             NaN
             NaN             NaN             NaN
             NaN             NaN             NaN
             NaN             NaN             NaN
             NaN             NaN             NaN
             NaN             NaN             NaN
             NaN             NaN             NaN
             NaN             NaN             NaN
             NaN             NaN             NaN
             NaN             NaN             NaN
             NaN             NaN             NaN
             NaN             NaN             NaN
             NaN             NaN             NaN
             NaN             NaN             NaN
             NaN             NaN             NaN
             NaN             NaN             NaN
             NaN             NaN             NaN
             NaN             NaN             NaN
             NaN             NaN             NaN
             NaN             NaN             NaN
             NaN             NaN             NaN
             NaN             NaN             NaN
             NaN             NaN             NaN
             NaN             NaN             NaN
             NaN             NaN             NaN
             NaN             NaN             NaN
             NaN             NaN             NaN
             NaN             NaN             NaN
             NaN             NaN             NaN
             NaN             NaN             NaN
             NaN             NaN             NaN
             NaN             NaN             NaN
             NaN             NaN             NaN
             NaN             NaN             NaN
             NaN             NaN             NaN
             NaN             NaN             NaN
