Na15 Ti16 O16 F32
1.0
  11.1125633436872047    0.1385632375844386   -0.0276004582644498
   0.1698488897898245   11.2862709399971877   -0.0167664256009903
   0.0145920877709101    0.0156733117169813    7.8431080120209122
Na Ti O F
15 16 16 32
direct
   0.4990567237504562    0.4866806536057008   -0.1667198549667373 Na
   0.9976550461365578    0.0146605566135754    0.2501149207236063 Na
   0.9959130410540862    0.5132413751532456    0.2491484275427593 Na
   0.4978346411587983    0.0111379325828190    0.2496767095200676 Na
   0.0016281695745134    0.4830649309949713    0.7509206801199564 Na
   1.0005198496540140    0.9845477142680987    0.7504098783759365 Na
   0.4996362515293639    0.9854660469258142    0.7499259921268319 Na
   0.2507954925889380    0.2278563357805314    0.7503564472207300 Na
   0.2522703657022275    0.7231611199763085    0.7499420714558480 Na
   0.7463207420656681    0.2258971374735958    0.7492355288713664 Na
   0.7469784115099646    0.7231636793690946    0.7504818510985271 Na
   0.2548922111199282    0.2751706196293048    0.2504992079369553 Na
   0.2493875632699002    0.7655808441629457    0.2496823620297805 Na
   0.7415651929763738    0.2693517056196592    0.2484678530493518 Na
   0.7442626784463664    0.7671690042113963    0.2482335026739420 Na
   0.2371932088157206    0.0036068081577727    0.0146078330022100 Ti
   0.2392741027815072    0.5050061404385378    0.0150886461431059 Ti
   0.7379669629814858    0.0044382346698390    0.0145609989149493 Ti
   0.7365279326448784    0.5048814740620560    0.0141353384650300 Ti
   0.0026444330646653    0.2403727626134055    0.9806891248287153 Ti
   0.0033009840626053    0.7401674624284778    0.9797669621067988 Ti
   0.5016272690576951    0.2403217994277478    0.9816355948325622 Ti
   0.5031043142775544    0.7383935702985960    0.9797425188124713 Ti
   0.2372813394865513    0.0034781604508981    0.4865724350924814 Ti
   0.2388919796136345    0.5053514866376903    0.4856565526001697 Ti
   0.7381421759325453    0.0049654872522881    0.4861472763037837 Ti
   0.7380920744748592    0.5046412960324905    0.4836959157830922 Ti
   0.0029601685815002    0.2403279776823340    0.5190644770909822 Ti
   0.0030774803507357    0.7402432332836465    0.5202761556447640 Ti
   0.5019585254959470    0.2410374485923610    0.5178527765294612 Ti
   0.5045648194657802    0.7380979225670160    0.5167347873368355 Ti
   0.1038541033137359    0.1041238731996473    0.9683891336894173 O
   0.1048497540561535    0.6051336932165933    0.9651436399111808 O
   0.6051624297167255    0.1043824163946562    0.9681363432892358 O
   0.6072380664984145    0.6071508940279219    0.9621172993559934 O
   0.1039993548985048    0.1040467269135763    0.5322419590703722 O
   0.1041382643970547    0.6046704447139828    0.5354679704719154 O
   0.6059122606162767    0.1055085092791089    0.5323899927695379 O
   0.6066624558480735    0.6085627453528646    0.5380216906196091 O
   0.4646650015563128    0.2546103239883490    0.7499399215050940 O
   0.4655321223039602    0.7613288020163140    0.7526385749265809 O
   0.9612492294660775    0.2565973127386300    0.7497456024076559 O
   0.9604558213810985    0.7598749609341323    0.7500891378418761 O
   0.2153570502339092    0.4916876667601395    0.2502874592770455 O
   0.2180031161371548    0.9841932985586916    0.2506188824845221 O
   0.7259161232278650    0.4875220494336734    0.2496571987399138 O
   0.7187984120034612    0.9868638089613903    0.2504409139084154 O
   0.3492208008128126    0.1483674198841982    0.0490528671051812 F
   0.3479951734159408    0.6535665628387937    0.0403395092809235 F
   0.8497603027595562    0.1508515096468113    0.0512874302175301 F
   0.8504657428352747    0.6510885273376190    0.0479724935108403 F
   0.1512607909068374    0.3503567377237435    0.9516492648383161 F
   0.1536791602144638    0.8487650731001710    0.9501425261758738 F
   0.6528962847403388    0.3481261657184922    0.9562988561901752 F
   0.6546640828710957    0.8481348641412516    0.9560807769868211 F
   0.3913063305707450    0.3909788922777098    0.0296975191698816 F
   0.4010009687658035    0.9004561221078989    0.0321226705540334 F
   0.9022391453471532    0.4004597655687135    0.0311643864355535 F
   0.9031408024885974    0.9010887479602675    0.0348196855068760 F
   0.1520956500756189    0.3498228089740109    0.5479746153492956 F
   0.1539248625942784    0.8484912592560130    0.5507018448977452 F
   0.6516009584995178    0.3502425512042932    0.5436070303003169 F
   0.6533290814483400    0.8502632890984670    0.5473827771515865 F
   0.3499395667500416    0.1478756596067975    0.4516090197758623 F
   0.3469541155050022    0.6545063167728444    0.4620038581511330 F
   0.8495800066695339    0.1514904965250298    0.4485592911278670 F
   0.8499289765683248    0.6515451045282022    0.4517750335447930 F
   0.3915798364741052    0.3915994960101342    0.4703087712251728 F
   0.4026076858353785    0.8993407459784267    0.4694723430999418 F
   0.9021141834477707    0.4004950959790436    0.4684433015892143 F
   0.9032292670913948    0.9014690098416943    0.4660240715080260 F
   0.0363236241719904    0.2510264784124085    0.2498852976601386 F
   0.0355206681665696    0.7494404789575952    0.2500392710620604 F
   0.5322491306523083    0.2432046928359476    0.2497107535855851 F
   0.5330783419087501    0.7588270714665175    0.2475859174333493 F
   0.2916747218488925    0.0151203060083214    0.7502134932883193 F
   0.2914200039622046    0.5139326388991416    0.7501748217465467 F
   0.7932361779647880    0.0149134488548493    0.7502929788349830 F
   0.7936438373569660    0.5119922150327038    0.7495063311613425 F
