V8 O8 F16                               
   1.00000000000000     
     7.4851470950935575   -0.0000006800818847    0.0024391180625003
    -0.0000006086070426    7.6754901329656944    0.0000022216205414
     0.0000481289358950    0.0000008050016934    7.5800852748583631
   V    O    F 
     8     8    16
Direct
  0.9831965773107492 -0.0000000090332113  0.0027644797082688
  0.0055272073078210  0.0000000632751489  0.5254694553261183
  0.9682682578197997  0.4999999559930599  0.9993027973085584
  0.9678701714663399  0.4999999983676669  0.4977779041524329
  0.5044352402345383  0.0000000826146135  0.0231232794552858
  0.5280002656839173  0.0000000484360950  0.4985783216852079
  0.4670912038625075  0.4999999783203767  0.9960267403883268
  0.4670334049267028  0.4999999861903470  0.4970548781025138
  0.2485404986900120  0.4999999693150454  0.4989592698231738
  0.7494149655424995  0.4999998473257345  0.9994892186778525
  0.7490467344229681  0.5000000468729124  0.4973343585504186
  0.0054024989348222  0.0000004678601689  0.7450068110124026
  0.5038989154462319  0.0000008690707328  0.2428390196939010
  0.2486776552613303  0.5000000774552295  0.9972134504284669
  0.7600501217585299  0.0000001214002480  0.0017250519384832
  0.7512977404324948  0.0000000100100463  0.4980348278296265
  0.0127475560244004  0.9999993086516614  0.2567908434420588
  0.5028877987748124  0.9999988269661726  0.7546233690746511
  0.2630953090356912  0.0000001161001465  0.4977804466556962
  0.0081071112382616  0.7492356921581032  0.0033436114027135
  0.5018985774653729  0.2499348337013828  0.9929159978213608
  0.0077206481490603  0.5000010835405330  0.2486418479029953
  0.0050696403681654  0.4999989241903711  0.7483988151983010
  0.5059347504386845  0.4999980479976570  0.2467792232601523
  0.5081495018796833  0.5000019063319912  0.7470056389321637
  0.2477713169266384 -0.0000002021419261  0.9953250029197472
  0.0081082350154788  0.2507648490055233  0.0033442120621812
  0.0076145960746330  0.2502392503746571  0.4955078145973816
  0.0076146651915210  0.7497607743804156  0.4955093821902762
  0.5018149838686075  0.2504323480616902  0.5002090909284648
  0.5018989380450478  0.7500649926873981  0.9929190220256616
  0.5018149124026648  0.7495677345200019  0.5002058175051570
 
  0.00000000E+00  0.00000000E+00  0.00000000E+00
  0.00000000E+00  0.00000000E+00  0.00000000E+00
  0.00000000E+00  0.00000000E+00  0.00000000E+00
  0.00000000E+00  0.00000000E+00  0.00000000E+00
  0.00000000E+00  0.00000000E+00  0.00000000E+00
  0.00000000E+00  0.00000000E+00  0.00000000E+00
  0.00000000E+00  0.00000000E+00  0.00000000E+00
  0.00000000E+00  0.00000000E+00  0.00000000E+00
  0.00000000E+00  0.00000000E+00  0.00000000E+00
  0.00000000E+00  0.00000000E+00  0.00000000E+00
  0.00000000E+00  0.00000000E+00  0.00000000E+00
  0.00000000E+00  0.00000000E+00  0.00000000E+00
  0.00000000E+00  0.00000000E+00  0.00000000E+00
  0.00000000E+00  0.00000000E+00  0.00000000E+00
  0.00000000E+00  0.00000000E+00  0.00000000E+00
  0.00000000E+00  0.00000000E+00  0.00000000E+00
  0.00000000E+00  0.00000000E+00  0.00000000E+00
  0.00000000E+00  0.00000000E+00  0.00000000E+00
  0.00000000E+00  0.00000000E+00  0.00000000E+00
  0.00000000E+00  0.00000000E+00  0.00000000E+00
  0.00000000E+00  0.00000000E+00  0.00000000E+00
  0.00000000E+00  0.00000000E+00  0.00000000E+00
  0.00000000E+00  0.00000000E+00  0.00000000E+00
  0.00000000E+00  0.00000000E+00  0.00000000E+00
  0.00000000E+00  0.00000000E+00  0.00000000E+00
  0.00000000E+00  0.00000000E+00  0.00000000E+00
  0.00000000E+00  0.00000000E+00  0.00000000E+00
  0.00000000E+00  0.00000000E+00  0.00000000E+00
  0.00000000E+00  0.00000000E+00  0.00000000E+00
  0.00000000E+00  0.00000000E+00  0.00000000E+00
  0.00000000E+00  0.00000000E+00  0.00000000E+00
  0.00000000E+00  0.00000000E+00  0.00000000E+00
