Na8 Co8 O16 F8                          
   1.00000000000000     
     7.4779473664089444    0.0190963084740109   -0.0181968204331351
     0.0425050271766258    7.5543192039633489    0.0396701168386054
    -0.0293755564670937    0.0247397495015588    7.4841962771488211
   Na   Co   O    F 
     8     8    16     8
Direct
  0.2516845123628613  0.2482479995534094  0.2414657282967740
  0.2485878419022724  0.2429941913504505  0.7413285553638933
  0.2554016927805304  0.7423077945500370  0.2506807780402714
  0.2491100992672861  0.7558477210047166  0.7399810756260774
  0.7451347474793371  0.2454383976381381  0.2692956403712934
  0.7511757147236438  0.2523165068714998  0.7390000172821168
  0.7458827410836714  0.7519794910323020  0.2562629761966503
  0.7427228051214945  0.7640813032563946  0.7521707662631499
  0.9933591181367208  0.9974425434490207  0.0039503238929243
  0.0176274661549574  0.0025229138964487  0.4943134251556578
  0.9848555010025749  0.5105680587871247  0.9865904943128997
  0.0004664525492786  0.5025231815150586  0.5070129157640370
  0.4969030020017953  0.9975798390109223  0.9872834246711052
  0.4956826288719544  0.0010822989504885  0.4898058364029358
  0.5093608240636012  0.4943036972272226  0.9942973846273034
  0.5029476201142262  0.5001615475946218  0.5039111497503548
  0.2247553680075728  0.9759401494168268  0.0466335783233542
  0.2416482115852745  0.0013601359833290  0.4469212991731492
  0.2577985302318367  0.5354624694611829  0.9651818048054107
  0.7641659148580218  0.0299371837043115  0.9554370809878260
  0.7565181218704012  0.4559899095710624  0.0505956806064997
  0.0183586265611608  0.2490844585822932  0.0037198390503205
  0.9997766723991985  0.2704861438091139  0.5063698350673669
  0.9659929000848344  0.7484032276765635  0.0124522092324646
  0.9994260464878856  0.7330044232940415  0.4965377006274556
  0.5035442030454097  0.2700389189002756  0.5081322022119815
  0.5005845694325562  0.7293038276439040  0.4913000225191396
  0.9525778182944326  0.5069958513574688  0.7517825971292066
  0.5319290323218440  0.0111650704227249  0.2540177872662239
  0.4649830691150210  0.9834540273187840  0.7462291466132579
  0.4531016025472577  0.4897239025852739  0.2218408374839118
  0.5592138025949328  0.5050275898295383  0.7670366638495851
  0.2560067258263788  0.5014018081551358  0.5788566053350082
  0.7618275493869315  0.0020888961414387  0.5577408624965998
  0.7491821214850574  0.5003110458227146  0.4245432461623244
  0.4407711079981153  0.2425400849133554  0.9804302404762273
  0.5586502511486564  0.7528170853363624  0.0173241685946201
  0.9178185506239840  0.0038737157372964  0.2598697073156482
  0.0614169517151144  0.9931873586955593  0.7466272184834114
  0.0690494847619162  0.4990052299535802  0.2530691741715627
 
  0.00000000E+00  0.00000000E+00  0.00000000E+00
  0.00000000E+00  0.00000000E+00  0.00000000E+00
  0.00000000E+00  0.00000000E+00  0.00000000E+00
  0.00000000E+00  0.00000000E+00  0.00000000E+00
  0.00000000E+00  0.00000000E+00  0.00000000E+00
  0.00000000E+00  0.00000000E+00  0.00000000E+00
  0.00000000E+00  0.00000000E+00  0.00000000E+00
  0.00000000E+00  0.00000000E+00  0.00000000E+00
  0.00000000E+00  0.00000000E+00  0.00000000E+00
  0.00000000E+00  0.00000000E+00  0.00000000E+00
  0.00000000E+00  0.00000000E+00  0.00000000E+00
  0.00000000E+00  0.00000000E+00  0.00000000E+00
  0.00000000E+00  0.00000000E+00  0.00000000E+00
  0.00000000E+00  0.00000000E+00  0.00000000E+00
  0.00000000E+00  0.00000000E+00  0.00000000E+00
  0.00000000E+00  0.00000000E+00  0.00000000E+00
  0.00000000E+00  0.00000000E+00  0.00000000E+00
  0.00000000E+00  0.00000000E+00  0.00000000E+00
  0.00000000E+00  0.00000000E+00  0.00000000E+00
  0.00000000E+00  0.00000000E+00  0.00000000E+00
  0.00000000E+00  0.00000000E+00  0.00000000E+00
  0.00000000E+00  0.00000000E+00  0.00000000E+00
  0.00000000E+00  0.00000000E+00  0.00000000E+00
  0.00000000E+00  0.00000000E+00  0.00000000E+00
  0.00000000E+00  0.00000000E+00  0.00000000E+00
  0.00000000E+00  0.00000000E+00  0.00000000E+00
  0.00000000E+00  0.00000000E+00  0.00000000E+00
  0.00000000E+00  0.00000000E+00  0.00000000E+00
  0.00000000E+00  0.00000000E+00  0.00000000E+00
  0.00000000E+00  0.00000000E+00  0.00000000E+00
  0.00000000E+00  0.00000000E+00  0.00000000E+00
  0.00000000E+00  0.00000000E+00  0.00000000E+00
  0.00000000E+00  0.00000000E+00  0.00000000E+00
  0.00000000E+00  0.00000000E+00  0.00000000E+00
  0.00000000E+00  0.00000000E+00  0.00000000E+00
  0.00000000E+00  0.00000000E+00  0.00000000E+00
  0.00000000E+00  0.00000000E+00  0.00000000E+00
  0.00000000E+00  0.00000000E+00  0.00000000E+00
  0.00000000E+00  0.00000000E+00  0.00000000E+00
  0.00000000E+00  0.00000000E+00  0.00000000E+00
