Sodium ferrate(III) - beta              
   1.00000000000000     
     3.0412250612338854    0.0009938831549159   -0.0075175671755663
    -1.5197011399532283    2.6318482964543595    0.0003011319767046
    -0.0232941695646391   -0.0121672824261319    7.7849047142626553
   Fe   Na   O 
     2     1     3
Direct
  0.3338665026803602  0.6653529089432431  0.1673814248298792
  0.6664387599201638  0.3318796369911079  0.8325998948960560
  0.0000111598788227  0.0020704635972724  0.4999735685003356
  0.9998391347274463  0.9786659385380424  0.0002464911401176
  0.3423113759055276  0.6828330450204235  0.7023158941287240
  0.6575330068876750  0.3391980069099103  0.2974826965048847
 
  0.00000000E+00  0.00000000E+00  0.00000000E+00
  0.00000000E+00  0.00000000E+00  0.00000000E+00
  0.00000000E+00  0.00000000E+00  0.00000000E+00
  0.00000000E+00  0.00000000E+00  0.00000000E+00
  0.00000000E+00  0.00000000E+00  0.00000000E+00
  0.00000000E+00  0.00000000E+00  0.00000000E+00
