Mn8 O8 F16                              
   1.00000000000000     
     6.9278660941000929   -0.1904866414113889   -0.3188327783720514
    -0.1495368592865420    6.8371791165932452    0.4210386723270070
    -0.3116719884559491    0.1312180669755469    7.4303660910942835
   Mn   O    F 
     8     8    16
Direct
  0.9958870469887984  0.0107214808220633  0.0032553476483628
  0.0054224635437379  0.9872484753889097  0.5013308308114475
  0.9969639953503986  0.4924842803280640  0.0003790360347864
  0.9936200197418827  0.5125430287627921  0.4995289465124344
  0.5030794686354909  0.0051887582762546  0.0004132735516080
  0.4941159208201782  0.9966950983227818  0.5002756173416358
  0.5067828779939418  0.4966514228673446  0.9975027125144109
  0.5063017878375433  0.4974193333023180  0.5006625561961471
  0.2551851660487046  0.9024976668475944  0.5586178310464192
  0.2497002376777431  0.5907634192127915  0.4401079490559141
  0.7469487929659948  0.4104935991568368  0.5559045107701692
  0.5996825518586917  0.2508095543728359  0.0585344763028033
  0.7459145219452736  0.0819673310006053  0.4401057853832953
  0.8974130014507509  0.2512832955082374  0.9402793286479678
  0.9128924513900074  0.7539589771569055  0.4325673208900298
  0.4153131296059414  0.7504467697278159  0.9415088670456626
  0.0645015127704411  0.0661936384302280  0.2672127970224949
  0.5595679936251940  0.0580790989296531  0.7326894637409396
  0.7498132520775158  0.5943693596393018  0.9236009517145476
  0.0849585871249303  0.7519850942067023  0.0554817230124698
  0.9466159489665316  0.9348436651403489  0.7382011246806286
  0.9406092097390513  0.4447124518320820  0.2635546510229716
  0.0611730808699420  0.5591342935727681  0.7378282458326453
  0.4383280169358130  0.9381320161333235  0.2658054884836503
  0.5579586467657691  0.5653713255055592  0.2668858589820786
  0.4407841646605775  0.4322095363660523  0.7317319467233432
  0.2500822351938012  0.0919178317006129  0.9332401968166906
  0.2544823644046943  0.4143297884355732  0.0716604671335332
  0.7505062082804699  0.9109030317705020  0.0747711609561676
  0.0795045694746079  0.2501009133367589  0.5632593872480811
  0.4137006517550290  0.2498951171717252  0.4313827594979855
  0.5821901235005456  0.7466503467746790  0.5717193873786712
 
  0.00000000E+00  0.00000000E+00  0.00000000E+00
  0.00000000E+00  0.00000000E+00  0.00000000E+00
  0.00000000E+00  0.00000000E+00  0.00000000E+00
  0.00000000E+00  0.00000000E+00  0.00000000E+00
  0.00000000E+00  0.00000000E+00  0.00000000E+00
  0.00000000E+00  0.00000000E+00  0.00000000E+00
  0.00000000E+00  0.00000000E+00  0.00000000E+00
  0.00000000E+00  0.00000000E+00  0.00000000E+00
  0.00000000E+00  0.00000000E+00  0.00000000E+00
  0.00000000E+00  0.00000000E+00  0.00000000E+00
  0.00000000E+00  0.00000000E+00  0.00000000E+00
  0.00000000E+00  0.00000000E+00  0.00000000E+00
  0.00000000E+00  0.00000000E+00  0.00000000E+00
  0.00000000E+00  0.00000000E+00  0.00000000E+00
  0.00000000E+00  0.00000000E+00  0.00000000E+00
  0.00000000E+00  0.00000000E+00  0.00000000E+00
  0.00000000E+00  0.00000000E+00  0.00000000E+00
  0.00000000E+00  0.00000000E+00  0.00000000E+00
  0.00000000E+00  0.00000000E+00  0.00000000E+00
  0.00000000E+00  0.00000000E+00  0.00000000E+00
  0.00000000E+00  0.00000000E+00  0.00000000E+00
  0.00000000E+00  0.00000000E+00  0.00000000E+00
  0.00000000E+00  0.00000000E+00  0.00000000E+00
  0.00000000E+00  0.00000000E+00  0.00000000E+00
  0.00000000E+00  0.00000000E+00  0.00000000E+00
  0.00000000E+00  0.00000000E+00  0.00000000E+00
  0.00000000E+00  0.00000000E+00  0.00000000E+00
  0.00000000E+00  0.00000000E+00  0.00000000E+00
  0.00000000E+00  0.00000000E+00  0.00000000E+00
  0.00000000E+00  0.00000000E+00  0.00000000E+00
  0.00000000E+00  0.00000000E+00  0.00000000E+00
  0.00000000E+00  0.00000000E+00  0.00000000E+00
