Na4 Mn4 O8 F4                           
   1.00000000000000     
     5.2616124240489031    0.0000066134501689    0.0193050136274903
     0.0000069637235450    5.2743591146171216   -0.0000060770203449
     0.0304590830789460   -0.0000083027974712    7.2320601976104975
   Na   Mn   O    F 
     4     4     8     4
Direct
  0.9968305310698222  0.0346598022269773  0.2451527031354093
  0.0031740665536797  0.9653019666720266  0.7548508262728891
  0.4968298636602279  0.4653408148413731  0.7451525326523144
  0.5031729168885111  0.5346975243801693  0.2548506110933743
  0.5000808374315482  0.0000181029664488 -0.0000034177919559
  0.0000551899958772  0.5000411063622701  0.0000455070345744
  0.5000465161487403 -0.0000368808120696  0.5000404106114708
  0.0000896822246726  0.4999763998416325  0.4999893222682616
  0.2189323009447142  0.2196330409811954  0.9562954981945784
  0.7810330564943726  0.7803582772381412  0.0436943218163502
  0.2810345312030690  0.7196417765795788  0.5436960615802557
  0.7189313601380534  0.2803664290046696  0.4562963926782547
  0.0798487639820243  0.4852057327386965  0.2496854840035077
  0.9201021812317638  0.5147720461888778  0.7503095538826691
  0.5798519298863126  0.0147943520325890  0.7496875923657204
  0.4201059414058562  0.9852288452357716  0.2503083515656389
  0.7133055655435049  0.2853337351695945  0.0454656178020764
  0.2866355603845125  0.7146178505056999  0.9545078988462037
  0.7866345740870450  0.7853848288530086  0.4545073562234662
  0.2133046307257067  0.2146642489933487  0.5454673757649338
 
  0.00000000E+00  0.00000000E+00  0.00000000E+00
  0.00000000E+00  0.00000000E+00  0.00000000E+00
  0.00000000E+00  0.00000000E+00  0.00000000E+00
  0.00000000E+00  0.00000000E+00  0.00000000E+00
  0.00000000E+00  0.00000000E+00  0.00000000E+00
  0.00000000E+00  0.00000000E+00  0.00000000E+00
  0.00000000E+00  0.00000000E+00  0.00000000E+00
  0.00000000E+00  0.00000000E+00  0.00000000E+00
  0.00000000E+00  0.00000000E+00  0.00000000E+00
  0.00000000E+00  0.00000000E+00  0.00000000E+00
  0.00000000E+00  0.00000000E+00  0.00000000E+00
  0.00000000E+00  0.00000000E+00  0.00000000E+00
  0.00000000E+00  0.00000000E+00  0.00000000E+00
  0.00000000E+00  0.00000000E+00  0.00000000E+00
  0.00000000E+00  0.00000000E+00  0.00000000E+00
  0.00000000E+00  0.00000000E+00  0.00000000E+00
  0.00000000E+00  0.00000000E+00  0.00000000E+00
  0.00000000E+00  0.00000000E+00  0.00000000E+00
  0.00000000E+00  0.00000000E+00  0.00000000E+00
  0.00000000E+00  0.00000000E+00  0.00000000E+00
