Na4 Co4 O8 F4                           
   1.00000000000000     
     5.4546059343040820   -0.0422345348420261    0.0943754167726839
    -2.7505686846457360    4.6470992261941673   -0.0353233613770272
     0.0655990114277112   -0.1031974659856879    9.0481483221576795
   Na   Co   O    F 
     4     4     8     4
Direct
  0.0540751064166511  0.0422860112311313  0.0061648855583173
  0.9845197213704432 -0.0044944412232747  0.4226167507611964
  0.3258798111066588  0.6462833768990308  0.2611440859986779
  0.6250806047643471  0.3096072714022193  0.7425955097344457
  0.3082833104163656  0.6442989134403427  0.6047740848174373
  0.6389235040096206  0.3315270363019168  0.4054994132562688
  0.6934676946859898  0.3410870003809318  0.1051333776272064
  0.3451974237987019  0.6833530317962847  0.8966784064034152
  0.5003360724632029  0.0588794328310074  0.9795540522844940
  0.0847222959216311  0.5020274950477995  0.0272473411973495
  0.4211096498626012  0.0382391655865155  0.5093189572231126
  0.0080399326040497  0.4310049958148021  0.5023273769130828
  0.5590101782642090  0.5992743762088323  0.4906090087624328
  0.8560520337406085  0.5926932798740699  0.2699910424405821
  0.5870993250463908  0.8380714570059182  0.7423590450849453
  0.0935307683305885  0.6968778328614289  0.7490141513936053
  0.6430047587182794  0.6328740559854729  0.0024059612918346
  0.2254327788477227  0.3120807759311324  0.7856306015692189
  0.3247778136152965  0.2233091983847909  0.2353043564376781
  0.7214572160166500  0.0807197342396466  0.2616315912447056
 
  0.00000000E+00  0.00000000E+00  0.00000000E+00
  0.00000000E+00  0.00000000E+00  0.00000000E+00
  0.00000000E+00  0.00000000E+00  0.00000000E+00
  0.00000000E+00  0.00000000E+00  0.00000000E+00
  0.00000000E+00  0.00000000E+00  0.00000000E+00
  0.00000000E+00  0.00000000E+00  0.00000000E+00
  0.00000000E+00  0.00000000E+00  0.00000000E+00
  0.00000000E+00  0.00000000E+00  0.00000000E+00
  0.00000000E+00  0.00000000E+00  0.00000000E+00
  0.00000000E+00  0.00000000E+00  0.00000000E+00
  0.00000000E+00  0.00000000E+00  0.00000000E+00
  0.00000000E+00  0.00000000E+00  0.00000000E+00
  0.00000000E+00  0.00000000E+00  0.00000000E+00
  0.00000000E+00  0.00000000E+00  0.00000000E+00
  0.00000000E+00  0.00000000E+00  0.00000000E+00
  0.00000000E+00  0.00000000E+00  0.00000000E+00
  0.00000000E+00  0.00000000E+00  0.00000000E+00
  0.00000000E+00  0.00000000E+00  0.00000000E+00
  0.00000000E+00  0.00000000E+00  0.00000000E+00
  0.00000000E+00  0.00000000E+00  0.00000000E+00
