Ni2 O2 F4                               
   1.00000000000000     
     3.7256304270003322   -0.0000913400908862   -0.0000568253750469
     0.0009926287027520    3.7900026787195693   -0.0090774822936868
    -0.0003494217166933   -0.0186514557783596    7.4519510432141205
   Ni   O    F 
     2     2     4
Direct
  0.4999856318617764  0.4996530617637714  0.2554952266756704
  0.4999269060635426  0.4999033305396633  0.7572483105192346
  0.5003256050964369  0.4982376721847171  0.0129886614756719
  0.0000683214937040  0.4998772813608147  0.7559845506117320
  0.4998261092830380  0.5022116426545457  0.5006020240450622
  0.4998648364224420 -0.0002794183898521  0.2408136496778563
  0.5001437558000766  0.0000284711908677  0.7617548806711177
 -0.0001411660210235  0.5003679586954721  0.2581126963236401
 
  0.00000000E+00  0.00000000E+00  0.00000000E+00
  0.00000000E+00  0.00000000E+00  0.00000000E+00
  0.00000000E+00  0.00000000E+00  0.00000000E+00
  0.00000000E+00  0.00000000E+00  0.00000000E+00
  0.00000000E+00  0.00000000E+00  0.00000000E+00
  0.00000000E+00  0.00000000E+00  0.00000000E+00
  0.00000000E+00  0.00000000E+00  0.00000000E+00
  0.00000000E+00  0.00000000E+00  0.00000000E+00
