Fe4 O4 F8                               
   1.00000000000000     
     4.9359519291156575    0.0999890043007197   -0.0527939262023053
     0.1263058422526168    5.3774677484254205   -0.0460047174379694
    -0.0637813590658011   -0.0863601585394057    7.1703425320889451
   Fe   O    F 
     4     4     8
Direct
  0.5059022276711199  0.0078765307624049  0.0013139393002577
  0.0175668503034876  0.4958738757370174  0.9923744289801465
  0.4758378201690617  0.0172652986885422  0.5117401959209135
  0.9982190845220343  0.4938656661608533  0.5020666702853851
  0.2018180831547256  0.1979176953922154  0.9052067351889476
  0.7319498921834308  0.7733098863550797  0.4146965117677396
  0.2099443392552282  0.2137931407719884  0.5924549379890253
  0.3707523749637515  0.9903954713746954  0.2600357572788197
  0.7071254187896221  0.3040105622891088  0.0557614914436720
  0.3282731203662213  0.6953766074980887  0.9503627949359942
  0.8292984609132732  0.8074625904901997  0.0658494269531014
  0.2809968983091961  0.7141358011942318  0.5627708395331941
  0.7020309808658179  0.2897559967402910  0.4420373423478597
  0.1360613834736099  0.4475672210531597  0.2514203806227640
  0.8570542800229022  0.5461709489798499  0.7464877961413493
  0.6471687850365039  0.0052227065122813  0.7454207513108306
 
  0.00000000E+00  0.00000000E+00  0.00000000E+00
  0.00000000E+00  0.00000000E+00  0.00000000E+00
  0.00000000E+00  0.00000000E+00  0.00000000E+00
  0.00000000E+00  0.00000000E+00  0.00000000E+00
  0.00000000E+00  0.00000000E+00  0.00000000E+00
  0.00000000E+00  0.00000000E+00  0.00000000E+00
  0.00000000E+00  0.00000000E+00  0.00000000E+00
  0.00000000E+00  0.00000000E+00  0.00000000E+00
  0.00000000E+00  0.00000000E+00  0.00000000E+00
  0.00000000E+00  0.00000000E+00  0.00000000E+00
  0.00000000E+00  0.00000000E+00  0.00000000E+00
  0.00000000E+00  0.00000000E+00  0.00000000E+00
  0.00000000E+00  0.00000000E+00  0.00000000E+00
  0.00000000E+00  0.00000000E+00  0.00000000E+00
  0.00000000E+00  0.00000000E+00  0.00000000E+00
  0.00000000E+00  0.00000000E+00  0.00000000E+00
