Co4 O4 F8                               
    1.000000000000000     
     5.0052655518744853   -0.0008951300215480    0.0402201460348793
    -0.0252965349491538    5.2168109872401995   -0.0113511380041854
     0.0311613412268231   -0.0383214147694105    7.3565191195795814
   Co   O    F 
     4     4     8
Direct
  0.4870000983749012  0.0040755506191096  0.0014038077887520
 -0.0010101372183036  0.5046725504427745  0.0084289191086107
  0.4840017641440483  0.0094761185507805  0.5000093157653979
  0.9905462723588665  0.5082898285535520  0.5018025975338668
  0.9241927868826745  0.5247813852617712  0.7517125763850990
  0.4041020238875858  0.9544468436448063  0.2492978529397048
  0.1755391723447319  0.1831197759932101  0.9526355510925256
  0.1661376088964955  0.1894916646360623  0.5427160622536573
  0.1172657929776944  0.4626462619847836  0.2510576253911578
  0.6072237779149040  0.0403541634123910  0.7494783460126891
  0.6797989902172700  0.3078046190834362  0.0597292072031399
  0.3279035498047964  0.6869906965701468  0.9382170785773949
  0.8250687049042131  0.8138060060407549  0.0512696114178837
  0.3233045742134721  0.6960384257359984  0.5593081311799309
  0.6741594467103964  0.3072070913867041  0.4432328479145452
  0.8147655735862459  0.8067990180837050  0.4397004694356589
 
  0.00000000E+00  0.00000000E+00  0.00000000E+00
  0.00000000E+00  0.00000000E+00  0.00000000E+00
  0.00000000E+00  0.00000000E+00  0.00000000E+00
  0.00000000E+00  0.00000000E+00  0.00000000E+00
  0.00000000E+00  0.00000000E+00  0.00000000E+00
  0.00000000E+00  0.00000000E+00  0.00000000E+00
  0.00000000E+00  0.00000000E+00  0.00000000E+00
  0.00000000E+00  0.00000000E+00  0.00000000E+00
  0.00000000E+00  0.00000000E+00  0.00000000E+00
  0.00000000E+00  0.00000000E+00  0.00000000E+00
  0.00000000E+00  0.00000000E+00  0.00000000E+00
  0.00000000E+00  0.00000000E+00  0.00000000E+00
  0.00000000E+00  0.00000000E+00  0.00000000E+00
  0.00000000E+00  0.00000000E+00  0.00000000E+00
  0.00000000E+00  0.00000000E+00  0.00000000E+00
  0.00000000E+00  0.00000000E+00  0.00000000E+00
