Co4 O4 F8                               
   1.00000000000000     
     5.5448013690482130    0.0308968389132784    0.0000022708430680
    -2.7358541612310034    4.7265149802861970   -0.0000035104706799
     0.0000043807091691   -0.0000051980760883    9.4898179855451943
   Co   O    F 
     4     4     8
Direct
  0.3324218452216418  0.6651102400068033  0.6077583873558677
  0.6796925616577855  0.3410830891043708  0.3942988450889169
  0.6796930894785693  0.3410827333956317  0.1057017179426638
  0.3324226287348783  0.6651099831394180  0.8922413127225672
  0.9942625540195725  0.5006304101337435  0.9976522258825320
  0.9942608499818621  0.5006299123112586  0.5023482244655689
  0.6258645705310829  0.8049936907716796  0.7500002294015778
  0.8039556958749463  0.1698601635911886  0.2500003154698010
  0.4940977350003163  0.0037155293147155  0.9979877461009776
  0.4912172000512370  0.5045030436600213  0.0076105361646554
  0.4940965310857804  0.0037156617964995  0.5020119935058305
  0.4912178294887729  0.5045045201486091  0.4923891972542403
  0.8300823510674581  0.6319407504815585  0.2500002918379132
  0.1823762271849494  0.3666871631918075  0.7499982242206743
  0.3850141713147576  0.1797922749215596  0.2500002616854137
  0.1893241593063966  0.8166408340311420  0.7500004909008069
 
  0.00000000E+00  0.00000000E+00  0.00000000E+00
  0.00000000E+00  0.00000000E+00  0.00000000E+00
  0.00000000E+00  0.00000000E+00  0.00000000E+00
  0.00000000E+00  0.00000000E+00  0.00000000E+00
  0.00000000E+00  0.00000000E+00  0.00000000E+00
  0.00000000E+00  0.00000000E+00  0.00000000E+00
  0.00000000E+00  0.00000000E+00  0.00000000E+00
  0.00000000E+00  0.00000000E+00  0.00000000E+00
  0.00000000E+00  0.00000000E+00  0.00000000E+00
  0.00000000E+00  0.00000000E+00  0.00000000E+00
  0.00000000E+00  0.00000000E+00  0.00000000E+00
  0.00000000E+00  0.00000000E+00  0.00000000E+00
  0.00000000E+00  0.00000000E+00  0.00000000E+00
  0.00000000E+00  0.00000000E+00  0.00000000E+00
  0.00000000E+00  0.00000000E+00  0.00000000E+00
  0.00000000E+00  0.00000000E+00  0.00000000E+00
