Mn4 O4 F8                               
   1.00000000000000     
     5.0044064658914849    0.0024843720501676   -0.0093502925113642
    -0.0003034475511846    5.2976398908711744    0.0075953125394190
    -0.0694448390147223   -0.0104100989692385    6.9084151427631921
   Mn   O    F 
     4     4     8
Direct
  0.4976020393979814  0.9988715074483148  0.0083021270832768
  0.0002673510306013  0.5006784044653699  0.9939958015778275
  0.5001406846997680 -0.0007244177875724  0.4939892422893119
  0.9973853388820000  0.5011956302142748  0.5083401458373270
  0.1299655347724586  0.4795161023518215  0.2494251462385100
  0.8662171742702690  0.5255898883642890  0.7481168769258072
  0.6302351027043226  0.0201622447197825  0.7493665092742499
  0.3661139320936737  0.9748012189588904  0.2480035893450760
  0.6801826868980354  0.2902624997568479  0.0625105045072665
  0.3239382723771143  0.7065765010492254  0.9373127098186704
  0.2031564830873142  0.1855603985489656  0.9341500515134541
  0.7995184462754005  0.8152417153532041  0.0663132538425747
  0.2987413989167401  0.6851818311277912  0.5660366257594150
  0.7032243616685259  0.3142447955077602  0.4343742170859141
  0.8228758426650548  0.7929653299689919  0.4370911661245796
  0.1804353502607473  0.2098763499520433  0.5626720327767248
 
  0.00000000E+00  0.00000000E+00  0.00000000E+00
  0.00000000E+00  0.00000000E+00  0.00000000E+00
  0.00000000E+00  0.00000000E+00  0.00000000E+00
  0.00000000E+00  0.00000000E+00  0.00000000E+00
  0.00000000E+00  0.00000000E+00  0.00000000E+00
  0.00000000E+00  0.00000000E+00  0.00000000E+00
  0.00000000E+00  0.00000000E+00  0.00000000E+00
  0.00000000E+00  0.00000000E+00  0.00000000E+00
  0.00000000E+00  0.00000000E+00  0.00000000E+00
  0.00000000E+00  0.00000000E+00  0.00000000E+00
  0.00000000E+00  0.00000000E+00  0.00000000E+00
  0.00000000E+00  0.00000000E+00  0.00000000E+00
  0.00000000E+00  0.00000000E+00  0.00000000E+00
  0.00000000E+00  0.00000000E+00  0.00000000E+00
  0.00000000E+00  0.00000000E+00  0.00000000E+00
  0.00000000E+00  0.00000000E+00  0.00000000E+00
