Na4 Cr4 O8 F4                           
   1.00000000000000     
     5.4756733500818537   -0.0566196191915628   -0.1260165989849806
    -2.7864248130677369    4.7137898330752392   -0.1297334286873278
    -0.0759689363061633   -0.1276338791380588    9.1332684921388285
   Na   Cr   O    F 
     4     4     8     4
Direct
  0.9902496155970678  0.0149746374778921  0.9179480705294624
  0.0147973281204347  0.9897290114078533  0.4179990507708370
  0.3556203196113692  0.6509044079781388  0.2494539796116134
  0.6506206202173747  0.3553023819497894  0.7495290665532920
  0.3585352330985270  0.7318947670205842  0.6156867351549322
  0.6971619784356532  0.3098313773164125  0.4014916132422098
  0.7323478150886763  0.3587246147637724  0.1157526947926688
  0.3098659515968601  0.6973400644212849  0.9014975186555627
  0.5625447223748054  0.0517674124730891  0.0022961265509106
  0.9783673044495901  0.6145567544935739  0.0085868877644402
  0.6143942374164572  0.9783983111477468  0.5086864171311233
  0.0514893005253316  0.5623926176316838  0.5023946343555233
  0.7179045573492522  0.5723554790680866  0.2615343507909151
  0.5722156711799544  0.7175280874679086  0.7615039176906279
  0.8987694175165821  0.2498679799107421  0.2450108972774149
  0.2499165118094101  0.8987288654533186  0.7449807527713660
  0.3857842526666320  0.4510926062376621  0.0200943081856174
  0.4506223362028894  0.3859276290174549  0.5198397849127936
  0.0513506811863394  0.3574400369240596  0.7778506380597546
  0.3574421455568006  0.0512429578389392  0.2778625551989272
 
  0.00000000E+00  0.00000000E+00  0.00000000E+00
  0.00000000E+00  0.00000000E+00  0.00000000E+00
  0.00000000E+00  0.00000000E+00  0.00000000E+00
  0.00000000E+00  0.00000000E+00  0.00000000E+00
  0.00000000E+00  0.00000000E+00  0.00000000E+00
  0.00000000E+00  0.00000000E+00  0.00000000E+00
  0.00000000E+00  0.00000000E+00  0.00000000E+00
  0.00000000E+00  0.00000000E+00  0.00000000E+00
  0.00000000E+00  0.00000000E+00  0.00000000E+00
  0.00000000E+00  0.00000000E+00  0.00000000E+00
  0.00000000E+00  0.00000000E+00  0.00000000E+00
  0.00000000E+00  0.00000000E+00  0.00000000E+00
  0.00000000E+00  0.00000000E+00  0.00000000E+00
  0.00000000E+00  0.00000000E+00  0.00000000E+00
  0.00000000E+00  0.00000000E+00  0.00000000E+00
  0.00000000E+00  0.00000000E+00  0.00000000E+00
  0.00000000E+00  0.00000000E+00  0.00000000E+00
  0.00000000E+00  0.00000000E+00  0.00000000E+00
  0.00000000E+00  0.00000000E+00  0.00000000E+00
  0.00000000E+00  0.00000000E+00  0.00000000E+00
