Na4 Mn4 O8 F4                           
   1.00000000000000     
     5.1636347026062683   -0.0036866519297722    0.0178437255166007
    -0.0054911317988703    5.2385329579826170    0.0022873122149255
     0.0195641358000807    0.0001787946693520    7.4167550947171179
   Na   Mn   O    F 
     4     4     8     4
Direct
  0.9886615746908164  0.0383599734775868  0.2483901183617830
  0.0131732937784981  0.9481068750253073  0.7544741655187331
  0.4892570240116850  0.4681611557431801  0.7488316564032055
  0.5127645110364748  0.5452716301600995  0.2564035184456893
  0.5156806944425034  0.0146860441981472  0.9991832531572705
  0.9911259335612328  0.4823337338233520  0.9984814783850169
  0.4861983555206886  0.0147500824014317  0.4978087730358475
  0.0147200526209236  0.4872567125603624  0.4993848564974278
  0.6965339372693337  0.2957030734238455  0.0437300172550936
  0.2112550009041973  0.2034622916060441  0.9600202397467521
  0.7823232801538296  0.7954406851061374  0.0375374697648754
  0.2980620831043027  0.7136473561671786  0.5363158148201420
  0.7050426865270724  0.2815218741355906  0.4584161165748891
  0.2051783506056721  0.1997663695003976  0.5453465440576590
  0.0770064049293660  0.4922012697028746  0.2488174653228082
  0.9269002201306358  0.5145546049192342  0.7494613577203155
  0.2949265850994650  0.7137182125189933  0.9591055066812622
  0.7884051451274097  0.7920293103620775  0.4603623166549562
  0.5864617979366249  0.0165717508432824  0.7487851553728064
  0.4163230685492683  0.9824569943248705  0.2491441762234670
 
  0.00000000E+00  0.00000000E+00  0.00000000E+00
  0.00000000E+00  0.00000000E+00  0.00000000E+00
  0.00000000E+00  0.00000000E+00  0.00000000E+00
  0.00000000E+00  0.00000000E+00  0.00000000E+00
  0.00000000E+00  0.00000000E+00  0.00000000E+00
  0.00000000E+00  0.00000000E+00  0.00000000E+00
  0.00000000E+00  0.00000000E+00  0.00000000E+00
  0.00000000E+00  0.00000000E+00  0.00000000E+00
  0.00000000E+00  0.00000000E+00  0.00000000E+00
  0.00000000E+00  0.00000000E+00  0.00000000E+00
  0.00000000E+00  0.00000000E+00  0.00000000E+00
  0.00000000E+00  0.00000000E+00  0.00000000E+00
  0.00000000E+00  0.00000000E+00  0.00000000E+00
  0.00000000E+00  0.00000000E+00  0.00000000E+00
  0.00000000E+00  0.00000000E+00  0.00000000E+00
  0.00000000E+00  0.00000000E+00  0.00000000E+00
  0.00000000E+00  0.00000000E+00  0.00000000E+00
  0.00000000E+00  0.00000000E+00  0.00000000E+00
  0.00000000E+00  0.00000000E+00  0.00000000E+00
  0.00000000E+00  0.00000000E+00  0.00000000E+00
