Co8 O8 F16                              
   1.00000000000000     
     7.5809003161001254    0.0010359344414739   -0.0027690155657510
     0.0014249280188980    7.5963809006884269    0.0034052633818232
     0.0049702391515882   -0.0055094540266462    7.6607641750325346
   Co   O    F 
     8     8    16
Direct
  0.0017829616934930  0.0012022187467573  0.0005150201990146
  0.0003382271537147  0.0000001688922632  0.5004170231268776
  0.0069600622394963  0.5013259299339232  0.0002472814062035
  0.9989490203732380  0.4997115625123113  0.5002931428809864
  0.5028762973701314  0.0004022405297442  0.9987866609845483
  0.4942242629958522  0.9987006118409388  0.4988481470793831
  0.5042654269739250  0.5008029584030622 -0.0000196963429029
  0.4970831936737553  0.4989898912444795  0.4999952569502940
  0.2414806582695523  0.9989019360967949  0.4996336102577040
  0.4916205634464295  0.4994036765838631  0.2470732291819042
  0.4909971854743703  0.5000277988235184  0.7533904464350281
  0.2515497759739928  0.0007283724727819  0.9996808339346017
  0.2575133571509400  0.5008390319851670  0.0005806715511531
  0.7546519427516385  0.0006443660444995 -0.0001701706565718
  0.0022950610620432  0.2468244418880612  0.5005368170109668
  0.0026072935389150  0.7527803897376419  0.5003788677176397
  0.9929083851698361  0.9993902661929196  0.2475433589778636
  0.5034676567684269  0.9967816800279877  0.7423632632660340
  0.2529876223422524  0.4988466907095890  0.5004390982245306
  0.7511874326608305  0.5007180289382881 -0.0000200698985887
  0.7411422299324437  0.4987541123510454  0.5008496387319572
  0.9997782019771803  0.7469505730022837 -0.0001591542985065
  0.5090645951416944  0.2430499569454137  0.9977720518580790
  0.9936865983178549  0.0017359095303067  0.7532163568023504
  0.0015077736617748  0.5004980171072402  0.2500141377724530
  0.0037958341085923  0.5008122298440819  0.7506085413172212
  0.5031363020704496  0.0014155913692497  0.2556984744631381
  0.7509189367994722  0.9990275154476961  0.4994202869457552
  0.9997512189006298  0.2552821141256303  0.0010168256091482
  0.4940569132976849  0.2479600901884455  0.5008370476129916
  0.5090730762415516  0.7578587720807084  0.0015460421450916
  0.4943419324678378  0.7496328564033055  0.4986669587536660
 
  0.00000000E+00  0.00000000E+00  0.00000000E+00
  0.00000000E+00  0.00000000E+00  0.00000000E+00
  0.00000000E+00  0.00000000E+00  0.00000000E+00
  0.00000000E+00  0.00000000E+00  0.00000000E+00
  0.00000000E+00  0.00000000E+00  0.00000000E+00
  0.00000000E+00  0.00000000E+00  0.00000000E+00
  0.00000000E+00  0.00000000E+00  0.00000000E+00
  0.00000000E+00  0.00000000E+00  0.00000000E+00
  0.00000000E+00  0.00000000E+00  0.00000000E+00
  0.00000000E+00  0.00000000E+00  0.00000000E+00
  0.00000000E+00  0.00000000E+00  0.00000000E+00
  0.00000000E+00  0.00000000E+00  0.00000000E+00
  0.00000000E+00  0.00000000E+00  0.00000000E+00
  0.00000000E+00  0.00000000E+00  0.00000000E+00
  0.00000000E+00  0.00000000E+00  0.00000000E+00
  0.00000000E+00  0.00000000E+00  0.00000000E+00
  0.00000000E+00  0.00000000E+00  0.00000000E+00
  0.00000000E+00  0.00000000E+00  0.00000000E+00
  0.00000000E+00  0.00000000E+00  0.00000000E+00
  0.00000000E+00  0.00000000E+00  0.00000000E+00
  0.00000000E+00  0.00000000E+00  0.00000000E+00
  0.00000000E+00  0.00000000E+00  0.00000000E+00
  0.00000000E+00  0.00000000E+00  0.00000000E+00
  0.00000000E+00  0.00000000E+00  0.00000000E+00
  0.00000000E+00  0.00000000E+00  0.00000000E+00
  0.00000000E+00  0.00000000E+00  0.00000000E+00
  0.00000000E+00  0.00000000E+00  0.00000000E+00
  0.00000000E+00  0.00000000E+00  0.00000000E+00
  0.00000000E+00  0.00000000E+00  0.00000000E+00
  0.00000000E+00  0.00000000E+00  0.00000000E+00
  0.00000000E+00  0.00000000E+00  0.00000000E+00
  0.00000000E+00  0.00000000E+00  0.00000000E+00
