Co4 O4 F8                               
   1.00000000000000     
     4.9708278102957646    0.0041875550595747   -0.0048923403960483
     0.0019941331257980    5.2760908407500597   -0.0021379832454119
    -0.0142488198083615    0.0019208959284840    7.2555108740694001
   Co   O    F 
     4     4     8
Direct
  0.5026842768323522  0.0148546603983263  0.0025695576523664
 -0.0002580634827693  0.5122961285188277  0.0044848327152440
  0.5119064280982601  0.0031430426992931  0.4951106850607518
  0.0147924436448279  0.5030688268108758  0.5034578376075022
  0.7197610648868425  0.2784472728013641  0.0598836248078808
  0.7795301524632307  0.7785859487743505  0.0610960012814779
  0.3103033299837410  0.7015729156562081  0.5562701923026239
  0.8083797211830004  0.8014529220851583  0.4393627391541968
  0.3110523850504915  0.6991316164959822  0.9408775246523917
  0.1878432100695314  0.1972719559394600  0.9415942250367626
  0.6784197193459817  0.3202483960086308  0.4410623865330422
  0.1760614705868904  0.1838799839929068  0.5542721737334650
  0.1305997965104694  0.4740493711569098  0.2498484806984571
  0.8882343167098505  0.5189253449139851  0.7517669855989375
  0.6099990547969768  0.0293529516696800  0.7487862076611091
  0.3706906933203160  0.9837186620780345  0.2495565455037839
 
  0.00000000E+00  0.00000000E+00  0.00000000E+00
  0.00000000E+00  0.00000000E+00  0.00000000E+00
  0.00000000E+00  0.00000000E+00  0.00000000E+00
  0.00000000E+00  0.00000000E+00  0.00000000E+00
  0.00000000E+00  0.00000000E+00  0.00000000E+00
  0.00000000E+00  0.00000000E+00  0.00000000E+00
  0.00000000E+00  0.00000000E+00  0.00000000E+00
  0.00000000E+00  0.00000000E+00  0.00000000E+00
  0.00000000E+00  0.00000000E+00  0.00000000E+00
  0.00000000E+00  0.00000000E+00  0.00000000E+00
  0.00000000E+00  0.00000000E+00  0.00000000E+00
  0.00000000E+00  0.00000000E+00  0.00000000E+00
  0.00000000E+00  0.00000000E+00  0.00000000E+00
  0.00000000E+00  0.00000000E+00  0.00000000E+00
  0.00000000E+00  0.00000000E+00  0.00000000E+00
  0.00000000E+00  0.00000000E+00  0.00000000E+00
