Ti4 O4 F8                               
   1.00000000000000     
     5.2403638680261873   -0.0004359641450805    0.0041820793985654
    -0.0004952772744075    5.3933973945019131    0.0055188394675487
     0.0046330120541478   -0.0029185247195074    7.4268781814080898
   Ti   O    F 
     4     4     8
Direct
  0.5064087416244364  0.0147465875493875  0.0153028302268148
  0.9790783603068410  0.4912031250101084  0.9898168556307078
  0.4789601703953920  0.0087265256387871  0.4897918903560979
  0.0063373604911326  0.4851298762226453  0.5152938105486559
  0.9168215018940322  0.5181177607405891  0.7495092327671145
  0.4169500364006045  0.9814424668270831  0.2495203899995422
  0.7110081101278040  0.2882234158785926  0.0410581673154092
  0.2102371372696216  0.2109865614411046  0.5406999583189395
  0.0843708079570258  0.4969142177770194  0.2491546138436831
  0.5842397756346694  0.0037226420595189  0.7491101300272300
  0.2927869771854253  0.7130932974378709  0.9591972394670673
  0.2094521035556947  0.2116204535989452  0.9513586363725018
  0.8003127086127587  0.7967016972793064  0.0445544745586872
  0.3011284933290980  0.7024284909908507  0.5446890406974924
  0.7085512739906163  0.2892967169347834  0.4513640613737955
  0.7933564412248403  0.7876461646134075  0.4595786684962612
 
  0.00000000E+00  0.00000000E+00  0.00000000E+00
  0.00000000E+00  0.00000000E+00  0.00000000E+00
  0.00000000E+00  0.00000000E+00  0.00000000E+00
  0.00000000E+00  0.00000000E+00  0.00000000E+00
  0.00000000E+00  0.00000000E+00  0.00000000E+00
  0.00000000E+00  0.00000000E+00  0.00000000E+00
  0.00000000E+00  0.00000000E+00  0.00000000E+00
  0.00000000E+00  0.00000000E+00  0.00000000E+00
  0.00000000E+00  0.00000000E+00  0.00000000E+00
  0.00000000E+00  0.00000000E+00  0.00000000E+00
  0.00000000E+00  0.00000000E+00  0.00000000E+00
  0.00000000E+00  0.00000000E+00  0.00000000E+00
  0.00000000E+00  0.00000000E+00  0.00000000E+00
  0.00000000E+00  0.00000000E+00  0.00000000E+00
  0.00000000E+00  0.00000000E+00  0.00000000E+00
  0.00000000E+00  0.00000000E+00  0.00000000E+00
