Sodium dimanganese(III,IV) oxide        
   1.00000000000000     
     8.8653261196030275    0.0000000291272587    0.0000000556833440
     0.0000000536722644   11.1344480253537057    0.0000002532998731
     0.0000000269716410    0.0000000664924961    2.8633905357316438
   Na   Mn   O 
     4     8    16
Direct
  0.2491684025827396  0.3367515295831467  0.2500004955781350
  0.7508266955568601  0.6632524994596665  0.7499995233191399
  0.2508266955231448  0.8367474953519221  0.7500000779220102
  0.7491683884044278  0.1632484569997672  0.2499999123030534
  0.0710540855610233  0.1102931322586187  0.2499999554172945
  0.9289404821954008  0.8896978783197227  0.7500000446535822
  0.4289404796336882  0.6103021220029845  0.7500000579162958
  0.5710540887355933  0.3897068767091838  0.2499999421242620
  0.0809525186979698  0.5958776644884978  0.2500002370232011
  0.9190407836832080  0.4041221313963064  0.7499997565076058
  0.4190407857611760  0.0958778665302731  0.7500000692372737
  0.5809525263065538  0.9041223375327689  0.2499999355408278
  0.2858547758135543  0.6510824590136011  0.2500000863125607
  0.7141595133729695  0.3489250133749948  0.7499999117379303
  0.2141595309075228  0.1510749921401953  0.7500000875664128
  0.7858547711143444  0.8489175419045694  0.2499999126421386
  0.3834574285099137  0.9803654399151966  0.2500000248427909
  0.6165546067678278  0.0196488426188921  0.7499999767026964
  0.1165546063564307  0.4803511599119830  0.7500000537204059
  0.8834574245023390  0.5196345714091208  0.2499999430557054
  0.4741028336418438  0.1966582398274994  0.2500001203662094
  0.5258880135160311  0.8033413840437333  0.7499998818911564
  0.0258880156850267  0.6966586193093036  0.7500001202156028
  0.9741028298289152  0.3033417702082772  0.2499998755972470
  0.0690975804234242  0.9142309071316603  0.2500000132302489
  0.9309022744822926  0.0857557407177296  0.7499999848167249
  0.4309022856775684  0.4142442604631711  0.7500000417377990
  0.5690975767581961  0.5857690973772094  0.2499999580217036
 
  0.00000000E+00  0.00000000E+00  0.00000000E+00
  0.00000000E+00  0.00000000E+00  0.00000000E+00
  0.00000000E+00  0.00000000E+00  0.00000000E+00
  0.00000000E+00  0.00000000E+00  0.00000000E+00
  0.00000000E+00  0.00000000E+00  0.00000000E+00
  0.00000000E+00  0.00000000E+00  0.00000000E+00
  0.00000000E+00  0.00000000E+00  0.00000000E+00
  0.00000000E+00  0.00000000E+00  0.00000000E+00
  0.00000000E+00  0.00000000E+00  0.00000000E+00
  0.00000000E+00  0.00000000E+00  0.00000000E+00
  0.00000000E+00  0.00000000E+00  0.00000000E+00
  0.00000000E+00  0.00000000E+00  0.00000000E+00
  0.00000000E+00  0.00000000E+00  0.00000000E+00
  0.00000000E+00  0.00000000E+00  0.00000000E+00
  0.00000000E+00  0.00000000E+00  0.00000000E+00
  0.00000000E+00  0.00000000E+00  0.00000000E+00
  0.00000000E+00  0.00000000E+00  0.00000000E+00
  0.00000000E+00  0.00000000E+00  0.00000000E+00
  0.00000000E+00  0.00000000E+00  0.00000000E+00
  0.00000000E+00  0.00000000E+00  0.00000000E+00
  0.00000000E+00  0.00000000E+00  0.00000000E+00
  0.00000000E+00  0.00000000E+00  0.00000000E+00
  0.00000000E+00  0.00000000E+00  0.00000000E+00
  0.00000000E+00  0.00000000E+00  0.00000000E+00
  0.00000000E+00  0.00000000E+00  0.00000000E+00
  0.00000000E+00  0.00000000E+00  0.00000000E+00
  0.00000000E+00  0.00000000E+00  0.00000000E+00
  0.00000000E+00  0.00000000E+00  0.00000000E+00
