Mn8 O8 F16                              
   1.00000000000000     
     7.6905737057794248   -0.0001091109483558    0.0001235411541941
    -0.0001178537417520    7.4329812514897933   -0.0000031658615050
     0.0001251650417810   -0.0000031464178373    7.4294997707791266
   Mn   O    F 
     8     8    16
Direct
  0.9999977344409885  0.9999941025749877  0.0001078602814175
  0.0000020330383848  0.0000072035146630  0.4998930114106273
  0.0000034583837163  0.5000014206360675  0.9999587475492291
  0.0000032099302913  0.4999945172829783  0.5000413828006387
  0.4999982679474684  0.0000702137425179  0.9999768784732623
  0.4999977432764027  0.9999110970719940  0.5000232578810184
  0.4999985373670981  0.4999300772160638  0.9999927335576118
  0.4999987579072496  0.5000887859069323  0.5000066027009069
  0.0000008473665147  0.0000001992350036  0.2499993529199713
  0.4999995424008219  0.2499936405007261  0.0000006011977121
  0.0000011654325220  0.9999987916332103  0.7500006752621147
  0.9999981690721853  0.5000051948031299  0.2499992666700095
  0.0000010757925679  0.5000005611396432  0.7500006946251574
  0.4999977557850173  0.2499940972982984  0.4999973082246072
  0.4999981866334764  0.7500062425040142  0.0000022619961868
  0.4999999856009651  0.7500060827764514  0.4999996480978766
  0.5000023622330332  0.9999796115236208  0.7500063801965666
  0.2496927560114628  0.0000535942847577  0.5000097570492343
  0.2498703493014744  0.4999468090017558  0.5000107166131116
  0.7501097256987705  0.5000322469670024  0.9999874687228782
  0.7501362020650930  0.4999524972080991  0.5000128818927010
  0.9999878397725865  0.7501237121740871  0.0001498439307568
  0.4999958393403077  0.9999795935218643  0.2499936119081667
  0.4999958450860547  0.5000204413093385  0.2499946987413679
  0.5000023267978975  0.5000203955093241  0.7500048830560146
  0.2497166247983600  0.9999740218488569  0.9999901482598048
  0.2498969835619249  0.5000267544720032  0.9999889685568135
  0.7502895817262569  0.9999671345325680  0.9999881564219208
  0.7503138121353174  0.0000467143307077  0.5000119132392982
  0.0000026986874460  0.2498747618617614  0.0001496257654523
  0.0000026801325248  0.2498781223542252  0.4998503771430691
  0.9999879022758122  0.7501213612633464  0.4998502848544959
 
  0.00000000E+00  0.00000000E+00  0.00000000E+00
  0.00000000E+00  0.00000000E+00  0.00000000E+00
  0.00000000E+00  0.00000000E+00  0.00000000E+00
  0.00000000E+00  0.00000000E+00  0.00000000E+00
  0.00000000E+00  0.00000000E+00  0.00000000E+00
  0.00000000E+00  0.00000000E+00  0.00000000E+00
  0.00000000E+00  0.00000000E+00  0.00000000E+00
  0.00000000E+00  0.00000000E+00  0.00000000E+00
  0.00000000E+00  0.00000000E+00  0.00000000E+00
  0.00000000E+00  0.00000000E+00  0.00000000E+00
  0.00000000E+00  0.00000000E+00  0.00000000E+00
  0.00000000E+00  0.00000000E+00  0.00000000E+00
  0.00000000E+00  0.00000000E+00  0.00000000E+00
  0.00000000E+00  0.00000000E+00  0.00000000E+00
  0.00000000E+00  0.00000000E+00  0.00000000E+00
  0.00000000E+00  0.00000000E+00  0.00000000E+00
  0.00000000E+00  0.00000000E+00  0.00000000E+00
  0.00000000E+00  0.00000000E+00  0.00000000E+00
  0.00000000E+00  0.00000000E+00  0.00000000E+00
  0.00000000E+00  0.00000000E+00  0.00000000E+00
  0.00000000E+00  0.00000000E+00  0.00000000E+00
  0.00000000E+00  0.00000000E+00  0.00000000E+00
  0.00000000E+00  0.00000000E+00  0.00000000E+00
  0.00000000E+00  0.00000000E+00  0.00000000E+00
  0.00000000E+00  0.00000000E+00  0.00000000E+00
  0.00000000E+00  0.00000000E+00  0.00000000E+00
  0.00000000E+00  0.00000000E+00  0.00000000E+00
  0.00000000E+00  0.00000000E+00  0.00000000E+00
  0.00000000E+00  0.00000000E+00  0.00000000E+00
  0.00000000E+00  0.00000000E+00  0.00000000E+00
  0.00000000E+00  0.00000000E+00  0.00000000E+00
  0.00000000E+00  0.00000000E+00  0.00000000E+00
