Mn4 O4 F8                               
   1.00000000000000     
     4.9486342744804599   -0.0435260246724295   -0.0755165915705004
    -0.0437442815855274    5.1196134615719799    0.1281865268600534
    -0.1144466673219434    0.1103381036741353    7.1641328715893300
   Mn   O    F 
     4     4     8
Direct
  0.4816465393353248  0.9991655577456053  0.0004454819826161
  0.0069501255866092  0.5263498755628192  0.9800413461976513
  0.5000591781866714  0.9880469772594673  0.5065767733421134
  0.0037496994736020  0.4833192683157218  0.5062722623734309
  0.8702149926856940  0.5442524284705655  0.7375035025166460
  0.3134006008847632  0.6973247142346304  0.9357912808932086
  0.8517887711891654  0.8274891936566460  0.4765106918247677
  0.1629009160171053  0.1580268970948615  0.5635692488648557
  0.1074456532437152  0.4756588311534064  0.2495117328881781
  0.6151340659234339  0.0534311811559951  0.7463639404770492
  0.3831337054489892  0.9525063658797118  0.2613653097225598
  0.6913604971686906  0.3061567706758598  0.0509551341840323
  0.1659603892086851  0.2150310017836803  0.9357487386269994
  0.8293920779912206  0.8101084871363083  0.0569358786798626
  0.3304840002011535  0.6297667524534541  0.5646519803655834
  0.6863787874551766  0.3333656974212746  0.4277566970604387
 
  0.00000000E+00  0.00000000E+00  0.00000000E+00
  0.00000000E+00  0.00000000E+00  0.00000000E+00
  0.00000000E+00  0.00000000E+00  0.00000000E+00
  0.00000000E+00  0.00000000E+00  0.00000000E+00
  0.00000000E+00  0.00000000E+00  0.00000000E+00
  0.00000000E+00  0.00000000E+00  0.00000000E+00
  0.00000000E+00  0.00000000E+00  0.00000000E+00
  0.00000000E+00  0.00000000E+00  0.00000000E+00
  0.00000000E+00  0.00000000E+00  0.00000000E+00
  0.00000000E+00  0.00000000E+00  0.00000000E+00
  0.00000000E+00  0.00000000E+00  0.00000000E+00
  0.00000000E+00  0.00000000E+00  0.00000000E+00
  0.00000000E+00  0.00000000E+00  0.00000000E+00
  0.00000000E+00  0.00000000E+00  0.00000000E+00
  0.00000000E+00  0.00000000E+00  0.00000000E+00
  0.00000000E+00  0.00000000E+00  0.00000000E+00
