Na4 Fe4 O8 F4                           
   1.00000000000000     
     5.3913319023322472    0.3045428165728267   -0.0000004226155225
     0.3059681268283394    5.4602093898045583    0.0000022059465083
    -0.0000007558218237    0.0000029089104963    7.2477579516814199
   Na   Fe   O    F 
     4     4     8     4
Direct
  0.9928907102498850  0.0278198445988348  0.2500012596952805
  0.0072692497030938  0.9721541447783537  0.7499998058855017
  0.5078378152021009  0.4594686533871156  0.7500001997838133
  0.4921727052563681  0.5404976299362467  0.2500000772547707
  0.4998520490633828  0.9999916841121536  0.9999702200513224
  0.9999389998059056  0.4999535739895236  0.9999382003422473
  0.4998616885591269  0.9999859666351579  0.5000341852120519
  0.9999456267336168  0.4999490720647809  0.5000545497941016
  0.2082734298679298  0.2088956800517718  0.9750123872663513
  0.7916946402628399  0.7911375056192345  0.0249569960617890
  0.7916966618967166  0.7911353335273755  0.4750434347536018
  0.2082778901533175  0.2088911185305050  0.5249891161932889
  0.0639741516591245  0.4997656680951780  0.2499974473412006
  0.9360553410776706  0.5003891883504576  0.7499985574075834
  0.5603590019213046  0.0262199359190681  0.7500005530494288
  0.4397807949882750  0.9737047316438378  0.2500015787345333
  0.7026211831985731  0.2959754215549156  0.0435200283707971
  0.2974368641833258  0.7040470001579957  0.9564630342778458
  0.2974392227752521  0.7040446708720729  0.5435372978251413
  0.7026219734421977  0.2959731761754276  0.4564810706993422
 
  0.00000000E+00  0.00000000E+00  0.00000000E+00
  0.00000000E+00  0.00000000E+00  0.00000000E+00
  0.00000000E+00  0.00000000E+00  0.00000000E+00
  0.00000000E+00  0.00000000E+00  0.00000000E+00
  0.00000000E+00  0.00000000E+00  0.00000000E+00
  0.00000000E+00  0.00000000E+00  0.00000000E+00
  0.00000000E+00  0.00000000E+00  0.00000000E+00
  0.00000000E+00  0.00000000E+00  0.00000000E+00
  0.00000000E+00  0.00000000E+00  0.00000000E+00
  0.00000000E+00  0.00000000E+00  0.00000000E+00
  0.00000000E+00  0.00000000E+00  0.00000000E+00
  0.00000000E+00  0.00000000E+00  0.00000000E+00
  0.00000000E+00  0.00000000E+00  0.00000000E+00
  0.00000000E+00  0.00000000E+00  0.00000000E+00
  0.00000000E+00  0.00000000E+00  0.00000000E+00
  0.00000000E+00  0.00000000E+00  0.00000000E+00
  0.00000000E+00  0.00000000E+00  0.00000000E+00
  0.00000000E+00  0.00000000E+00  0.00000000E+00
  0.00000000E+00  0.00000000E+00  0.00000000E+00
  0.00000000E+00  0.00000000E+00  0.00000000E+00
