Na2 Co2 O4 F2                           
   1.00000000000000     
     4.1230213380849792    0.0000001181328791   -0.0000403511006757
     0.0000002007660768    3.6199159891442050    0.0000017739254558
     0.0002680123298325    0.0000036612338577    7.3086826548361223
   Na   Co   O    F 
     2     2     4     2
Direct
  0.0000812049986172 -0.0000005881513391  0.0042072664911228
  0.9999205505139442 -0.0000008387466079  0.5002355764106839
  0.4999526643560831  0.5000017363591372  0.2547082660337441
  0.4999979882508642  0.4999997016689535  0.7545471767191505
  0.4999951277415600  0.4999990580941921  0.0165823541118527
  0.4999843479469027  0.4999990600235010  0.4929995063413106
  0.5000374416099855  0.0000029301303123  0.2548578733645693
  0.5000116393366237  0.0000016116114291  0.7546395824295127
  0.0000641722988140  0.4999995961885377  0.2550105009100242
  0.9999548629466054  0.4999977328218910  0.7552118971880215
 
  0.00000000E+00  0.00000000E+00  0.00000000E+00
  0.00000000E+00  0.00000000E+00  0.00000000E+00
  0.00000000E+00  0.00000000E+00  0.00000000E+00
  0.00000000E+00  0.00000000E+00  0.00000000E+00
  0.00000000E+00  0.00000000E+00  0.00000000E+00
  0.00000000E+00  0.00000000E+00  0.00000000E+00
  0.00000000E+00  0.00000000E+00  0.00000000E+00
  0.00000000E+00  0.00000000E+00  0.00000000E+00
  0.00000000E+00  0.00000000E+00  0.00000000E+00
  0.00000000E+00  0.00000000E+00  0.00000000E+00
