Co4 O4 F8                               
   1.00000000000000     
     5.0097575804965535    0.0166612279073089    0.0501440827988080
     0.0155911219726620    5.1589918492918336   -0.0038536032498097
     0.0785317694742354    0.0818721065069565    7.1716524147982854
   Co   O    F 
     4     4     8
Direct
  0.4964793262489878  0.9986710899374370  0.0044555969863044
  0.0017475282693549  0.5007017466394749  0.0001203870612316
  0.4866984412734769  0.0088061184984345  0.5032119281960419
  0.0024522454162565  0.4989061006760633  0.4994328187327094
  0.1673734498572521  0.2016985700003152  0.5525234095030260
  0.1115802239868623  0.4708395911602888  0.2572589035014363
  0.8900521993997453  0.5264797137400629  0.7398101706262666
  0.3879130984701246  0.9424449333550871  0.2523478661291731
  0.6803136284453206  0.3035538821548847  0.0578832606171997
  0.3212401783514059  0.6946777165864453  0.9363891776749793
  0.1840222084308482  0.1961408792945183  0.9370869188368601
  0.8187630034054274  0.8049232575929530  0.0582009199635428
  0.3296896933152965  0.7032343664008134  0.5734367277292372
  0.6692879012453172  0.3013806190752887  0.4310881347970758
  0.8264083912653012  0.8078899863575589  0.4453739827692537
  0.6259784826190080  0.0396514285303742  0.7513797968756620
 
  0.00000000E+00  0.00000000E+00  0.00000000E+00
  0.00000000E+00  0.00000000E+00  0.00000000E+00
  0.00000000E+00  0.00000000E+00  0.00000000E+00
  0.00000000E+00  0.00000000E+00  0.00000000E+00
  0.00000000E+00  0.00000000E+00  0.00000000E+00
  0.00000000E+00  0.00000000E+00  0.00000000E+00
  0.00000000E+00  0.00000000E+00  0.00000000E+00
  0.00000000E+00  0.00000000E+00  0.00000000E+00
  0.00000000E+00  0.00000000E+00  0.00000000E+00
  0.00000000E+00  0.00000000E+00  0.00000000E+00
  0.00000000E+00  0.00000000E+00  0.00000000E+00
  0.00000000E+00  0.00000000E+00  0.00000000E+00
  0.00000000E+00  0.00000000E+00  0.00000000E+00
  0.00000000E+00  0.00000000E+00  0.00000000E+00
  0.00000000E+00  0.00000000E+00  0.00000000E+00
  0.00000000E+00  0.00000000E+00  0.00000000E+00
