V4 O4 F8                                
   1.00000000000000     
     5.0917269597626227   -0.0000690687467552   -0.0000007801178126
    -0.0000708606555349    5.2663503538880283    0.0019546034959036
     0.0000011861302095   -0.0131217453248157    7.4607936161196076
   V    O    F 
     4     4     8
Direct
  0.4880720529524032  0.9742192529593552  0.9957339403344331
  0.9880949350051147  0.5257668293450627  0.0042626570165066
  0.4777564513957869  0.0194515613552208  0.5040038987702541
  0.9777375037557127  0.4805383132573255  0.4959907215731876
  0.2925032176241713  0.7248311555020623  0.9588265454625319
  0.7924902716983228  0.7751883895728204  0.0411771414685290
  0.7244486284257081  0.2871344518110396  0.4602441916386181
  0.2244231017331499  0.2128726732555545  0.5397684262238094
  0.1035964378176116  0.4872475520594668  0.2501466275324946
  0.9088813271561497  0.5142952244362365  0.7500359947107111
  0.6036044824303934  0.0127482576554712  0.7498519835092929
  0.4088791672282233  0.9857120458462019  0.2499641167620681
  0.7142409253022973  0.2738512463219367  0.0456486862104945
  0.2142419984123308  0.2261538992239287  0.9543530900251466
  0.2905150502121336  0.7046411685092826  0.5445699133220747
  0.7905144488504766  0.7953479788890344  0.4554220654398478
 
  0.00000000E+00  0.00000000E+00  0.00000000E+00
  0.00000000E+00  0.00000000E+00  0.00000000E+00
  0.00000000E+00  0.00000000E+00  0.00000000E+00
  0.00000000E+00  0.00000000E+00  0.00000000E+00
  0.00000000E+00  0.00000000E+00  0.00000000E+00
  0.00000000E+00  0.00000000E+00  0.00000000E+00
  0.00000000E+00  0.00000000E+00  0.00000000E+00
  0.00000000E+00  0.00000000E+00  0.00000000E+00
  0.00000000E+00  0.00000000E+00  0.00000000E+00
  0.00000000E+00  0.00000000E+00  0.00000000E+00
  0.00000000E+00  0.00000000E+00  0.00000000E+00
  0.00000000E+00  0.00000000E+00  0.00000000E+00
  0.00000000E+00  0.00000000E+00  0.00000000E+00
  0.00000000E+00  0.00000000E+00  0.00000000E+00
  0.00000000E+00  0.00000000E+00  0.00000000E+00
  0.00000000E+00  0.00000000E+00  0.00000000E+00
