Cr4 O4 F8                               
   1.00000000000000     
     4.8938358052481075    0.0009625148187816   -0.0120292087451580
    -2.4460060177661340    4.2036705206953631    0.0062654024462096
    -0.0377173358046523    0.0008033840296294    9.2845241587214531
   Cr   O    F 
     4     4     8
Direct
  0.3232644408434133  0.6248503182777995  0.6106035857276063
  0.6484829536586579  0.3337482682962265  0.3891872977029643
  0.6979451447910001  0.3750200715359355  0.1105619645997138
  0.3139085746391970  0.6663895059920788  0.8892702299879904
  0.9969383913173022  0.6236097132171754  0.0028334542892528
  0.3742416839223876  0.3766135306978491  0.5029660285789136
  0.6678162445503050  0.6054649233871916  0.2418389304994416
  0.0623300955254393  0.3945072910470274  0.7418048548396978
  0.6294485726105910  0.9980446890001220  0.0077564907626626
  0.3644069395178276  0.3572264620342998  0.9969624422100861
  0.6318129345536638  0.0018516978351344  0.5079296018607947
  0.0077421814108930  0.6427925702902338  0.4968419360527166
  0.3742896648612394  0.0419871074566303  0.2475485952425711
  0.6329823784531751  0.6906923097842522  0.7533368041943481
  0.9426343524761437  0.3092387047702567  0.2530766901118336
  0.3317554468687640  0.9579628363777947  0.7474810933394216
 
  0.00000000E+00  0.00000000E+00  0.00000000E+00
  0.00000000E+00  0.00000000E+00  0.00000000E+00
  0.00000000E+00  0.00000000E+00  0.00000000E+00
  0.00000000E+00  0.00000000E+00  0.00000000E+00
  0.00000000E+00  0.00000000E+00  0.00000000E+00
  0.00000000E+00  0.00000000E+00  0.00000000E+00
  0.00000000E+00  0.00000000E+00  0.00000000E+00
  0.00000000E+00  0.00000000E+00  0.00000000E+00
  0.00000000E+00  0.00000000E+00  0.00000000E+00
  0.00000000E+00  0.00000000E+00  0.00000000E+00
  0.00000000E+00  0.00000000E+00  0.00000000E+00
  0.00000000E+00  0.00000000E+00  0.00000000E+00
  0.00000000E+00  0.00000000E+00  0.00000000E+00
  0.00000000E+00  0.00000000E+00  0.00000000E+00
  0.00000000E+00  0.00000000E+00  0.00000000E+00
  0.00000000E+00  0.00000000E+00  0.00000000E+00
