Iron Oxide (25/32)                      
   1.00000000000000     
    14.9634138953845675    0.0059678088376323    0.0010389795517247
    -7.4773534611358770   12.9696242918223597   -0.0005961261668369
     0.0002305423862979   -0.0000737741914734    2.8472478001632555
   Fe   O 
    25    32
Direct
 -0.0004877863307772  0.0000194954615648  0.0002496603455984
  0.2033929916144341 -0.0005266318328882  0.0000886767883621
 -0.0005275488391432  0.2034818038176922  0.0000458455890455
  0.7966053368951298  0.7968733307970414  0.0000513018637900
  0.3928265069042093  0.0001130684902677  0.0000374862303031
  0.0004299037757944  0.3929113974231482  0.0000518846290268
  0.6076169516481115  0.6073078411078056  0.0000354586988527
  0.1945109169828508  0.1945012421118771  0.4999577853179356
  0.8060151089681075  0.0014849623934381  0.5001522012061842
  0.0022116303690912  0.8059759867787906  0.4999257563614142
  0.4040158320143183  0.2147132466102012  0.5000073775582079
  0.7836655327968549  0.1902841326103357  0.5000353196528627
  0.8144955483936652  0.5975877609579942  0.5000126193911042
  0.2162691310622935  0.4035760835100801  0.5000375536679070
  0.1905532653353124  0.7835093838902313  0.4999937282782053
  0.5966538845979582  0.8130206183688155  0.5000689669208073
  0.5909961120831820  0.2041992605271792  0.5000328421367447
  0.7941647989350660  0.3862693611310687  0.5001124554031298
  0.6133070007720763  0.4091387707785886  0.5000134106224829
  0.2040673434906171  0.5908118081750066  0.5000257529919384
  0.3864460829913829  0.7942503406499755  0.5000920383760554
  0.4090037022617129  0.6134106164126841  0.5000096294235703
  0.4126603211938874  0.4126164526045209 -0.0016993088547252
  0.5872156825852652 -0.0002012654716757  0.0001989111292690
 -0.0002157654893428  0.5870571512908219 -0.0003755490598675
  0.1060305429083281 -0.0005641447974031  0.5002746167162904
 -0.0001915393491559  0.1065799660872078  0.5001570500627464
  0.8930605683343641  0.8939697257445699  0.5001504494576203
  0.2987008310908638  0.0002910455319389  0.5000864003835596
 -0.0002639179418011  0.2985071117432914  0.5000891432321882
  0.7013959664388619  0.7018443500602173  0.5000676357793401
  0.4898221506729487  0.0011714313890657  0.5000942092269132
  0.0016229348450863  0.4899241143414133  0.4999972913937448
  0.5116274960675454  0.5112878908598683  0.4997078085207691
  0.2845349487024767  0.1547562186419177  0.0000005426755390
  0.8447011249486767  0.1305285139770477  0.0000947317117634
  0.8700699228376267  0.7158706203592673 -0.0000763020193317
  0.1545154228807303  0.2846596486953895 -0.0000579978197621
  0.1306124808090660  0.8445283640197716 -0.0000636590360493
  0.7151814366471484  0.8697762078317126  0.0001263821975814
  0.4705750912946340  0.1557066233188439  0.0001263384554410
  0.8445384195912181  0.3168184832872660  0.0001153255027052
  0.6859865991293809  0.5297631465865044  0.0000708690242162
  0.1561947319153957  0.4704485423519303  0.0001266771077542
  0.3169765776686592  0.8444687386879012  0.0001534624744036
  0.5293593134559587  0.6852910410153168 -0.0000116753425868
  0.6664092432981931  0.3329341036300247  0.0002383925056644
  0.3331315356470875  0.6668426408211482  0.0002458398615192
  0.3259781734775579  0.3278551008297955  0.4991925620146698
  0.6711790723531811  0.9962076337365967  0.5000747401236052
  0.9946848489695170  0.6702770818142858  0.4999011871162201
  0.4869859934822346  0.3332922994080231 -0.0001869381758963
  0.6664069347053608  0.1536406067659854  0.0000946634850308
  0.8456406754722201  0.5107832914660089  0.0000471189887824
  0.3342560356204936  0.4882156430379541 -0.0001291432156092
  0.1534079315848536  0.6663812449815535 -0.0000220319523890
  0.5109759744291851  0.8455565021809955  0.0001525048753704
 
  0.00000000E+00  0.00000000E+00  0.00000000E+00
  0.00000000E+00  0.00000000E+00  0.00000000E+00
  0.00000000E+00  0.00000000E+00  0.00000000E+00
  0.00000000E+00  0.00000000E+00  0.00000000E+00
  0.00000000E+00  0.00000000E+00  0.00000000E+00
  0.00000000E+00  0.00000000E+00  0.00000000E+00
  0.00000000E+00  0.00000000E+00  0.00000000E+00
  0.00000000E+00  0.00000000E+00  0.00000000E+00
  0.00000000E+00  0.00000000E+00  0.00000000E+00
  0.00000000E+00  0.00000000E+00  0.00000000E+00
  0.00000000E+00  0.00000000E+00  0.00000000E+00
  0.00000000E+00  0.00000000E+00  0.00000000E+00
  0.00000000E+00  0.00000000E+00  0.00000000E+00
  0.00000000E+00  0.00000000E+00  0.00000000E+00
  0.00000000E+00  0.00000000E+00  0.00000000E+00
  0.00000000E+00  0.00000000E+00  0.00000000E+00
  0.00000000E+00  0.00000000E+00  0.00000000E+00
  0.00000000E+00  0.00000000E+00  0.00000000E+00
  0.00000000E+00  0.00000000E+00  0.00000000E+00
  0.00000000E+00  0.00000000E+00  0.00000000E+00
  0.00000000E+00  0.00000000E+00  0.00000000E+00
  0.00000000E+00  0.00000000E+00  0.00000000E+00
  0.00000000E+00  0.00000000E+00  0.00000000E+00
  0.00000000E+00  0.00000000E+00  0.00000000E+00
  0.00000000E+00  0.00000000E+00  0.00000000E+00
  0.00000000E+00  0.00000000E+00  0.00000000E+00
  0.00000000E+00  0.00000000E+00  0.00000000E+00
  0.00000000E+00  0.00000000E+00  0.00000000E+00
  0.00000000E+00  0.00000000E+00  0.00000000E+00
  0.00000000E+00  0.00000000E+00  0.00000000E+00
  0.00000000E+00  0.00000000E+00  0.00000000E+00
  0.00000000E+00  0.00000000E+00  0.00000000E+00
  0.00000000E+00  0.00000000E+00  0.00000000E+00
  0.00000000E+00  0.00000000E+00  0.00000000E+00
  0.00000000E+00  0.00000000E+00  0.00000000E+00
  0.00000000E+00  0.00000000E+00  0.00000000E+00
  0.00000000E+00  0.00000000E+00  0.00000000E+00
  0.00000000E+00  0.00000000E+00  0.00000000E+00
  0.00000000E+00  0.00000000E+00  0.00000000E+00
  0.00000000E+00  0.00000000E+00  0.00000000E+00
  0.00000000E+00  0.00000000E+00  0.00000000E+00
  0.00000000E+00  0.00000000E+00  0.00000000E+00
  0.00000000E+00  0.00000000E+00  0.00000000E+00
  0.00000000E+00  0.00000000E+00  0.00000000E+00
  0.00000000E+00  0.00000000E+00  0.00000000E+00
  0.00000000E+00  0.00000000E+00  0.00000000E+00
  0.00000000E+00  0.00000000E+00  0.00000000E+00
  0.00000000E+00  0.00000000E+00  0.00000000E+00
  0.00000000E+00  0.00000000E+00  0.00000000E+00
  0.00000000E+00  0.00000000E+00  0.00000000E+00
  0.00000000E+00  0.00000000E+00  0.00000000E+00
  0.00000000E+00  0.00000000E+00  0.00000000E+00
  0.00000000E+00  0.00000000E+00  0.00000000E+00
  0.00000000E+00  0.00000000E+00  0.00000000E+00
  0.00000000E+00  0.00000000E+00  0.00000000E+00
  0.00000000E+00  0.00000000E+00  0.00000000E+00
  0.00000000E+00  0.00000000E+00  0.00000000E+00
