Na8 Mn8 O16 F8                          
   1.00000000000000     
     7.5228191501926247    0.0000000041617315    0.0000000164375568
     0.0000000036578371    7.3681431474304659   -0.0000000030068857
     0.0000000156274676   -0.0000000016169873    7.5192998884364073
   Na   Mn   O    F 
     8     8    16     8
Direct
  0.2499794809222564  0.2500104945923241  0.2499999287431081
  0.2499794679352121  0.2500104906849145  0.7500000729644469
  0.2499794798442352  0.7499895057906087  0.2499999271883979
  0.2499794664920856  0.7499895079943855  0.7500000730654861
  0.7499800526399980  0.2500105113117712  0.2499999238280139
  0.7499800658924443  0.2500105084516733  0.7500000796677995
  0.7499800545330189  0.7499894886577394  0.2499999244476285
  0.7499800620887171  0.7499894947060000  0.7500000794325956
  0.9998908063589980  0.9999999948907998  0.9999999882565831
  0.9998908332063934  0.0000000031768081  0.4999999869129681
  0.9999076779794507  0.5000000040660950  0.9999999849188441
  0.9999076611388773  0.4999999974471905  0.5000000109890621
  0.4998908590857809  0.0000000133835485  0.9999999883879696
  0.4998908333871981  0.0000000012863737  0.4999999868914955
  0.4999076778715548  0.4999999874669498  0.9999999883608552
  0.4999076683498487  0.4999999987888941  0.5000000028745006
  0.2501142085181627  0.0000000007753087  0.0000000091525081
  0.2501141837426815  0.0000000014219239  0.5000000063468093
  0.7501145529467621  0.9999999980811936  0.9999999998366818
  0.7501145569818988  0.0000000005908447  0.5000000128411699
  0.0000456827448190  0.2499545854025058  0.9999999859064204
  0.0000456750504654  0.2499548956966606  0.5000000052560694
  0.0000456866301306  0.7500454147704190  0.9999999998999343
  0.0000456751386011  0.7500451041411864  0.5000000172531500
  0.5000456548950041  0.2499546727868776  0.0000000040360959
  0.5000456310400807  0.2499550773181198  0.4999999878736432
  0.5000456580656660  0.7500453263065907  0.0000000117436727
  0.5000456345736595  0.7500449226527408  0.4999999979134913
  0.9999931662212305  0.4999999994478443  0.2500003879274431
  0.9999931610655040  0.4999999989542943  0.7499996157049438
  0.4999930843508267  0.4999999999691269  0.2500004035045365
  0.4999930896468285  0.5000000005588205  0.7499996009303729
  0.2500388014384356  0.5000000001524967  0.0000000136102614
  0.2500387954678160  0.5000000000953193  0.4999999932720627
  0.7500375535191779  0.4999999997502371  0.0000000178587740
  0.7500375351240223  0.4999999981136796  0.4999999884921706
  0.0000049651452372  0.0000000002245457  0.2500000816400600
  0.0000049687741352  0.0000000010389130  0.7499999163898678
  0.5000049679401215  0.0000000007605720  0.2500000828416233
  0.5000049632526782  0.9999999982937027  0.7499999128384758
 
  0.00000000E+00  0.00000000E+00  0.00000000E+00
  0.00000000E+00  0.00000000E+00  0.00000000E+00
  0.00000000E+00  0.00000000E+00  0.00000000E+00
  0.00000000E+00  0.00000000E+00  0.00000000E+00
  0.00000000E+00  0.00000000E+00  0.00000000E+00
  0.00000000E+00  0.00000000E+00  0.00000000E+00
  0.00000000E+00  0.00000000E+00  0.00000000E+00
  0.00000000E+00  0.00000000E+00  0.00000000E+00
  0.00000000E+00  0.00000000E+00  0.00000000E+00
  0.00000000E+00  0.00000000E+00  0.00000000E+00
  0.00000000E+00  0.00000000E+00  0.00000000E+00
  0.00000000E+00  0.00000000E+00  0.00000000E+00
  0.00000000E+00  0.00000000E+00  0.00000000E+00
  0.00000000E+00  0.00000000E+00  0.00000000E+00
  0.00000000E+00  0.00000000E+00  0.00000000E+00
  0.00000000E+00  0.00000000E+00  0.00000000E+00
  0.00000000E+00  0.00000000E+00  0.00000000E+00
  0.00000000E+00  0.00000000E+00  0.00000000E+00
  0.00000000E+00  0.00000000E+00  0.00000000E+00
  0.00000000E+00  0.00000000E+00  0.00000000E+00
  0.00000000E+00  0.00000000E+00  0.00000000E+00
  0.00000000E+00  0.00000000E+00  0.00000000E+00
  0.00000000E+00  0.00000000E+00  0.00000000E+00
  0.00000000E+00  0.00000000E+00  0.00000000E+00
  0.00000000E+00  0.00000000E+00  0.00000000E+00
  0.00000000E+00  0.00000000E+00  0.00000000E+00
  0.00000000E+00  0.00000000E+00  0.00000000E+00
  0.00000000E+00  0.00000000E+00  0.00000000E+00
  0.00000000E+00  0.00000000E+00  0.00000000E+00
  0.00000000E+00  0.00000000E+00  0.00000000E+00
  0.00000000E+00  0.00000000E+00  0.00000000E+00
  0.00000000E+00  0.00000000E+00  0.00000000E+00
  0.00000000E+00  0.00000000E+00  0.00000000E+00
  0.00000000E+00  0.00000000E+00  0.00000000E+00
  0.00000000E+00  0.00000000E+00  0.00000000E+00
  0.00000000E+00  0.00000000E+00  0.00000000E+00
  0.00000000E+00  0.00000000E+00  0.00000000E+00
  0.00000000E+00  0.00000000E+00  0.00000000E+00
  0.00000000E+00  0.00000000E+00  0.00000000E+00
  0.00000000E+00  0.00000000E+00  0.00000000E+00
