Na8 Co8 O16 F8                          
   1.00000000000000     
     8.0210768076765575    0.0033735624085879    0.0432631627199297
    -0.0052981370484259    7.2529204377324890    0.0442398656048763
     0.0071420369764224    0.0377269271762720    7.3082962558497311
   Na   Co   O    F 
     8     8    16     8
Direct
  0.2498664451685784  0.2542501239804322  0.2848350679474179
  0.2448260519958454  0.2527357823051937  0.7507615269625384
  0.2477866004959824  0.7555105064982162  0.2354233421788185
  0.2464758525038092  0.7462590245388917  0.7131797936192127
  0.7543174889066782  0.2466145886754337  0.2493671992018003
  0.7612615434001802  0.2438593898531739  0.7816526391167983
  0.7506009054853469  0.7494792398284282  0.2170526599121166
  0.7613865524620732  0.7528817295372446  0.7326469391262543
  0.0037210252243774 -0.0009241159614994  0.0007410033736372
 -0.0036618000735012  0.0000828517240321  0.4997838115440582
  0.0197698470916885  0.4980192183825187  0.0032521068534915
  0.9914256836981609  0.4997663980736726  0.4990348576492171
  0.4976478512132266 -0.0017038535920673  0.0008746135193892
  0.5026928523365615 -0.0027766079396972  0.5006034033706551
  0.4746283716192483  0.4959510350623076  0.0030470855740029
  0.5509035630334314  0.4930822564777936  0.5134734008048994
  0.2610322255966452  0.4696842843049723  0.0492879230942402
  0.7624833668364779  0.4648931889743208  0.5506075447994078
  0.9713685118901584  0.2405008870271295 -0.0030465434761219
  0.0310918931308766  0.2520610959866012  0.4995991812266822
  0.0326642124374514  0.7598065244817623  0.0070958993252289
  0.9618019715297783  0.7492740001205936  0.4982308832692077
  0.5347536201402631  0.2354450864605732  0.9939183079578391
  0.4739520382716734  0.2380465262609634  0.4982048099376297
  0.4629564752546210  0.7644216080382352  0.0040104746255659
  0.5307984849545578  0.7594579069345787  0.5062567831999236
  0.9589199814397882  0.0017600013035111  0.2380159761645107
  0.0404882808593763 -0.0006950384289627  0.7621300625719075
  0.9526967474326444  0.4963161947338026  0.2498684896781712
  0.0340072992689544  0.5046757776592201  0.7493548186534853
  0.5610044455426914  0.0030347166381504  0.2517275903209781
  0.4395619637680831  0.0039963889032910  0.7490951063155188
  0.2511210164395727  0.0465802101089255  0.0608073014183036
  0.2455625947926787  0.9637843216356154  0.4523131022783908
  0.2254404139422875  0.5344447113145300  0.4544815697012712
  0.7495793837061486 -0.0440230574833549 -0.0510604448606486
  0.7528889661030964  0.0393796523251734  0.5565964771099612
  0.7191568474410429  0.5317304855033395  0.9456061309301401
  0.5649187798112222  0.5014520128548817  0.2524436352679084
  0.4281016448482032  0.5008849468980688  0.7387254697361817
 
  0.00000000E+00  0.00000000E+00  0.00000000E+00
  0.00000000E+00  0.00000000E+00  0.00000000E+00
  0.00000000E+00  0.00000000E+00  0.00000000E+00
  0.00000000E+00  0.00000000E+00  0.00000000E+00
  0.00000000E+00  0.00000000E+00  0.00000000E+00
  0.00000000E+00  0.00000000E+00  0.00000000E+00
  0.00000000E+00  0.00000000E+00  0.00000000E+00
  0.00000000E+00  0.00000000E+00  0.00000000E+00
  0.00000000E+00  0.00000000E+00  0.00000000E+00
  0.00000000E+00  0.00000000E+00  0.00000000E+00
  0.00000000E+00  0.00000000E+00  0.00000000E+00
  0.00000000E+00  0.00000000E+00  0.00000000E+00
  0.00000000E+00  0.00000000E+00  0.00000000E+00
  0.00000000E+00  0.00000000E+00  0.00000000E+00
  0.00000000E+00  0.00000000E+00  0.00000000E+00
  0.00000000E+00  0.00000000E+00  0.00000000E+00
  0.00000000E+00  0.00000000E+00  0.00000000E+00
  0.00000000E+00  0.00000000E+00  0.00000000E+00
  0.00000000E+00  0.00000000E+00  0.00000000E+00
  0.00000000E+00  0.00000000E+00  0.00000000E+00
  0.00000000E+00  0.00000000E+00  0.00000000E+00
  0.00000000E+00  0.00000000E+00  0.00000000E+00
  0.00000000E+00  0.00000000E+00  0.00000000E+00
  0.00000000E+00  0.00000000E+00  0.00000000E+00
  0.00000000E+00  0.00000000E+00  0.00000000E+00
  0.00000000E+00  0.00000000E+00  0.00000000E+00
  0.00000000E+00  0.00000000E+00  0.00000000E+00
  0.00000000E+00  0.00000000E+00  0.00000000E+00
  0.00000000E+00  0.00000000E+00  0.00000000E+00
  0.00000000E+00  0.00000000E+00  0.00000000E+00
  0.00000000E+00  0.00000000E+00  0.00000000E+00
  0.00000000E+00  0.00000000E+00  0.00000000E+00
  0.00000000E+00  0.00000000E+00  0.00000000E+00
  0.00000000E+00  0.00000000E+00  0.00000000E+00
  0.00000000E+00  0.00000000E+00  0.00000000E+00
  0.00000000E+00  0.00000000E+00  0.00000000E+00
  0.00000000E+00  0.00000000E+00  0.00000000E+00
  0.00000000E+00  0.00000000E+00  0.00000000E+00
  0.00000000E+00  0.00000000E+00  0.00000000E+00
  0.00000000E+00  0.00000000E+00  0.00000000E+00
