Na4 Mn4 O8 F4                           
   1.00000000000000     
     5.2488070421711477   -0.0172974008121790   -0.0018112639275535
    -0.0120580213967160    5.3100915011136980    0.0051129360149235
    -0.0033556808687510   -0.0097792925169795    7.2202894137122051
   Na   Mn   O    F 
     4     4     8     4
Direct
  0.0045426511387160  0.0504474277119383  0.2497888686166977
  0.0046524765572608  0.9669710422067788  0.7489707574584671
  0.4884902858527215  0.4474345619859273  0.7537131368796607
  0.4928987558065006  0.5326175425366255  0.2543844996046212
  0.5300771517892223  0.9968561468666528  0.0021351273205036
  0.9674097245640892  0.5027702288591718  0.0009112990335707
  0.5024801366941811  0.9667042182062177  0.4986025054287487
  0.9987391229718511  0.5283344036398226  0.4960966793239715
  0.0687841066983524  0.4826146777677907  0.2489307413623407
  0.9247530530302275  0.5051014763042481  0.7484885846783634
  0.5685362708150595  0.0216349379034309  0.7494783298890525
  0.4275159492887747  0.9791946749916118  0.2494924840332061
  0.6929514539681781  0.3005876048143593  0.0421594840669394
  0.8087718978362513  0.8039157799466209  0.0377948171436309
  0.2996883921893056  0.6964087484976108  0.5434251947162192
  0.8032738448318227  0.8027599143826680  0.4575655384399346
  0.2992530321918621  0.7084928684919616  0.9601331919826375
  0.2006264473693681  0.2101170792816813  0.9641634486096764
  0.7072623228666999  0.2946260614479960  0.4608420736660062
  0.2092929235395487  0.2024106041568862  0.5329232377457525
 
  0.00000000E+00  0.00000000E+00  0.00000000E+00
  0.00000000E+00  0.00000000E+00  0.00000000E+00
  0.00000000E+00  0.00000000E+00  0.00000000E+00
  0.00000000E+00  0.00000000E+00  0.00000000E+00
  0.00000000E+00  0.00000000E+00  0.00000000E+00
  0.00000000E+00  0.00000000E+00  0.00000000E+00
  0.00000000E+00  0.00000000E+00  0.00000000E+00
  0.00000000E+00  0.00000000E+00  0.00000000E+00
  0.00000000E+00  0.00000000E+00  0.00000000E+00
  0.00000000E+00  0.00000000E+00  0.00000000E+00
  0.00000000E+00  0.00000000E+00  0.00000000E+00
  0.00000000E+00  0.00000000E+00  0.00000000E+00
  0.00000000E+00  0.00000000E+00  0.00000000E+00
  0.00000000E+00  0.00000000E+00  0.00000000E+00
  0.00000000E+00  0.00000000E+00  0.00000000E+00
  0.00000000E+00  0.00000000E+00  0.00000000E+00
  0.00000000E+00  0.00000000E+00  0.00000000E+00
  0.00000000E+00  0.00000000E+00  0.00000000E+00
  0.00000000E+00  0.00000000E+00  0.00000000E+00
  0.00000000E+00  0.00000000E+00  0.00000000E+00
