Na4 Fe4 O8 F4                           
   1.00000000000000     
     5.1997401673676187    0.0003479826894925   -0.0283179532130749
     0.0002303372164599    5.2599408610140594    0.0032163747469560
    -0.0401824460076046   -0.0058020840475002    7.6372740256568346
   Na   Fe   O    F 
     4     4     8     4
Direct
  0.9876791588029673  0.0411979340372228  0.2534826038497773
  0.0089946910899402  0.9669179780402926  0.7442367516261023
  0.4874311378227201  0.4590383618338251  0.7528988191457091
  0.5075914125470126  0.5338714095002595  0.2449702451602305
  0.4822202856139893  0.0042218376668104  0.0094939278189716
  0.0030001431701794  0.4847348070301500  0.9844822878868538
  0.5030676305099553  0.0151446251526406  0.4844468522405491
  0.9820079920217175  0.4956274665307691  0.5095612072658797
  0.9302436841506740  0.5132303024115040  0.7511099905270671
  0.4301942408531569  0.9864678862058236  0.2510773076347136
  0.7174248519015093  0.2899739226020037  0.0322408423506156
  0.2903790548533845  0.7095843596386822  0.9689535485028786
  0.2075952022533865  0.2091895110811202  0.9620707770076912
  0.7075453779376004  0.2905261182375261  0.4619719430033086
  0.7899553246808165  0.7900730403369499  0.4689745561598394
  0.2176552556027997  0.2101918950632556  0.5320976803305786
  0.0754574982607240  0.4914418256469717  0.2510224321801707
  0.5757690818009575  0.0083318302429655  0.7510218658249659
  0.7980991368013727  0.7917767529969157  0.0429745612814405
  0.2976888393251364  0.7084581357443048  0.5429118002026430
 
  0.00000000E+00  0.00000000E+00  0.00000000E+00
  0.00000000E+00  0.00000000E+00  0.00000000E+00
  0.00000000E+00  0.00000000E+00  0.00000000E+00
  0.00000000E+00  0.00000000E+00  0.00000000E+00
  0.00000000E+00  0.00000000E+00  0.00000000E+00
  0.00000000E+00  0.00000000E+00  0.00000000E+00
  0.00000000E+00  0.00000000E+00  0.00000000E+00
  0.00000000E+00  0.00000000E+00  0.00000000E+00
  0.00000000E+00  0.00000000E+00  0.00000000E+00
  0.00000000E+00  0.00000000E+00  0.00000000E+00
  0.00000000E+00  0.00000000E+00  0.00000000E+00
  0.00000000E+00  0.00000000E+00  0.00000000E+00
  0.00000000E+00  0.00000000E+00  0.00000000E+00
  0.00000000E+00  0.00000000E+00  0.00000000E+00
  0.00000000E+00  0.00000000E+00  0.00000000E+00
  0.00000000E+00  0.00000000E+00  0.00000000E+00
  0.00000000E+00  0.00000000E+00  0.00000000E+00
  0.00000000E+00  0.00000000E+00  0.00000000E+00
  0.00000000E+00  0.00000000E+00  0.00000000E+00
  0.00000000E+00  0.00000000E+00  0.00000000E+00
