Na4 Co4 O8 F4                           
   1.00000000000000     
     5.3673001528267221    0.0308602604125685   -0.1960619142859583
    -2.6771060426855473    4.6400102060202206    0.2133112002388295
     0.0307106460430861    0.0062439906822174    9.1101344016516386
   Na   Co   O    F 
     4     4     8     4
Direct
  0.9799814713727244  0.9940433412376279  0.0786087000596396
  0.0156748263940756  0.0090828590100500  0.5659453656222055
  0.3164664559292234  0.6574136000104360  0.2564814572155711
  0.6704433962150205  0.3279496769539278  0.7594686236546977
  0.3392737711747671  0.6728962441499320  0.6001909276348201
  0.6795383386502394  0.3374113467291693  0.3826204589355413
  0.6380732333147279  0.3244833625060295  0.1009654907782789
  0.3487951245168901  0.7022560221540104  0.8849917008764621
  0.4092650906950297  0.9923787135586082  0.9932573125776116
  0.5690351529713311  0.5569420634886200  0.9916837447987206
  0.4880684363604644  0.0618929862951276  0.5012225302270679
  0.0645445049793665  0.4798632901785354  0.4822323945007767
  0.8495708644870490  0.6047298673780901  0.2405703345304104
  0.6225469272979680  0.8588550329256961  0.7358552051452563
  0.7007023052115784  0.1089196575886717  0.2340945120561386
  0.1153978742362298  0.7193217057902217  0.7358382848469773
  0.0006187635249191  0.3981657252086208  0.9849289665485443
  0.6206848077599219  0.6199395107123564  0.4883250545668929
  0.2607689289787558  0.3296214310701799  0.7324815899688701
  0.3105497259297252  0.2438335630540820  0.2502373454555169
 
  0.00000000E+00  0.00000000E+00  0.00000000E+00
  0.00000000E+00  0.00000000E+00  0.00000000E+00
  0.00000000E+00  0.00000000E+00  0.00000000E+00
  0.00000000E+00  0.00000000E+00  0.00000000E+00
  0.00000000E+00  0.00000000E+00  0.00000000E+00
  0.00000000E+00  0.00000000E+00  0.00000000E+00
  0.00000000E+00  0.00000000E+00  0.00000000E+00
  0.00000000E+00  0.00000000E+00  0.00000000E+00
  0.00000000E+00  0.00000000E+00  0.00000000E+00
  0.00000000E+00  0.00000000E+00  0.00000000E+00
  0.00000000E+00  0.00000000E+00  0.00000000E+00
  0.00000000E+00  0.00000000E+00  0.00000000E+00
  0.00000000E+00  0.00000000E+00  0.00000000E+00
  0.00000000E+00  0.00000000E+00  0.00000000E+00
  0.00000000E+00  0.00000000E+00  0.00000000E+00
  0.00000000E+00  0.00000000E+00  0.00000000E+00
  0.00000000E+00  0.00000000E+00  0.00000000E+00
  0.00000000E+00  0.00000000E+00  0.00000000E+00
  0.00000000E+00  0.00000000E+00  0.00000000E+00
  0.00000000E+00  0.00000000E+00  0.00000000E+00
