Na1 Ti16 O16 F32                        
   1.00000000000000     
    10.9052349999999993    0.1347110000000000   -0.0000580000000000
     0.1317180000000000   10.9529669999999992    0.0001430000000000
    -0.0000390000000000    0.0001030000000000    7.6325979999999998
   Na   Ti   O    F 
     1    16    16    32
Direct
  0.4947538637847845  0.4901492581815185  0.4090560836669064
  0.2418823280091469  0.0056134042010635  0.0122438499530159
  0.2409837228633668  0.5064031650924911  0.0161903786876703
  0.7423099389214370  0.0066038909536338  0.0084135457607500
  0.7427432145677811  0.5057267502358695  0.0158544214894840
  0.0053860384927408  0.2423745961957381  0.9866124491067717
  0.0053211069843184  0.7433168831414227  0.9896745277699126
  0.5048785674695641  0.2428609928149998  0.9839379366287466
  0.5059898067522710  0.7431577637953528  0.9891072727578506
  0.2399142139551624  0.0042629309916051  0.4855392169072874
  0.2299941685859516  0.5056856324422974  0.4934623444386020
  0.7468618453819357  0.0045699899886890  0.4813153945390903
  0.7505806783849324  0.5098969805806102  0.4906775436081617
  0.0033482341804211  0.2403411323506866  0.5168714295805091
  0.0041261332023581  0.7482542816391341  0.5202927071060199
  0.5054813249016398  0.2308901454335001  0.5163682663444776
  0.5079276039677453  0.7506512403982816  0.5219489315012300
  0.1173186260802315  0.1171289559341492  0.9873106235287028
  0.1160329308165232  0.6167411083214426  0.9863511273273319
  0.6166402349502291  0.1165049544405788  0.9897337382694348
  0.6161039719533888  0.6159339005105382  0.9885592751551266
  0.1165866711301006  0.1164499737573265  0.5132255013473914
  0.1113148067208772  0.6167835724222458  0.5155028853147837
  0.6171546508324129  0.1116796890525814  0.5156536265799578
  0.6222296376317846  0.6216255803769020  0.5171537488555692
  0.4841870755060442  0.2489081848813758  0.7513963678779287
  0.4838788706868822  0.7518529882861902  0.7523322214635382
  0.9812125126731212  0.2478750374953221  0.7511586413868478
  0.9805067605291234  0.7510799572312603  0.7514870956605211
  0.2389454804296541  0.4978013368126209  0.2529571407604378
  0.2341237164598067  0.9925938925035255  0.2496543974970282
  0.7325767965851456  0.4951765102305640  0.2539635570717940
  0.7377466693953038  0.9940703599315979  0.2491888560779775
  0.3658666314467852  0.1359721537720046  0.0232325301255948
  0.3657002291450869  0.6351239651218950  0.0190923770677867
  0.8652489607461878  0.1355737514698412  0.0214692327248420
  0.8654373266822039  0.6353981513614519  0.0246108195414198
  0.1362212946483629  0.3657566309240882  0.9799299619095317
  0.1359968233696720  0.8650888540781482  0.9769742509186866
  0.6358871162681595  0.3654374168043708  0.9808793004550053
  0.6361626720518307  0.8650404422402058  0.9809457514987361
  0.3871769378350933  0.3868106062243107  0.0150226923805275
  0.3864691038577658  0.8853110640901921  0.0144297487515037
  0.8854729114334701  0.3861486911441990  0.0145840483137126
  0.8853551540881195  0.8849434743596675  0.0135165869430365
  0.1258053382239998  0.3683198445377531  0.5236450870109463
  0.1385239951802245  0.8629875046290819  0.5257319232701042
  0.6328839493714733  0.3662036392286572  0.5222831579869101
  0.6404552131470838  0.8655370100957044  0.5224792695394836
  0.3692261339699733  0.1254066193583364  0.4767110395820686
  0.3659340603209765  0.6331958052365176  0.4853517451272684
  0.8630831428560809  0.1377700105476661  0.4767765500017730
  0.8663203065252167  0.6402755085295283  0.4745123991511631
  0.3657437754691926  0.3657474177573326  0.4919540099189735
  0.3870313149291846  0.8839362815253702  0.4852634806625284
  0.8849607107877048  0.3865075302107709  0.4881943661219587
  0.8911041515538460  0.8906654331030355  0.4863069085904647
  0.0121735956585534  0.2561375049972313  0.2509428665183180
  0.0154240721100675  0.7590579253676507  0.2503672135744214
  0.5138195459849119  0.2634499357025291  0.2563645862528303
  0.5126152306950205  0.7516250791828815  0.2523090936582645
  0.2709227354004178  0.0004117252793810  0.7498872578861927
  0.2717354564949757  0.5010458543115347  0.7482409761383709
  0.7725283175912767  1.0011795159042249  0.7505992968339419
  0.7721433115014839  0.5020947450067376  0.7516388622551112
 
             NaN             NaN             NaN
             NaN             NaN             NaN
             NaN             NaN             NaN
             NaN             NaN             NaN
             NaN             NaN             NaN
             NaN             NaN             NaN
             NaN             NaN             NaN
             NaN             NaN             NaN
             NaN             NaN             NaN
             NaN             NaN             NaN
             NaN             NaN             NaN
             NaN             NaN             NaN
             NaN             NaN             NaN
             NaN             NaN             NaN
             NaN             NaN             NaN
             NaN             NaN             NaN
             NaN             NaN             NaN
             NaN             NaN             NaN
             NaN             NaN             NaN
             NaN             NaN             NaN
             NaN             NaN             NaN
             NaN             NaN             NaN
             NaN             NaN             NaN
             NaN             NaN             NaN
             NaN             NaN             NaN
             NaN             NaN             NaN
             NaN             NaN             NaN
             NaN             NaN             NaN
             NaN             NaN             NaN
             NaN             NaN             NaN
             NaN             NaN             NaN
             NaN             NaN             NaN
             NaN             NaN             NaN
             NaN             NaN             NaN
             NaN             NaN             NaN
             NaN             NaN             NaN
             NaN             NaN             NaN
             NaN             NaN             NaN
             NaN             NaN             NaN
             NaN             NaN             NaN
             NaN             NaN             NaN
             NaN             NaN             NaN
             NaN             NaN             NaN
             NaN             NaN             NaN
             NaN             NaN             NaN
             NaN             NaN             NaN
             NaN             NaN             NaN
             NaN             NaN             NaN
             NaN             NaN             NaN
             NaN             NaN             NaN
             NaN             NaN             NaN
             NaN             NaN             NaN
             NaN             NaN             NaN
             NaN             NaN             NaN
             NaN             NaN             NaN
             NaN             NaN             NaN
             NaN             NaN             NaN
             NaN             NaN             NaN
             NaN             NaN             NaN
             NaN             NaN             NaN
             NaN             NaN             NaN
             NaN             NaN             NaN
             NaN             NaN             NaN
             NaN             NaN             NaN
             NaN             NaN             NaN
