Na1 Ti16 O16 F32
1.0
10.905235 0.134711 -0.000058
0.131718 10.952967 0.000143
-0.000039 0.000103 7.632598
Na Ti O F
1 16 16 32
direct
0.493333 0.494279 0.416341 Na
0.241130 0.005615 0.013071 Ti
0.238070 0.506418 0.012261 Ti
0.742931 0.005272 0.013259 Ti
0.743492 0.506055 0.012856 Ti
0.004839 0.242032 0.984848 Ti
0.004108 0.744288 0.984977 Ti
0.505410 0.239516 0.984184 Ti
0.505325 0.744458 0.984342 Ti
0.241191 0.005588 0.486684 Ti
0.238100 0.506414 0.487385 Ti
0.742951 0.005242 0.486591 Ti
0.743555 0.506018 0.487067 Ti
0.004927 0.241999 0.514906 Ti
0.004131 0.744265 0.514938 Ti
0.505446 0.239485 0.515591 Ti
0.505363 0.744430 0.515495 Ti
0.115869 0.115752 0.986698 O
0.114359 0.615650 0.987242 O
0.615221 0.114671 0.986499 O
0.612181 0.612170 0.988343 O
0.115935 0.115783 0.513195 O
0.114385 0.615652 0.512503 O
0.615217 0.114638 0.513397 O
0.612204 0.612165 0.511594 O
0.480680 0.250571 0.749901 O
0.482842 0.748180 0.749936 O
0.983460 0.251044 0.749910 O
0.981765 0.749172 0.749938 O
0.239353 0.494994 0.249856 O
0.235768 0.993480 0.249930 O
0.731341 0.492726 0.249992 O
0.736807 0.995305 0.249953 O
0.364190 0.137322 0.024186 F
0.364768 0.635359 0.021385 F
0.863972 0.136168 0.018360 F
0.862834 0.637434 0.022921 F
0.137652 0.363792 0.979960 F
0.136676 0.864095 0.976842 F
0.636245 0.364408 0.975724 F
0.637664 0.862563 0.981301 F
0.392046 0.391524 0.013937 F
0.387650 0.885500 0.013865 F
0.886126 0.387121 0.012844 F
0.886758 0.886559 0.012988 F
0.137793 0.363727 0.519738 F
0.136607 0.864168 0.523069 F
0.636364 0.364342 0.524196 F
0.637616 0.862593 0.518636 F
0.364168 0.137389 0.475557 F
0.364750 0.635425 0.478393 F
0.864064 0.136078 0.481518 F
0.862884 0.637383 0.477002 F
0.392248 0.391694 0.485904 F
0.387671 0.885557 0.486022 F
0.886207 0.387174 0.487148 F
0.886618 0.886398 0.486837 F
0.011802 0.256311 0.249938 F
0.013336 0.757205 0.249929 F
0.515643 0.263238 0.249951 F
0.512156 0.750008 0.249961 F
0.272753 0.001375 0.749928 F
0.272858 0.500891 0.749871 F
0.769048 0.998867 0.749945 F
0.768983 0.502902 0.749997 F
