Na1 Ti16 O16 F32                        
   1.00000000000000     
    10.8991740000000004    0.1345620000000000   -0.0000720000000000
     0.1314600000000000   10.9549909999999997    0.0001930000000000
    -0.0000470000000000    0.0001380000000000    7.6316970000000000
   Na   Ti   O    F 
     1    16    16    32
Direct
  0.4904775267178929  0.4903089511435794  0.5003582980938891
  0.2419379502518809  0.0056528817984919  0.0118614920183518
  0.2414437456926148  0.5063322507970154  0.0147062764284297
  0.7421357816212908  0.0066476759606540  0.0073255874022147
  0.7427303546064954  0.5058794384067160  0.0132763278650483
  0.0053480552657733  0.2424650776891160  0.9864411643678905
  0.0055758230742081  0.7431887160876306  0.9895195865581240
  0.5048270283980973  0.2431998869058102  0.9813536367208325
  0.5058074334174798  0.7430292140603463  0.9875060967409265
  0.2393480730800233  0.0040492398820543  0.4852329229900533
  0.2279740669561988  0.5055540004008970  0.4893368657858968
  0.7477715450999048  0.0045000795163502  0.4802959110276388
  0.7519731515182860  0.5101910643378809  0.4856602886280194
  0.0031664667641503  0.2403082101416718  0.5167922494925958
  0.0040684769532820  0.7486097985822061  0.5203690212486728
  0.5055879089487392  0.2285707836227859  0.5114728375460346
  0.5087440629315870  0.7525578243192759  0.5181785694109883
  0.1173127986719458  0.1172060143118640  0.9872660269973599
  0.1162465619285779  0.6168433396402953  0.9837684796096619
  0.6165551278121325  0.1165304142969177  0.9874751949926274
  0.6162232232890493  0.6160318646359376  0.9869901814089188
  0.1163025254214829  0.1162649154648281  0.5127721594585642
  0.1103569863223104  0.6165304693554365  0.5155119062245261
  0.6169206044220272  0.1104070360097070  0.5159923004933344
  0.6251299677640955  0.6246787228929750  0.5138437401838952
  0.4848750766524415  0.2515182002551672  0.7480361243804793
  0.4842043503883754  0.7505106355941966  0.7498652073291370
  0.9809553467664027  0.2474568961699693  0.7508770602760720
  0.9802167002906360  0.7515750769703153  0.7511208423011952
  0.2359029519661963  0.4981026180235001  0.2501599418138081
  0.2341323300866155  0.9924620420007501  0.2492075099350206
  0.7352486201162369  0.4953984109075635  0.2514573357804663
  0.7375356741234116  0.9942530562197479  0.2485883865061807
  0.3659439257219828  0.1359865685305148  0.0212771113087683
  0.3655526975908200  0.6352096336485322  0.0179403682872192
  0.8652021334979680  0.1356131407390912  0.0214118438770255
  0.8655972431468332  0.6355121958392809  0.0234176653950932
  0.1363205405239417  0.3658562437073661  0.9779271571775531
  0.1360004900815743  0.8651612490579035  0.9766278782677670
  0.6358737672896234  0.3655323475444350  0.9801243472787515
  0.6361100887564508  0.8651400557684229  0.9795496047155188
  0.3865198711537250  0.3864273246744878  0.0129809782384537
  0.3864161759885104  0.8853146364403804  0.0129603741398059
  0.8857567013358945  0.3860722453764543  0.0133655630864933
  0.8853222146854640  0.8849819758943153  0.0136031239410962
  0.1248216721557327  0.3685169120569651  0.5240703363060869
  0.1387842151771835  0.8626644191984991  0.5255454934927226
  0.6366421373186560  0.3636129258514432  0.5193169769095947
  0.6409968290351263  0.8663969166204105  0.5226638927338410
  0.3691733573559168  0.1240167049933304  0.4765113946929652
  0.3635673815308817  0.6359638475976083  0.4818093302371569
  0.8628146236743751  0.1381731991563787  0.4760176650836948
  0.8671357285728610  0.6406729707213594  0.4732242049220088
  0.3609660230188971  0.3610594747892857  0.4844437589635323
  0.3873061438445330  0.8849032297047580  0.4849771101430679
  0.8858349934915141  0.3869387307569158  0.4878305113120717
  0.8915495878720554  0.8910050613490430  0.4853048700730240
  0.0122714610051199  0.2563452326514148  0.2505361216330861
  0.0158300261233652  0.7588569643912405  0.2497262267589225
  0.5143021819896999  0.2598862214337385  0.2543676894685691
  0.5129923049426839  0.7542663278581154  0.2504900334470542
  0.2705841089455095  0.0003735242609698  0.7493851247938914
  0.2749062333870606  0.5010257782206846  0.7438956080404143
  0.7731938937972923  1.0011654525417186  0.7501059906806018
  0.7711218467745911  0.5019245070258374  0.7500440971060565
 
             NaN             NaN             NaN
             NaN             NaN             NaN
             NaN             NaN             NaN
             NaN             NaN             NaN
             NaN             NaN             NaN
             NaN             NaN             NaN
             NaN             NaN             NaN
             NaN             NaN             NaN
             NaN             NaN             NaN
             NaN             NaN             NaN
             NaN             NaN             NaN
             NaN             NaN             NaN
             NaN             NaN             NaN
             NaN             NaN             NaN
             NaN             NaN             NaN
             NaN             NaN             NaN
             NaN             NaN             NaN
             NaN             NaN             NaN
             NaN             NaN             NaN
             NaN             NaN             NaN
             NaN             NaN             NaN
             NaN             NaN             NaN
             NaN             NaN             NaN
             NaN             NaN             NaN
             NaN             NaN             NaN
             NaN             NaN             NaN
             NaN             NaN             NaN
             NaN             NaN             NaN
             NaN             NaN             NaN
             NaN             NaN             NaN
             NaN             NaN             NaN
             NaN             NaN             NaN
             NaN             NaN             NaN
             NaN             NaN             NaN
             NaN             NaN             NaN
             NaN             NaN             NaN
             NaN             NaN             NaN
             NaN             NaN             NaN
             NaN             NaN             NaN
             NaN             NaN             NaN
             NaN             NaN             NaN
             NaN             NaN             NaN
             NaN             NaN             NaN
             NaN             NaN             NaN
             NaN             NaN             NaN
             NaN             NaN             NaN
             NaN             NaN             NaN
             NaN             NaN             NaN
             NaN             NaN             NaN
             NaN             NaN             NaN
             NaN             NaN             NaN
             NaN             NaN             NaN
             NaN             NaN             NaN
             NaN             NaN             NaN
             NaN             NaN             NaN
             NaN             NaN             NaN
             NaN             NaN             NaN
             NaN             NaN             NaN
             NaN             NaN             NaN
             NaN             NaN             NaN
             NaN             NaN             NaN
             NaN             NaN             NaN
             NaN             NaN             NaN
             NaN             NaN             NaN
             NaN             NaN             NaN
