Na1 Ti16 O16 F32
1.0
10.899174 0.134562 -0.000072
0.131460 10.954991 0.000193
-0.000047 0.000138 7.631697
Na Ti O F
1 16 16 32
direct
0.493799 0.492677 0.499543 Na
0.241081 0.005486 0.012991 Ti
0.238255 0.506208 0.012859 Ti
0.743097 0.004862 0.013243 Ti
0.743488 0.506186 0.013207 Ti
0.004785 0.241986 0.984781 Ti
0.004307 0.744055 0.984924 Ti
0.505553 0.239158 0.984799 Ti
0.505204 0.744292 0.984695 Ti
0.241133 0.005464 0.486718 Ti
0.238283 0.506198 0.486789 Ti
0.743131 0.004819 0.486555 Ti
0.743548 0.506160 0.486723 Ti
0.004865 0.241961 0.514933 Ti
0.004334 0.744030 0.514957 Ti
0.505602 0.239103 0.514980 Ti
0.505239 0.744278 0.515144 Ti
0.115745 0.115624 0.986336 O
0.114190 0.615311 0.986893 O
0.615246 0.114394 0.986325 O
0.611876 0.611804 0.985392 O
0.115809 0.115660 0.513497 O
0.114208 0.615309 0.512816 O
0.615238 0.114337 0.513594 O
0.611892 0.611795 0.514516 O
0.481557 0.251307 0.749911 O
0.481666 0.747745 0.749933 O
0.982624 0.250684 0.749886 O
0.981723 0.749449 0.749914 O
0.238053 0.493865 0.249855 O
0.235573 0.993634 0.249907 O
0.731556 0.493911 0.249996 O
0.736204 0.994602 0.249946 O
0.364003 0.137312 0.023475 F
0.364307 0.635706 0.021910 F
0.863925 0.136089 0.019458 F
0.862505 0.637756 0.022520 F
0.137775 0.363691 0.978309 F
0.136990 0.863749 0.977024 F
0.636221 0.364446 0.975585 F
0.637953 0.862207 0.980071 F
0.391890 0.391754 0.011559 F
0.387964 0.885772 0.014368 F
0.886056 0.387171 0.013401 F
0.887090 0.886715 0.013349 F
0.137901 0.363635 0.521406 F
0.136922 0.863823 0.522814 F
0.636340 0.364382 0.524404 F
0.637936 0.862212 0.519857 F
0.363983 0.137371 0.476278 F
0.364286 0.635766 0.477922 F
0.864014 0.136006 0.480367 F
0.862537 0.637731 0.477383 F
0.392086 0.391913 0.488283 F
0.387993 0.885830 0.485477 F
0.886129 0.387228 0.486553 F
0.886970 0.886568 0.486432 F
0.012535 0.256621 0.249914 F
0.013395 0.756708 0.249906 F
0.514732 0.262039 0.249976 F
0.513710 0.750581 0.249965 F
0.272656 0.000930 0.749899 F
0.274157 0.502223 0.749869 F
0.769626 0.999128 0.749934 F
0.768997 0.501962 0.749996 F
