Fe4 O4 F8                               
   1.00000000000000     
     4.9989382605507506   -0.0030668334501926    0.2337776862561114
     0.0022986226546495    5.0998945392648549    0.0294980310790011
    -0.7018230072312223   -0.0392310821135489    7.4332844122104094
   Fe   O    F 
     4     4     8
Direct
  0.4991390697374936  0.9775129944345990  0.0004847905649318
  0.0169589322060878  0.4939789209273430  0.0002794304057483
  0.5113352455268384  0.0054771695151884  0.4999366715220150
  0.9923726747696088  0.5213901901067188  0.5008349671937102
  0.6399283344486177  0.3498650555740331  0.0308049052295888
  0.3648202728406004  0.6329031228093954  0.9658829296139582
  0.8579671368064296  0.8652284813262525  0.4618799145123131
  0.1332824980243371  0.1492745619244419  0.5309378812252658
  0.1602465940864161  0.1522601412739668  0.9369088737707327
  0.8472361383581709  0.8257045041869806  0.0607136512034390
  0.3391521930811365  0.6762085176128622  0.5601599083494035
  0.6521782411940218  0.3494423540758880  0.4404192867595343
  0.0870154716425920  0.4408628194899586  0.2558667663130683
  0.9039491415391684  0.5348395144416551  0.7507151007272311
  0.5921469649322179  0.0546575896910538  0.7550060678270851
  0.4022710908062705  0.9703940626096631  0.2491688547819752
 
  0.00000000E+00  0.00000000E+00  0.00000000E+00
  0.00000000E+00  0.00000000E+00  0.00000000E+00
  0.00000000E+00  0.00000000E+00  0.00000000E+00
  0.00000000E+00  0.00000000E+00  0.00000000E+00
  0.00000000E+00  0.00000000E+00  0.00000000E+00
  0.00000000E+00  0.00000000E+00  0.00000000E+00
  0.00000000E+00  0.00000000E+00  0.00000000E+00
  0.00000000E+00  0.00000000E+00  0.00000000E+00
  0.00000000E+00  0.00000000E+00  0.00000000E+00
  0.00000000E+00  0.00000000E+00  0.00000000E+00
  0.00000000E+00  0.00000000E+00  0.00000000E+00
  0.00000000E+00  0.00000000E+00  0.00000000E+00
  0.00000000E+00  0.00000000E+00  0.00000000E+00
  0.00000000E+00  0.00000000E+00  0.00000000E+00
  0.00000000E+00  0.00000000E+00  0.00000000E+00
  0.00000000E+00  0.00000000E+00  0.00000000E+00
