Na4 Co4 O8 F4                           
   1.00000000000000     
     5.3538665486967396   -0.0565920915375055    0.0938051058517868
    -2.6969045816512516    4.7303423106328708   -0.2455975412380950
     0.1216998395684122   -0.3922967952461260    9.1848197005425654
   Na   Co   O    F 
     4     4     8     4
Direct
  0.0019170491078724  0.9885186799113774  0.0593412730151149
  0.9962053567025714  0.0107771059950468  0.4350857963157859
  0.3555030002891599  0.6718204130967632  0.2432222895884198
  0.6862256909981338  0.3925636068347399  0.7315994285643010
  0.3312604714315825  0.6611137488297105  0.5944940697693600
  0.7024668125509521  0.3774367802444173  0.3818998157792377
  0.6790172992443160  0.3269778564395706  0.0947352436889149
  0.3390104063801268  0.6722760633862650  0.8924647985416724
  0.4118789439979557  0.9334575892691068  0.0298234903768720
  0.9298819185249553  0.4563737563941224  0.9561761477475130
  0.9477350182596366  0.4016546210809209  0.5100815814638376
  0.5845038052405942  0.5920532585697099  0.5051603545432551
  0.8261405540698741  0.6421077512361845  0.2374363489016270
  0.2575403714037973  0.4204545791591892  0.7391883373619447
  0.7957313711101105  0.1792536099933603  0.2390967575654718
  0.3021691424352133  0.8763680502473001  0.7366691919210824
  0.3934093694252315  0.4194936781602973  0.0239504963490447
  0.3835048257094980  0.9367680278657955  0.4638702625859639
  0.3338940104812003  0.2194945912326460  0.2730182858895179
  0.7420045826372257  0.8210362320534768  0.8526860300310632
 
  0.00000000E+00  0.00000000E+00  0.00000000E+00
  0.00000000E+00  0.00000000E+00  0.00000000E+00
  0.00000000E+00  0.00000000E+00  0.00000000E+00
  0.00000000E+00  0.00000000E+00  0.00000000E+00
  0.00000000E+00  0.00000000E+00  0.00000000E+00
  0.00000000E+00  0.00000000E+00  0.00000000E+00
  0.00000000E+00  0.00000000E+00  0.00000000E+00
  0.00000000E+00  0.00000000E+00  0.00000000E+00
  0.00000000E+00  0.00000000E+00  0.00000000E+00
  0.00000000E+00  0.00000000E+00  0.00000000E+00
  0.00000000E+00  0.00000000E+00  0.00000000E+00
  0.00000000E+00  0.00000000E+00  0.00000000E+00
  0.00000000E+00  0.00000000E+00  0.00000000E+00
  0.00000000E+00  0.00000000E+00  0.00000000E+00
  0.00000000E+00  0.00000000E+00  0.00000000E+00
  0.00000000E+00  0.00000000E+00  0.00000000E+00
  0.00000000E+00  0.00000000E+00  0.00000000E+00
  0.00000000E+00  0.00000000E+00  0.00000000E+00
  0.00000000E+00  0.00000000E+00  0.00000000E+00
  0.00000000E+00  0.00000000E+00  0.00000000E+00
