Ni4 O4 F8                               
   1.00000000000000     
     4.7794556585706749    0.0388377938171016   -0.0164746180138265
    -2.3324112702066424    4.0646282162248486    0.0572616222916330
     0.0426118573010713   -0.1186601837893059    9.2631964456076759
   Ni   O    F 
     4     4     8
Direct
  0.3673793922028915  0.6650607396436514  0.5993173342867415
  0.6789430566599901  0.3422267596898733  0.3833984781428932
  0.6308190604908992  0.3010954410855579  0.0996713600195337
  0.3212437771190352  0.6648919570234653  0.8835713331461313
  0.3019031111468248  0.9754030026620502 -0.0086996032984069
  0.6982894354588862  0.6707041242677466  0.4917206875956052
  0.3735760432713823  0.3289283067898002  0.2642227156653623
  0.6263954478311690  0.9545378357388739  0.7632798192945770
  0.0054521826278277  0.3536815117551150  0.9959250765717234
  0.6198963274653377  0.6677019146593266  0.0017614242262368
  0.3808487414903880  0.0449425552855103  0.5015186925252436
 -0.0058207117669437  0.3448737219867216  0.4953528410627869
  0.9482820313940203  0.6255985443834988  0.2520220406828592
  0.3322638269938350  0.3574158217081438  0.7631684547263706
  0.6683388791225429  0.0259460548539834  0.2620791070130608
  0.0521893984918993  0.6769917084666891  0.7516902383392883
 
  0.00000000E+00  0.00000000E+00  0.00000000E+00
  0.00000000E+00  0.00000000E+00  0.00000000E+00
  0.00000000E+00  0.00000000E+00  0.00000000E+00
  0.00000000E+00  0.00000000E+00  0.00000000E+00
  0.00000000E+00  0.00000000E+00  0.00000000E+00
  0.00000000E+00  0.00000000E+00  0.00000000E+00
  0.00000000E+00  0.00000000E+00  0.00000000E+00
  0.00000000E+00  0.00000000E+00  0.00000000E+00
  0.00000000E+00  0.00000000E+00  0.00000000E+00
  0.00000000E+00  0.00000000E+00  0.00000000E+00
  0.00000000E+00  0.00000000E+00  0.00000000E+00
  0.00000000E+00  0.00000000E+00  0.00000000E+00
  0.00000000E+00  0.00000000E+00  0.00000000E+00
  0.00000000E+00  0.00000000E+00  0.00000000E+00
  0.00000000E+00  0.00000000E+00  0.00000000E+00
  0.00000000E+00  0.00000000E+00  0.00000000E+00
