Na4 Cr4 O8 F4                           
   1.00000000000000     
     5.2289337936085083    0.4604713146300173   -0.0558356817737419
     0.4232268245617340    5.3179726431921424   -0.1317572313317344
    -0.2411523772195251   -0.4914829231499006    8.3280698620994595
   Na   Cr   O    F 
     4     4     8     4
Direct
  0.9967262172456012  0.0773347171096660  0.2151960044829705
  0.0317266591113857  0.0084659821148826  0.7327830499197558
  0.5034849491760079  0.4560270773008239  0.7316294928135203
  0.5009833008554344  0.5386075361407726  0.2485841233066762
  0.4938292417172960  0.9897799369201288  0.0114787535066476
  0.0370904868016223  0.5424241895703238  0.9410809132234234
  0.5302370030173104  0.0421142036084683  0.4381901309447038
  0.9951372971641723  0.4826146124557414  0.5146228154826634
  0.9257918398125919  0.4782653175118964  0.7458393791588439
  0.4256077097305007  0.9692542645035467  0.2426537994805598
  0.2719237171427524  0.7312722191223041  0.9292710449364292
  0.1822226991808792  0.2524841131384414  0.9957923613716391
  0.7951796466450000  0.7292055027496208  0.0450091243557011
  0.7307324436186141  0.2671485580696384  0.4352308304616443
  0.7207084307734747  0.7791570186059882  0.4949520488614198
  0.2633024978535389  0.1890545061050269  0.5406076819473237
  0.0870579731443000  0.4876916671863753  0.2980087174215586
  0.5892227605152444  0.0287437459135374  0.7984955630351027
  0.6792605800694103  0.2554169326498330  0.0699380145320593
  0.2397745464248629  0.6949378992229823  0.5706361507573574
 
  0.00000000E+00  0.00000000E+00  0.00000000E+00
  0.00000000E+00  0.00000000E+00  0.00000000E+00
  0.00000000E+00  0.00000000E+00  0.00000000E+00
  0.00000000E+00  0.00000000E+00  0.00000000E+00
  0.00000000E+00  0.00000000E+00  0.00000000E+00
  0.00000000E+00  0.00000000E+00  0.00000000E+00
  0.00000000E+00  0.00000000E+00  0.00000000E+00
  0.00000000E+00  0.00000000E+00  0.00000000E+00
  0.00000000E+00  0.00000000E+00  0.00000000E+00
  0.00000000E+00  0.00000000E+00  0.00000000E+00
  0.00000000E+00  0.00000000E+00  0.00000000E+00
  0.00000000E+00  0.00000000E+00  0.00000000E+00
  0.00000000E+00  0.00000000E+00  0.00000000E+00
  0.00000000E+00  0.00000000E+00  0.00000000E+00
  0.00000000E+00  0.00000000E+00  0.00000000E+00
  0.00000000E+00  0.00000000E+00  0.00000000E+00
  0.00000000E+00  0.00000000E+00  0.00000000E+00
  0.00000000E+00  0.00000000E+00  0.00000000E+00
  0.00000000E+00  0.00000000E+00  0.00000000E+00
  0.00000000E+00  0.00000000E+00  0.00000000E+00
