Na4 Co4 O8 F4                           
   1.00000000000000     
     5.5241738527143065    0.0351065821543325   -0.0860846276873780
    -2.7859322896723762    4.5571690653474715   -0.0382070887937063
    -0.1828355597306048   -0.0740355744286596    9.2202507736698571
   Na   Co   O    F 
     4     4     8     4
Direct
  0.0002905618150443  0.0502958162223224  0.9435234162807200
  0.0031529480772650  0.9744130553396798  0.4342529465756071
  0.3445866116669137  0.6495518209913687  0.2416434228653618
  0.6787972571017734  0.3668926239086802  0.7477455981161969
  0.3502624750574738  0.6701214938327593  0.6055492439220572
  0.6770455329549457  0.2935077043802050  0.3978251366285668
  0.7331398444377917  0.3831986981086912  0.1145342859786960
  0.3302383624112700  0.7245931196626642  0.8984478285076944
  0.5552746175565524  0.0452788143386192  0.9890656166483170
  0.9969037304835062  0.6333968877271088  0.0047874918693751
  0.5867451451320399  0.9512165933279483  0.4949756457649828
 -0.0126059310206579  0.5097204117700702  0.4930251253269321
  0.7124648121096477  0.5783945020252764  0.2755985653200582
  0.1264235006961776  0.4266357089873770  0.7713856339153399
  0.8776992834032858  0.2205486296895016  0.2282567704488425
  0.2252251496247663  0.8755270456684283  0.7384824100200308
  0.4076043170185836  0.4642600479898906  0.0252898749403389
  0.4141750080788604  0.3541280413906427  0.5386233810020730
  0.3407908859909169  0.0546930511043713  0.2855309996979407
  0.6517858874038522  0.7736259335343938  0.7714566061708765
 
  0.00000000E+00  0.00000000E+00  0.00000000E+00
  0.00000000E+00  0.00000000E+00  0.00000000E+00
  0.00000000E+00  0.00000000E+00  0.00000000E+00
  0.00000000E+00  0.00000000E+00  0.00000000E+00
  0.00000000E+00  0.00000000E+00  0.00000000E+00
  0.00000000E+00  0.00000000E+00  0.00000000E+00
  0.00000000E+00  0.00000000E+00  0.00000000E+00
  0.00000000E+00  0.00000000E+00  0.00000000E+00
  0.00000000E+00  0.00000000E+00  0.00000000E+00
  0.00000000E+00  0.00000000E+00  0.00000000E+00
  0.00000000E+00  0.00000000E+00  0.00000000E+00
  0.00000000E+00  0.00000000E+00  0.00000000E+00
  0.00000000E+00  0.00000000E+00  0.00000000E+00
  0.00000000E+00  0.00000000E+00  0.00000000E+00
  0.00000000E+00  0.00000000E+00  0.00000000E+00
  0.00000000E+00  0.00000000E+00  0.00000000E+00
  0.00000000E+00  0.00000000E+00  0.00000000E+00
  0.00000000E+00  0.00000000E+00  0.00000000E+00
  0.00000000E+00  0.00000000E+00  0.00000000E+00
  0.00000000E+00  0.00000000E+00  0.00000000E+00
