V4 O4 F8                                
   1.00000000000000     
     5.4602798029375066    0.0857671235207080    0.0013191378398077
    -2.6528630588019584    4.6751758188636838   -0.0015878001750412
    -0.0016656180694918    0.0029636289033719    9.3951488588919183
   V    O    F 
     4     4     8
Direct
  0.3036985791799811  0.6722648537235917  0.6148949009335855
  0.6951932837544910  0.3559000066235713  0.3979531995692568
  0.6962303903803209  0.3276973288722954  0.1149049626139083
  0.3048469115576012  0.6441150464805487  0.8979614176972214
  0.0097579377425662  0.5004828360746751  0.9942178948375279
  0.9901051986430788  0.4997614088749034  0.4943621683194098
  0.8203194117848355  0.1981598429435661  0.2414606432658014
  0.1801345987589075  0.8022840221216889  0.7414402077962599
  0.5076554541142768  0.0063653673638114  0.9925933187664866
  0.5137397276979072  0.5061732854776659  0.0059093049106555
  0.4926172225440111  0.9935324524223509  0.4923974846532082
  0.4858697543752770  0.4934198420018323  0.5059310379018874
  0.8153096392613077  0.6491297812174257  0.2498793770158410
  0.1844850393469231  0.3509575568264467  0.7499344078340039
  0.3838371512320821  0.2113581861602894  0.2530548782965163
  0.6161996996264328  0.7883981828153437  0.7531047955884159
 
  0.00000000E+00  0.00000000E+00  0.00000000E+00
  0.00000000E+00  0.00000000E+00  0.00000000E+00
  0.00000000E+00  0.00000000E+00  0.00000000E+00
  0.00000000E+00  0.00000000E+00  0.00000000E+00
  0.00000000E+00  0.00000000E+00  0.00000000E+00
  0.00000000E+00  0.00000000E+00  0.00000000E+00
  0.00000000E+00  0.00000000E+00  0.00000000E+00
  0.00000000E+00  0.00000000E+00  0.00000000E+00
  0.00000000E+00  0.00000000E+00  0.00000000E+00
  0.00000000E+00  0.00000000E+00  0.00000000E+00
  0.00000000E+00  0.00000000E+00  0.00000000E+00
  0.00000000E+00  0.00000000E+00  0.00000000E+00
  0.00000000E+00  0.00000000E+00  0.00000000E+00
  0.00000000E+00  0.00000000E+00  0.00000000E+00
  0.00000000E+00  0.00000000E+00  0.00000000E+00
  0.00000000E+00  0.00000000E+00  0.00000000E+00
