Na2 Ti2 O4 F2                           
   1.00000000000000     
     3.9311109637078214   -0.0000000017029795    0.0000262371168419
     0.0000000015205415    3.9311375856376425   -0.0000000068945776
     0.0000049102860500   -0.0000000088985731    7.7038984177386389
   Na   Ti   O    F 
     2     2     4     2
Direct
  0.9999916001914215  0.9999999960260837  0.0639687017774051
  0.9999866605669396  0.9999999974674054  0.4440682656906887
  0.4999941542047779  0.4999999973623943  0.2540573337574727
  0.5000599545178446  0.5000000072261983  0.7541897804767714
  0.5000060426410045  0.5000000029280827  0.9913119841746649
  0.5000102837727241  0.5000000025166216  0.5173576231992953
  0.4998869170759761  0.9999999957352728  0.2545229257834265
  0.9999090809704825  0.4999999918948390  0.2545270718926247
  0.5000642851559718  0.0000000091985228  0.7545016767725201
  0.0000910209028575  0.4999999996445794  0.7544946364751226
 
  0.00000000E+00  0.00000000E+00  0.00000000E+00
  0.00000000E+00  0.00000000E+00  0.00000000E+00
  0.00000000E+00  0.00000000E+00  0.00000000E+00
  0.00000000E+00  0.00000000E+00  0.00000000E+00
  0.00000000E+00  0.00000000E+00  0.00000000E+00
  0.00000000E+00  0.00000000E+00  0.00000000E+00
  0.00000000E+00  0.00000000E+00  0.00000000E+00
  0.00000000E+00  0.00000000E+00  0.00000000E+00
  0.00000000E+00  0.00000000E+00  0.00000000E+00
  0.00000000E+00  0.00000000E+00  0.00000000E+00
