Trimanganese(II/III) octafluoride       
   1.00000000000000     
     5.5399830295603261   -0.0005591672058850    0.0136165905380513
     0.0003497791055790    4.8720703797480400   -0.0003520385562928
    -0.4228239045468959    0.0002142087687506    9.8805700351121821
   Mn   F 
     6    16
Direct
  0.2485458654570891  0.9992921315901597  0.9957004349168486
  0.7514500427401813  0.4992679509225795  0.0043020602953447
  0.1044917166779697  0.9976524351868932  0.6373983567159911
  0.8954860194948751  0.4976002739617016  0.3626480839133350
  0.4010386742466352  0.0110391934641356  0.3465810386743371
  0.5989158836414248  0.5111449710780320  0.6534592698613935
  0.0467679929091958  0.2798334845872787  0.9393383550843168
  0.9532117094708070  0.7798443994231690  0.0606634664388537
  0.4495734176884056  0.7218418653856133  0.0589653075178731
  0.5503773806296763  0.2218481210601979  0.9410225138717792
  0.2791386446072082  0.1643056462648644  0.1692335782479546
  0.7208809285980990  0.6643280184142029  0.8307845095481170
  0.2206499292818407  0.8414156509112445  0.8185122581533051
  0.7793797829848543  0.3414417082223125  0.1814553069687079
  0.9224112219213936  0.6897837747492304  0.5699515550610172
  0.0776883306199565  0.1896248274107464  0.4301447335733286
  0.3909947200356569  0.8436392986766208  0.5603336306209954
  0.6091278273054854  0.3438145847948206  0.4396039947949575
  0.8185562797431416  0.1663582334776734  0.6771091211658344
  0.1813201305640817  0.6661426618260151  0.3227846928231557
  0.2822332549099116  0.3138076187318219  0.6737233869213313
  0.7177603004721149  0.8139731508606758  0.3262842508311934
 
  0.00000000E+00  0.00000000E+00  0.00000000E+00
  0.00000000E+00  0.00000000E+00  0.00000000E+00
  0.00000000E+00  0.00000000E+00  0.00000000E+00
  0.00000000E+00  0.00000000E+00  0.00000000E+00
  0.00000000E+00  0.00000000E+00  0.00000000E+00
  0.00000000E+00  0.00000000E+00  0.00000000E+00
  0.00000000E+00  0.00000000E+00  0.00000000E+00
  0.00000000E+00  0.00000000E+00  0.00000000E+00
  0.00000000E+00  0.00000000E+00  0.00000000E+00
  0.00000000E+00  0.00000000E+00  0.00000000E+00
  0.00000000E+00  0.00000000E+00  0.00000000E+00
  0.00000000E+00  0.00000000E+00  0.00000000E+00
  0.00000000E+00  0.00000000E+00  0.00000000E+00
  0.00000000E+00  0.00000000E+00  0.00000000E+00
  0.00000000E+00  0.00000000E+00  0.00000000E+00
  0.00000000E+00  0.00000000E+00  0.00000000E+00
  0.00000000E+00  0.00000000E+00  0.00000000E+00
  0.00000000E+00  0.00000000E+00  0.00000000E+00
  0.00000000E+00  0.00000000E+00  0.00000000E+00
  0.00000000E+00  0.00000000E+00  0.00000000E+00
  0.00000000E+00  0.00000000E+00  0.00000000E+00
  0.00000000E+00  0.00000000E+00  0.00000000E+00
