Na4 Fe4 O8 F4                           
   1.00000000000000     
     5.3285035185617167    0.1986954494238702    0.0014984187072186
     0.1991340182442859    5.3873705745607676   -0.0123099519499812
     0.0022239026424243   -0.0153093689417702    7.4832346892844965
   Na   Fe   O    F 
     4     4     8     4
Direct
  0.9968641260019039  0.0156264280822619  0.2558683683046142
  0.0124078309827876  0.9773682477135421  0.7409531859862353
  0.4969639715807468  0.4737069752965036  0.7358905998335942
  0.4902163117618706  0.5346392049940187  0.2639070020791525
  0.5006960012381596  0.0015941648902553  0.0029925759829559
  0.9966486069555914  0.5002767269645866  0.9891945870505122
  0.5121400038200464  0.0154409492858502  0.4948768540018231
  0.9784514362169462  0.4833132522901968  0.5102052740650117
  0.2068624743214844  0.1967558334916634  0.9829587700666524
  0.7974176264797902  0.8056188041390361  0.0113543658114663
  0.7241232540553153  0.2861167746454018  0.4625908506506162
  0.7849285500359450  0.7750626771912410  0.4857638732277940
  0.2158337626425072  0.2218883601484699  0.5160291404276455
  0.9388907924634506  0.4829642572260588  0.7498961940076923
  0.5398993044285393  0.0293522189253298  0.7574745460898992
  0.4533655461212758  0.9726523338986984  0.2441984064996798
  0.7047886534814948  0.3113085536139288  0.0523495000167439
  0.3036242943491600  0.6861872742212879  0.9597771665140384
  0.2782953380973925  0.7120072409176310  0.5351682512647861
  0.0675821149655921  0.5181197220640522  0.2485504881190865
 
  0.00000000E+00  0.00000000E+00  0.00000000E+00
  0.00000000E+00  0.00000000E+00  0.00000000E+00
  0.00000000E+00  0.00000000E+00  0.00000000E+00
  0.00000000E+00  0.00000000E+00  0.00000000E+00
  0.00000000E+00  0.00000000E+00  0.00000000E+00
  0.00000000E+00  0.00000000E+00  0.00000000E+00
  0.00000000E+00  0.00000000E+00  0.00000000E+00
  0.00000000E+00  0.00000000E+00  0.00000000E+00
  0.00000000E+00  0.00000000E+00  0.00000000E+00
  0.00000000E+00  0.00000000E+00  0.00000000E+00
  0.00000000E+00  0.00000000E+00  0.00000000E+00
  0.00000000E+00  0.00000000E+00  0.00000000E+00
  0.00000000E+00  0.00000000E+00  0.00000000E+00
  0.00000000E+00  0.00000000E+00  0.00000000E+00
  0.00000000E+00  0.00000000E+00  0.00000000E+00
  0.00000000E+00  0.00000000E+00  0.00000000E+00
  0.00000000E+00  0.00000000E+00  0.00000000E+00
  0.00000000E+00  0.00000000E+00  0.00000000E+00
  0.00000000E+00  0.00000000E+00  0.00000000E+00
  0.00000000E+00  0.00000000E+00  0.00000000E+00
