Na1 Ti16 O16 F32                        
   1.00000000000000     
    11.4314040000000006    0.1409760000000000   -0.0001060000000000
     0.1374920000000000   11.5069929999999996    0.0003070000000000
    -0.0000660000000000    0.0002170000000000    8.0113900000000005
   Na   Ti   O    F 
     1    16    16    32
Direct
  0.4902728871676318  0.4812080990878743  0.6517160814295383
  0.2250668185909198  0.0126283778312566  0.0007234173634030
  0.2242098467368500  0.5310876863153781  0.0036330888919567
  0.7439546521219358  0.0238795972461850  0.0029037307862992
  0.7238521005798060  0.5230409502785901  0.0022538019251594
  1.0065062956883997  0.2548786160993780  0.9591535471494846
  0.9895426698800223  0.7539218746827391  0.9620761875507116
  0.5034181805407877  0.2389775483003027  0.9578733926989230
  0.4999855304402752  0.7582814477563106  0.9614941100212947
  0.2457802303831400  0.9869227757898641  0.4604376256903603
  0.2377052787145182  0.5022119374879982  0.4573891512089899
  0.7636052627159292  1.0000212953761938  0.4619881604079571
  0.7542007564749953  0.5061993844066370  0.4584086638164150
  0.0275091076555823  0.2264474336957028  0.5010336099847258
  0.0117325923301565  0.7326603817415098  0.5021219923675976
  0.5138997126444257  0.2002520519992065  0.5108479449029388
  0.5251310833105486  0.7454504771815286  0.4998819908673537
  0.1252817121679450  0.1286503192583497  0.0016993903217720
  0.1134164637787022  0.6359803311009135 -0.0012997361799381
  0.6290862469179008  0.1311291244408553  0.0038475783583378
  0.6115638993811854  0.6282007098166452  0.0002088846401797
  0.1343811229543076  0.1159881994339367  0.5013187074095302
  0.1171090351155288  0.6190450251408622  0.5045197414158559
  0.6330657134325630  0.1045250895516882  0.5109575131492456
  0.6213378172848023  0.6258812777408331  0.5038731027419449
  0.5038810610485290  0.2530034465618384  0.7364954276714364
  0.4971579953401518  0.7501805419065771  0.7439705976850056
  0.0050305777355463  0.2485363241541978  0.7423991148707230
  0.9941573445910109  0.7541386673603657  0.7462457889658792
  0.2385410652672620  0.5022365858388388  0.2400421983543104
  0.2483119707493323 -0.0060941780272822  0.2441485250981481
  0.7506536871535285  0.5090898720237333  0.2408364394465367
  0.7571002568838324  1.0014113024621178  0.2451211060297046
  0.3822170827196449  0.1258854041374304  0.9899532441653320
  0.3630751139404669  0.6292944389647208  0.9981239149997426
  0.8763852757823026  0.1288588267742724  0.9947498159305984
  0.8661638999666854  0.6388302848289780  0.9974136457226966
  0.1222123832014529  0.3795016586371965  0.9924730204835011
  0.1149889493849129  0.8829220404972362  0.9960744293488623
  0.6301288871783617  0.3832969974564635  0.9874470733720792
  0.6157953452616839  0.8758590667786860  0.9937614460448662
  0.4020311392061268  0.3592406779587181  0.0168785025791913
  0.3764446490842410  0.8661372553885308  0.0033707194071686
  0.8877383907032984  0.3642805620549785  0.0027340154089215
  0.8768826851177787  0.8761329166696012  0.0055779574365659
  0.1241578523513800  0.3693587842953317  0.4948118068408864
  0.1287761276021869  0.8664892042121968  0.4966305450807274
  0.6414104301253597  0.3917427885794276  0.5084161845813636
  0.6368076185012554  0.8675091625632183  0.4948659457783290
  0.3811662994223545  0.1040157675721005  0.5001733693440579
  0.3650189274846081  0.6105319110271598  0.4997548539168707
  0.8838294886638531  0.1196740912016701  0.4975169006834290
  0.8706455697030818  0.6343538928870104  0.4972181671983706
  0.3521887461262393  0.3843705718644543  0.5087132206594965
  0.3700487801547788  0.8740840138713344  0.5028596376916592
  0.8742742591614019  0.3988815496940069  0.4981685992033333
  0.8768658549071351  0.8802508693357652  0.5048699464849729
  0.0016896845172916  0.2463213788232878  0.2718041703856067
  0.9967857188131112  0.7540232388200641  0.2697789948431716
  0.5089711049720589  0.2555258243857578  0.2971739142314617
  0.4951393329255773  0.7530171178217183  0.2701010742382662
  0.2511394978331076  0.9950664566714971  0.7701525452479360
  0.2546242681585257  0.4973664247562242  0.7776963462478345
  0.7560535278933613  0.9968151838704630  0.7722962049294587
  0.7523929141146539  0.5112345291720327  0.7710985722872736
 
             NaN             NaN             NaN
             NaN             NaN             NaN
             NaN             NaN             NaN
             NaN             NaN             NaN
             NaN             NaN             NaN
             NaN             NaN             NaN
             NaN             NaN             NaN
             NaN             NaN             NaN
             NaN             NaN             NaN
             NaN             NaN             NaN
             NaN             NaN             NaN
             NaN             NaN             NaN
             NaN             NaN             NaN
             NaN             NaN             NaN
             NaN             NaN             NaN
             NaN             NaN             NaN
             NaN             NaN             NaN
             NaN             NaN             NaN
             NaN             NaN             NaN
             NaN             NaN             NaN
             NaN             NaN             NaN
             NaN             NaN             NaN
             NaN             NaN             NaN
             NaN             NaN             NaN
             NaN             NaN             NaN
             NaN             NaN             NaN
             NaN             NaN             NaN
             NaN             NaN             NaN
             NaN             NaN             NaN
             NaN             NaN             NaN
             NaN             NaN             NaN
             NaN             NaN             NaN
             NaN             NaN             NaN
             NaN             NaN             NaN
             NaN             NaN             NaN
             NaN             NaN             NaN
             NaN             NaN             NaN
             NaN             NaN             NaN
             NaN             NaN             NaN
             NaN             NaN             NaN
             NaN             NaN             NaN
             NaN             NaN             NaN
             NaN             NaN             NaN
             NaN             NaN             NaN
             NaN             NaN             NaN
             NaN             NaN             NaN
             NaN             NaN             NaN
             NaN             NaN             NaN
             NaN             NaN             NaN
             NaN             NaN             NaN
             NaN             NaN             NaN
             NaN             NaN             NaN
             NaN             NaN             NaN
             NaN             NaN             NaN
             NaN             NaN             NaN
             NaN             NaN             NaN
             NaN             NaN             NaN
             NaN             NaN             NaN
             NaN             NaN             NaN
             NaN             NaN             NaN
             NaN             NaN             NaN
             NaN             NaN             NaN
             NaN             NaN             NaN
             NaN             NaN             NaN
             NaN             NaN             NaN
