Na1 Ti16 O16 F32
1.0
11.431404 0.140976 -0.000106
0.137492 11.506993 0.000307
-0.000066 0.000217 8.011390
Na Ti O F
1 16 16 32
direct
0.469428 0.478716 0.658819 Na
0.228621 0.022509 0.005103 Ti
0.221473 0.521869 0.007838 Ti
0.734394 0.015498 0.008577 Ti
0.733537 0.522894 0.005921 Ti
-0.003582 0.249712 0.963528 Ti
0.998521 0.756959 0.963670 Ti
0.503084 0.241220 0.966131 Ti
0.500383 0.751891 0.967304 Ti
0.252868 0.997860 0.463870 Ti
0.236836 0.502940 0.463415 Ti
0.753989 -0.002868 0.469321 Ti
0.753989 0.502612 0.465199 Ti
0.020001 0.224663 0.504867 Ti
1.016949 0.738925 0.502566 Ti
0.522288 0.223579 0.504439 Ti
0.521861 0.733241 0.504747 Ti
0.121815 0.132304 0.006116 O
0.116766 0.632966 0.004188 O
0.623898 0.124380 0.004625 O
0.619814 0.626321 0.005522 O
0.131934 0.120201 0.505488 O
0.125449 0.624954 0.503038 O
0.634789 0.117862 0.503816 O
0.625918 0.620182 0.508324 O
0.503140 0.246416 0.747193 O
0.501971 0.746953 0.750200 O
0.000601 0.249026 0.747143 O
0.999828 0.753666 0.747297 O
0.245756 0.502515 0.245460 O
0.250512 1.000399 0.247274 O
0.749899 0.502670 0.248366 O
0.753286 -0.001444 0.248347 O
0.372959 0.126634 0.999113 F
0.374101 0.624963 -0.003510 F
0.873324 0.129332 -0.002661 F
0.868210 0.631310 0.996480 F
0.121006 0.383497 -0.002986 F
0.116797 0.882246 0.998236 F
0.623455 0.378162 -0.002903 F
0.622144 0.876652 0.998975 F
0.393008 0.365240 0.000957 F
0.382779 0.863551 0.008354 F
0.884131 0.368397 0.006126 F
0.877653 0.870616 1.003943 F
0.129738 0.374100 0.498006 F
0.130468 0.871736 0.496233 F
0.624746 0.373522 0.502277 F
0.633371 0.869735 0.498553 F
0.382601 0.119240 0.498163 F
0.378285 0.621320 0.506653 F
0.883673 0.117719 0.499167 F
0.875350 0.622213 0.497760 F
0.371928 0.390339 0.513719 F
0.370335 0.883112 0.507182 F
0.864172 0.384203 0.507927 F
0.874250 0.878394 0.504064 F
0.000065 0.251399 0.275733 F
0.997214 0.753475 0.269964 F
0.503191 0.246957 0.272949 F
0.499632 0.748844 0.273849 F
0.251035 0.999370 0.775319 F
0.254394 0.502988 0.776101 F
0.754046 -0.002369 0.765850 F
0.745586 0.499856 0.772309 F
