Ti4 O4 F8                               
   1.00000000000000     
     5.1799864189953189    0.0668724657181881    0.0027801601792854
     0.0651126048854830    5.3421275372202306    0.0071567986084231
     0.0041327836507928   -0.0005936315303848    7.6237734263624395
   Ti   O    F 
     4     4     8
Direct
  0.4868162635999615  0.0136692386691727  0.9971250118732113
  0.9910578084037480  0.5194081728185309  0.0024487006463841
  0.4962982921382382  0.0218602463248546  0.4992025537482372
  0.9920370565762334  0.4695210951136615  0.5000896974378486
  0.2190933648833875  0.2175662611927214  0.9642791458558053
  0.7920222910394089  0.7862758001372373  0.0363253764672634
  0.7060134451988268  0.2870626490169096  0.4572955863022911
  0.2063314416520811  0.2045895493197071  0.5455184295137689
  0.0904250745917449  0.4910814199295525  0.2514095390723494
  0.9131051566899137  0.5166481988955673  0.7496427221837284
  0.5908587032111632  0.0052049214825521  0.7487661617004820
  0.4159905741402579  0.9763094389929098  0.2498403283170694
  0.7128663276238760  0.2896525244696480  0.0475917588230845
  0.3005150086064642  0.7069334636862652  0.9531701846522574
  0.2921443241030270  0.7071986205466582  0.5359957079456397
  0.7944248675416747  0.7870183994040445  0.4612990954605863
 
  0.00000000E+00  0.00000000E+00  0.00000000E+00
  0.00000000E+00  0.00000000E+00  0.00000000E+00
  0.00000000E+00  0.00000000E+00  0.00000000E+00
  0.00000000E+00  0.00000000E+00  0.00000000E+00
  0.00000000E+00  0.00000000E+00  0.00000000E+00
  0.00000000E+00  0.00000000E+00  0.00000000E+00
  0.00000000E+00  0.00000000E+00  0.00000000E+00
  0.00000000E+00  0.00000000E+00  0.00000000E+00
  0.00000000E+00  0.00000000E+00  0.00000000E+00
  0.00000000E+00  0.00000000E+00  0.00000000E+00
  0.00000000E+00  0.00000000E+00  0.00000000E+00
  0.00000000E+00  0.00000000E+00  0.00000000E+00
  0.00000000E+00  0.00000000E+00  0.00000000E+00
  0.00000000E+00  0.00000000E+00  0.00000000E+00
  0.00000000E+00  0.00000000E+00  0.00000000E+00
  0.00000000E+00  0.00000000E+00  0.00000000E+00
