Ni2 O2 F4                               
   1.00000000000000     
    -2.8250026760084475   -4.6555972679200313    0.0898075488051389
    -5.3712502678037346   -0.1628764180041687    0.0569679522987830
    -2.6149227674318691   -1.6305273096083721   -4.3868343942262289
   Na   Ni   O    F 
     2     2     2     4
Direct
  0.2732938187045658  0.2815115117798903  0.1908753395593017
  0.7757691615903672  0.7459648776671640  0.7039866477774066
  0.0055180376257310  0.0027313651778156  0.9995568365142400
  0.5056463479170626  0.5035239263296158  0.4673807547634068
  0.2176917470581052  0.6999642154366600  0.2620332656993802
  0.8537307367363428  0.2579072746935203  0.2235497127389511
  0.6633474063704100  0.8357176315049021  0.2638261602616947
  0.3405890875374289  0.1701607202264360  0.7194732658321651
  0.1669070806843845  0.7291796516793819  0.7754733428942489
  0.7435065757756013  0.3193388255046276  0.7558446739591996
 
  0.00000000E+00  0.00000000E+00  0.00000000E+00
  0.00000000E+00  0.00000000E+00  0.00000000E+00
  0.00000000E+00  0.00000000E+00  0.00000000E+00
  0.00000000E+00  0.00000000E+00  0.00000000E+00
  0.00000000E+00  0.00000000E+00  0.00000000E+00
  0.00000000E+00  0.00000000E+00  0.00000000E+00
  0.00000000E+00  0.00000000E+00  0.00000000E+00
  0.00000000E+00  0.00000000E+00  0.00000000E+00
  0.00000000E+00  0.00000000E+00  0.00000000E+00
  0.00000000E+00  0.00000000E+00  0.00000000E+00
