Na8 V8 O16 F8                           
   1.00000000000000     
     7.7680580703735291   -0.0000245965335003    0.0000015421080106
    -0.0000207602080134    7.7054207252509004    0.0000017751628493
     0.0000014900553884    0.0000017847108729    7.4152991056645741
   Na   V    O    F 
     8     8    16     8
Direct
  0.2451455499206361  0.2469111412123675  0.2492613936861935
  0.2451455595862430  0.2469122327612212  0.7507380661853090
  0.2451466163030795  0.7530855428105562  0.2492626183956804
  0.2451463606348208  0.7530862672994576  0.7507374734841969
  0.7529255270380462  0.2626681607637142  0.2361903555222165
  0.7529256935478114  0.2626681757098552  0.7638107359525239
  0.7529281315539410  0.7373333265743651  0.2361797555002597
  0.7529280131581348  0.7373333423530092  0.7638194488476447
  0.9994772577796155  0.0000021800773062 -0.0000000910562209
  0.0015262945195045  0.0000006876595226  0.4999994604501409
  0.0118304352464477  0.5000009438767817  0.0000002167651916
  0.9881096344890457  0.5000014981307300  0.4999996841076709
  0.5007806226420604  0.0000002377372930  0.0000002755674063
  0.5065316674773687 -0.0000019289159370  0.5000002810167777
  0.4741096085675228  0.5000000764706486  0.9999996464894201
  0.5130427919260852  0.4999990839073968  0.4999996576995447
  0.2393493290180142 -0.0000014750203792  0.4999995924631338
  0.2523825814539059  0.4999988785598223 -0.0000000868142507
  0.7616227536741539  0.0000076965090905  0.5000002751134601
  0.7487976000564928  0.5000018175198748  0.5000002185688001
  0.9989334314920841  0.2623037263598954  0.0000003135439283
  0.9989362294862832  0.7376944979964672  0.9999992430309083
  0.5019960434195232  0.2631056064852484  0.0000002489360440
  0.5019935169128785  0.7368949335688796  0.0000001690448395
  0.0010503276240313  0.0000007061117585  0.2403882490189412
  0.0010517447320910  0.0000034879367746  0.7596113068694721
  0.0054720885152194  0.5000002682148068  0.2604270599319998
  0.0054719662360848  0.4999995367319410  0.7395730169776146
  0.5008335351305273 -0.0000000310529132  0.2475622257815674
  0.5008331615848179  0.0000000302952070  0.7524381875122790
  0.4965080586661841  0.4999931854959437  0.2563828662492307
  0.4965081921673871  0.4999931485075031  0.7436177141845887
  0.2511350656115251  0.0000046308255259  0.0000003792397574
  0.2514951956140156  0.5000002165861392  0.5000003527473094
  0.7495410425404199  0.0000017668331339  0.9999993334143856
  0.7498812942903041  0.4999976691238174  0.0000000903900453
  0.0059932246803589  0.2500995937983270  0.4999987725353383
  0.0059867009396083  0.7499035664790491  0.5000004138809154
  0.4932608664821411  0.2508234086875192  0.5000004220745362
  0.4932662852816058  0.7491721650183001  0.5000006566912001
 
  0.00000000E+00  0.00000000E+00  0.00000000E+00
  0.00000000E+00  0.00000000E+00  0.00000000E+00
  0.00000000E+00  0.00000000E+00  0.00000000E+00
  0.00000000E+00  0.00000000E+00  0.00000000E+00
  0.00000000E+00  0.00000000E+00  0.00000000E+00
  0.00000000E+00  0.00000000E+00  0.00000000E+00
  0.00000000E+00  0.00000000E+00  0.00000000E+00
  0.00000000E+00  0.00000000E+00  0.00000000E+00
  0.00000000E+00  0.00000000E+00  0.00000000E+00
  0.00000000E+00  0.00000000E+00  0.00000000E+00
  0.00000000E+00  0.00000000E+00  0.00000000E+00
  0.00000000E+00  0.00000000E+00  0.00000000E+00
  0.00000000E+00  0.00000000E+00  0.00000000E+00
  0.00000000E+00  0.00000000E+00  0.00000000E+00
  0.00000000E+00  0.00000000E+00  0.00000000E+00
  0.00000000E+00  0.00000000E+00  0.00000000E+00
  0.00000000E+00  0.00000000E+00  0.00000000E+00
  0.00000000E+00  0.00000000E+00  0.00000000E+00
  0.00000000E+00  0.00000000E+00  0.00000000E+00
  0.00000000E+00  0.00000000E+00  0.00000000E+00
  0.00000000E+00  0.00000000E+00  0.00000000E+00
  0.00000000E+00  0.00000000E+00  0.00000000E+00
  0.00000000E+00  0.00000000E+00  0.00000000E+00
  0.00000000E+00  0.00000000E+00  0.00000000E+00
  0.00000000E+00  0.00000000E+00  0.00000000E+00
  0.00000000E+00  0.00000000E+00  0.00000000E+00
  0.00000000E+00  0.00000000E+00  0.00000000E+00
  0.00000000E+00  0.00000000E+00  0.00000000E+00
  0.00000000E+00  0.00000000E+00  0.00000000E+00
  0.00000000E+00  0.00000000E+00  0.00000000E+00
  0.00000000E+00  0.00000000E+00  0.00000000E+00
  0.00000000E+00  0.00000000E+00  0.00000000E+00
  0.00000000E+00  0.00000000E+00  0.00000000E+00
  0.00000000E+00  0.00000000E+00  0.00000000E+00
  0.00000000E+00  0.00000000E+00  0.00000000E+00
  0.00000000E+00  0.00000000E+00  0.00000000E+00
  0.00000000E+00  0.00000000E+00  0.00000000E+00
  0.00000000E+00  0.00000000E+00  0.00000000E+00
  0.00000000E+00  0.00000000E+00  0.00000000E+00
  0.00000000E+00  0.00000000E+00  0.00000000E+00
