Tetradecasodium bis(manganate(II)) oxide
   1.00000000000000     
     6.6005401445787930   -0.0000624226180577    0.0000108800647832
    -3.3003270414317760    5.7161607408549120   -0.0000490384342695
     0.0000153033081670   -0.0000705020724217    9.2680274667131641
   Na   Mn   O 
    14     2     9
Direct
  0.9999729755473368  0.9999811220145105  0.2526297461710669
  0.0000270342358135  0.0000189743042398  0.7473694902286354
  0.0669340119196420  0.3765340940296369  0.5908072657375030
  0.9330663844749836  0.6234669745877071  0.4091927556133754
  0.6235279806667933  0.6904447707233743  0.5908158413559335
  0.3764716035371976  0.3095549313623280  0.4091840098624004
  0.3095874922759094  0.9330768920421946  0.5908196624752762
  0.6904125070007012  0.0669229441740313  0.4091800427613279
  0.6806633968394209  0.6398205935337273  0.0910374091776234
  0.3193365039987839  0.3601791031563693  0.9089629589684307
  0.3601896769531407  0.0407962317571275  0.0909927288554613
  0.6398104230247341  0.9592034529544335  0.9090076022111262
  0.9592537937809666  0.3194773045351837  0.0910236370772068
  0.0407460804114379  0.6805229687369945  0.9089767129123345
  0.3333009316445867  0.6666380076135781  0.2618841990125347
  0.6666990512562805  0.3333618293662042  0.7381160249183267
  0.3333249795734474  0.6666632557818559  0.0378504879871926
  0.6666750404332831  0.3333366702979106  0.9621497812957998
  0.0000000256910440  0.9999999687274510  0.9999998810088186
  0.9483353536965566  0.6433757679055674  0.6624388339053340
  0.0516645970813485  0.3566239479004238  0.3375611207153923
  0.3566441580047837  0.3049656647010295  0.6624471436632646
  0.6433561727394022  0.6950345146308976  0.3375527779882646
  0.6950486026758398  0.0516886778727965  0.6624446202461698
  0.3049511695365581  0.9483113442904312  0.3375552858512023
 
  0.00000000E+00  0.00000000E+00  0.00000000E+00
  0.00000000E+00  0.00000000E+00  0.00000000E+00
  0.00000000E+00  0.00000000E+00  0.00000000E+00
  0.00000000E+00  0.00000000E+00  0.00000000E+00
  0.00000000E+00  0.00000000E+00  0.00000000E+00
  0.00000000E+00  0.00000000E+00  0.00000000E+00
  0.00000000E+00  0.00000000E+00  0.00000000E+00
  0.00000000E+00  0.00000000E+00  0.00000000E+00
  0.00000000E+00  0.00000000E+00  0.00000000E+00
  0.00000000E+00  0.00000000E+00  0.00000000E+00
  0.00000000E+00  0.00000000E+00  0.00000000E+00
  0.00000000E+00  0.00000000E+00  0.00000000E+00
  0.00000000E+00  0.00000000E+00  0.00000000E+00
  0.00000000E+00  0.00000000E+00  0.00000000E+00
  0.00000000E+00  0.00000000E+00  0.00000000E+00
  0.00000000E+00  0.00000000E+00  0.00000000E+00
  0.00000000E+00  0.00000000E+00  0.00000000E+00
  0.00000000E+00  0.00000000E+00  0.00000000E+00
  0.00000000E+00  0.00000000E+00  0.00000000E+00
  0.00000000E+00  0.00000000E+00  0.00000000E+00
  0.00000000E+00  0.00000000E+00  0.00000000E+00
  0.00000000E+00  0.00000000E+00  0.00000000E+00
  0.00000000E+00  0.00000000E+00  0.00000000E+00
  0.00000000E+00  0.00000000E+00  0.00000000E+00
  0.00000000E+00  0.00000000E+00  0.00000000E+00
