Manganese oxide (5/8)                   
   1.00000000000000     
    10.3908723790662947    0.0000039126803113   -0.0245765745174022
     0.0000021637476928    5.7521556072172810   -0.0000004890265510
    -1.6270996604218360   -0.0000010038673888    4.6075093171837107
   Mn   O 
    10    16
Direct
  0.9999808069204903  0.0000000591102847  0.4999428686832488
  0.4999808073237020  0.5000000462077949  0.4999428757097562
  0.0000122619542964  0.2594132943482563  0.0000198985896134
  0.0000130345642759  0.7405861423230817  0.0000194101832420
  0.5000122624792311  0.7594132815811818  0.0000199066463296
  0.5000130351273882  0.2405861327021697  0.0000194181568816
  0.7213923375981750  0.0000000130677122  0.6576010602797240
  0.2786054390279560  0.0000000928279889  0.3424023080062284
  0.2213923374222517  0.5000000118329382  0.6576010581754375
  0.7786054388908283  0.5000000917292553  0.3424023059272727
  0.1100894525672658  0.2261885767105198  0.3962989071390268
  0.8899045155187650  0.7737817994892353  0.6037037050010881
  0.8899044883597682  0.2262183143696888  0.6037035533836246
  0.1100894813248487  0.7738115256337608  0.3962990608251289
  0.6100894542241520  0.7261885738080096  0.3962989134122523
  0.3899045171806748  0.2737817960861619  0.6037037112179036
  0.3899044882352598  0.7262183115081982  0.6037035579668100
  0.6100894812235325  0.2738115223493125  0.3962990653574252
  0.1025818997795653  0.0000000583631561  0.9091046763643362
  0.8973832417098748  0.0000000518041645  0.0909192009565274
  0.6025819001381834  0.5000000526606385  0.9091046816505681
  0.3973832423274288  0.5000000460999701  0.0909192060372916
  0.6056532272017776  0.0000000508912734  0.9342327599132219
  0.3943898218905915  0.0000000421148769  0.0657525692996401
  0.1056532262492098  0.5000000605689578  0.9342327559521735
  0.8943898217605195  0.5000000518114192  0.0657525651652264
 
  0.00000000E+00  0.00000000E+00  0.00000000E+00
  0.00000000E+00  0.00000000E+00  0.00000000E+00
  0.00000000E+00  0.00000000E+00  0.00000000E+00
  0.00000000E+00  0.00000000E+00  0.00000000E+00
  0.00000000E+00  0.00000000E+00  0.00000000E+00
  0.00000000E+00  0.00000000E+00  0.00000000E+00
  0.00000000E+00  0.00000000E+00  0.00000000E+00
  0.00000000E+00  0.00000000E+00  0.00000000E+00
  0.00000000E+00  0.00000000E+00  0.00000000E+00
  0.00000000E+00  0.00000000E+00  0.00000000E+00
  0.00000000E+00  0.00000000E+00  0.00000000E+00
  0.00000000E+00  0.00000000E+00  0.00000000E+00
  0.00000000E+00  0.00000000E+00  0.00000000E+00
  0.00000000E+00  0.00000000E+00  0.00000000E+00
  0.00000000E+00  0.00000000E+00  0.00000000E+00
  0.00000000E+00  0.00000000E+00  0.00000000E+00
  0.00000000E+00  0.00000000E+00  0.00000000E+00
  0.00000000E+00  0.00000000E+00  0.00000000E+00
  0.00000000E+00  0.00000000E+00  0.00000000E+00
  0.00000000E+00  0.00000000E+00  0.00000000E+00
  0.00000000E+00  0.00000000E+00  0.00000000E+00
  0.00000000E+00  0.00000000E+00  0.00000000E+00
  0.00000000E+00  0.00000000E+00  0.00000000E+00
  0.00000000E+00  0.00000000E+00  0.00000000E+00
  0.00000000E+00  0.00000000E+00  0.00000000E+00
  0.00000000E+00  0.00000000E+00  0.00000000E+00
