Vanadium(II) fluoride                   
   1.00000000000000     
     4.8104483373314073    0.0000000053264816    0.0000000028211021
     0.0000000045911581    4.8104567001774265    0.0000000095105332
     0.0000000016379712    0.0000000064276239    3.2550335327211468
   V    F 
     2     4
Direct
  0.9999652649681181  0.9999662780275003  0.0000000061157124
  0.4999652552713769  0.5000336907468039  0.4999999908471793
  0.3055749254974600  0.3056418795674674  0.9999999992945234
  0.6944597989394339  0.6943909643827268  0.9999999976514786
  0.1944598130077750  0.8056090523070196  0.5000000041304560
  0.8055749423158289  0.1943581349684749  0.5000000019606503
 
  0.00000000E+00  0.00000000E+00  0.00000000E+00
  0.00000000E+00  0.00000000E+00  0.00000000E+00
  0.00000000E+00  0.00000000E+00  0.00000000E+00
  0.00000000E+00  0.00000000E+00  0.00000000E+00
  0.00000000E+00  0.00000000E+00  0.00000000E+00
  0.00000000E+00  0.00000000E+00  0.00000000E+00
