Fe2 O2 F4                               
   1.00000000000000     
     3.8975865112690293    0.0059919576977868    0.0125253818831708
     0.0060365546494718    3.8888776900915412    0.0179340208994142
     0.0386109736522374    0.0578150443789144    7.7596749487330996
   Fe   O    F 
     2     2     4
Direct
  0.4974192119814660  0.5026564192695986  0.2554347255306553
  0.5024701281707991  0.4973140347479017  0.7555392345410681
  0.4992594497998653  0.0019510596606764  0.2554105603405858
  0.0019561841831930  0.4993649369443460  0.7554619817055013
  0.4954763340756614  0.5065003366613965  0.0050375952398767
  0.5045797633849887  0.4935075912100331  0.5057346841111965
  0.5005064505910184  0.9983327351279172  0.7552041363944966
  0.9983324778130083  0.5003728863781305  0.2551770821366048
 
  0.00000000E+00  0.00000000E+00  0.00000000E+00
  0.00000000E+00  0.00000000E+00  0.00000000E+00
  0.00000000E+00  0.00000000E+00  0.00000000E+00
  0.00000000E+00  0.00000000E+00  0.00000000E+00
  0.00000000E+00  0.00000000E+00  0.00000000E+00
  0.00000000E+00  0.00000000E+00  0.00000000E+00
  0.00000000E+00  0.00000000E+00  0.00000000E+00
  0.00000000E+00  0.00000000E+00  0.00000000E+00
