Sodium tetrafluorotitanate(III) - alpha 
   1.00000000000000     
     5.0049087212588672    0.0000004317620904    0.0000035903455646
     0.0000005987185228    5.7739050990136880   -0.0000117366667975
     0.0000078572842047   -0.0000209919039972   10.9243550003570125
   Ti   Na   F 
     4     4    16
Direct
  0.9998852715147635  0.8411676393177316  0.2499542711770673
  0.9998838902983707  0.1588345581772259  0.7499577605347980
  0.4998850613342753  0.6588325906990775  0.7500460320568934
  0.4998837882440910  0.3411656216758630  0.2500415925973343
  0.0004875285133608  0.5001336928494950  0.0000231888393856
  0.5004864470257857  0.0001336507984036  0.4999767322786610
  0.0004876735222084  0.4998661604163885  0.5000237155119365
  0.5004887965991927  0.9998662808250103  0.9999761862864034
  0.7431898439600815  0.0827051024800838  0.1828532267242977
  0.2565047303259149  0.9172617491549957  0.8171307887899175
  0.7565022550697265  0.4172617037372675  0.6828702027982416
  0.2431944584318089  0.5827050933595288  0.3171441233468997
  0.2565028029011529  0.0827384127410937  0.3171299129064167
  0.7431900764440300  0.9172943110186154  0.6828551492840944
  0.2431898908107470  0.4172949603063998  0.8171464710249268
  0.7565057621439593  0.5827389488177417  0.1828689646229833
  0.8215520413068234  0.8146238499726977  0.4039322827183653
  0.1783819860721891  0.1850202293631398  0.5960548196346096
  0.6783803242867492  0.6850197497923745  0.9039451855151484
  0.3215520045489626  0.3146228241723961  0.0960683838814660
  0.1783813741869196  0.8149807222878280  0.0960545426535333
  0.8215529781010957  0.1853776778551293  0.9039312218610220
  0.3215495837006657  0.6853772141514938  0.5960699956577216
  0.6783814306571330  0.3149772420300110  0.4039452492978839
 
  0.00000000E+00  0.00000000E+00  0.00000000E+00
  0.00000000E+00  0.00000000E+00  0.00000000E+00
  0.00000000E+00  0.00000000E+00  0.00000000E+00
  0.00000000E+00  0.00000000E+00  0.00000000E+00
  0.00000000E+00  0.00000000E+00  0.00000000E+00
  0.00000000E+00  0.00000000E+00  0.00000000E+00
  0.00000000E+00  0.00000000E+00  0.00000000E+00
  0.00000000E+00  0.00000000E+00  0.00000000E+00
  0.00000000E+00  0.00000000E+00  0.00000000E+00
  0.00000000E+00  0.00000000E+00  0.00000000E+00
  0.00000000E+00  0.00000000E+00  0.00000000E+00
  0.00000000E+00  0.00000000E+00  0.00000000E+00
  0.00000000E+00  0.00000000E+00  0.00000000E+00
  0.00000000E+00  0.00000000E+00  0.00000000E+00
  0.00000000E+00  0.00000000E+00  0.00000000E+00
  0.00000000E+00  0.00000000E+00  0.00000000E+00
  0.00000000E+00  0.00000000E+00  0.00000000E+00
  0.00000000E+00  0.00000000E+00  0.00000000E+00
  0.00000000E+00  0.00000000E+00  0.00000000E+00
  0.00000000E+00  0.00000000E+00  0.00000000E+00
  0.00000000E+00  0.00000000E+00  0.00000000E+00
  0.00000000E+00  0.00000000E+00  0.00000000E+00
  0.00000000E+00  0.00000000E+00  0.00000000E+00
  0.00000000E+00  0.00000000E+00  0.00000000E+00
