Mn4 O4 F8                               
   1.00000000000000     
     5.2313901975629529   -0.2127821983971168    0.0364825444628013
    -2.7498119167558408    4.4733964308891796   -0.0319614846496850
    -0.0599229162267532    0.0236547224734280    8.4793661358909524
   Mn   O    F 
     4     4     8
Direct
  0.4409761718563553  0.7773343437272034  0.6089042123044534
  0.7501405138751756  0.4002057133483607  0.3914715052870933
  0.5590172443529886  0.2227347543307586  0.1088106066542278
  0.2499329237725199  0.5998865023786446  0.8914833631816662
  0.3289524591273893  0.8239428894873972  0.0619464190592366
  0.6711230823933662  0.1757544323537595  0.5617396768352223
  0.8005988218887635  0.1866365407321311  0.2454874360791958
  0.1998370560005118  0.8140026331195277  0.7455156463548452
  0.8209012614224563  0.3505381534846129  0.9364003132047906
  0.2983276814814275  0.3075967529434557 -0.0004897055166404
  0.1791628446250333  0.6499486816471302  0.4365523406179629
  0.7011697927831761  0.6918498889035397  0.4994320508167518
  0.7811551210230885  0.6278241263877389  0.1994405253654853
  0.2185223257777377  0.3722174145175472  0.6997563189548301
  0.3494702135714414  0.1782084814796651  0.3067391651187200
  0.6507124860485699  0.8213186911585265  0.8068101256821574
 
  0.00000000E+00  0.00000000E+00  0.00000000E+00
  0.00000000E+00  0.00000000E+00  0.00000000E+00
  0.00000000E+00  0.00000000E+00  0.00000000E+00
  0.00000000E+00  0.00000000E+00  0.00000000E+00
  0.00000000E+00  0.00000000E+00  0.00000000E+00
  0.00000000E+00  0.00000000E+00  0.00000000E+00
  0.00000000E+00  0.00000000E+00  0.00000000E+00
  0.00000000E+00  0.00000000E+00  0.00000000E+00
  0.00000000E+00  0.00000000E+00  0.00000000E+00
  0.00000000E+00  0.00000000E+00  0.00000000E+00
  0.00000000E+00  0.00000000E+00  0.00000000E+00
  0.00000000E+00  0.00000000E+00  0.00000000E+00
  0.00000000E+00  0.00000000E+00  0.00000000E+00
  0.00000000E+00  0.00000000E+00  0.00000000E+00
  0.00000000E+00  0.00000000E+00  0.00000000E+00
  0.00000000E+00  0.00000000E+00  0.00000000E+00
