Na4 Co4 O8 F4                           
   1.00000000000000     
     5.3586240932056164    0.0016353819799142    0.0007844678250105
    -2.6779284524049696    4.6474919231895298   -0.0007401991140124
     0.0015014684640012   -0.0008718769406445    8.9261872689266930
   Na   Co   O    F 
     4     4     8     4
Direct
  0.9996688397864233  0.9813589119799175  0.0041089924823936
  0.9988856284742766  0.9810281004077765  0.4958834342821561
  0.3147875332881540  0.6686549663887291  0.2500796897015150
  0.6856257870688793  0.3540660164633564  0.7499731937747001
  0.3199869099288577  0.6653924640473008  0.6007932922459176
  0.6795613732093102  0.3442487332265856  0.3995951748775326
  0.6798826301011900  0.3443683735164456  0.1003721133613595
  0.3200992725176306  0.6652078939512194  0.8992004982340944
  0.4235288747695591  0.9502935465426887  0.0154526746871895
  0.0017664137053686  0.3980543011231319  0.0008162441982407
  0.5772890263126129  0.5269549494521399  0.9844481682123103
  0.4231206655937427  0.9503612225390370  0.4845732372427989
  0.0013320304612421  0.3981467927788103  0.4992819387139633
  0.5769300452706361  0.5269750044084773  0.5154502262876761
  0.2387146390357131  0.4089395983609236  0.7499018564799016
  0.7613399348906995  0.1694136217554103  0.2499811918505372
  0.8985862247578495  0.6924082070724680  0.2500412241264414
  0.3692688752807314  0.2753654659462939  0.2499342117796388
  0.6292396739934176  0.9061146300441649  0.7500006228273790
  0.1003856215537056  0.7926471999951019  0.7501120146342615
 
  0.00000000E+00  0.00000000E+00  0.00000000E+00
  0.00000000E+00  0.00000000E+00  0.00000000E+00
  0.00000000E+00  0.00000000E+00  0.00000000E+00
  0.00000000E+00  0.00000000E+00  0.00000000E+00
  0.00000000E+00  0.00000000E+00  0.00000000E+00
  0.00000000E+00  0.00000000E+00  0.00000000E+00
  0.00000000E+00  0.00000000E+00  0.00000000E+00
  0.00000000E+00  0.00000000E+00  0.00000000E+00
  0.00000000E+00  0.00000000E+00  0.00000000E+00
  0.00000000E+00  0.00000000E+00  0.00000000E+00
  0.00000000E+00  0.00000000E+00  0.00000000E+00
  0.00000000E+00  0.00000000E+00  0.00000000E+00
  0.00000000E+00  0.00000000E+00  0.00000000E+00
  0.00000000E+00  0.00000000E+00  0.00000000E+00
  0.00000000E+00  0.00000000E+00  0.00000000E+00
  0.00000000E+00  0.00000000E+00  0.00000000E+00
  0.00000000E+00  0.00000000E+00  0.00000000E+00
  0.00000000E+00  0.00000000E+00  0.00000000E+00
  0.00000000E+00  0.00000000E+00  0.00000000E+00
  0.00000000E+00  0.00000000E+00  0.00000000E+00
