Na4 Ni4 O8 F4                           
   1.00000000000000     
     5.4741565591810302   -0.0038394299238850   -0.0830829205189094
    -0.0024502123633467    5.4925554318940142   -0.0040644065104192
    -0.0745596253982580    0.0005683266586543    7.0279272044022436
   Na   Ni   O    F 
     4     4     8     4
Direct
  0.9826651691088364  0.0464634875168558  0.2516348540602253
  0.0156951961171847  0.9574096678051666  0.7489888423843889
  0.4825131677079317  0.4537235458535692  0.7507112824023291
  0.5176897393329668  0.5458119705743038  0.2479586580528636
  0.4987688511839275  0.0032386441312644  0.9986235593994732
  0.0009875683934418  0.5028792048306618  0.0012939055613809
  0.4991434956870822  0.9960620945254520  0.4992056276066877
  0.9977554390619175  0.4964819864478259  0.5009596231319580
  0.2107533565791847  0.2335168944024572  0.9720236288945185
  0.7926059525474902  0.7719555515886690  0.0295524394118422
  0.2917803144508244  0.7272743151254619  0.5300622570785135
  0.7086746126097615  0.2669688352482070  0.4714377606755780
  0.1132366082246161  0.4884014482265424  0.2477479160816862
  0.8885061133825436  0.5099027211663749  0.7543795562895210
  0.6116545322267235  0.0126008274650797  0.7456781492854865
  0.3887089512922868  0.9883014675106203  0.2520790207484457
  0.7166156461431455  0.2806976126345460  0.0728708933295500
  0.2836594174148348  0.7233440877191344  0.9261170875923750
  0.7838905318219018  0.7769164526887068  0.4271934612640916
  0.2146953367133985  0.2180491845391003  0.5714814767490991
 
  0.00000000E+00  0.00000000E+00  0.00000000E+00
  0.00000000E+00  0.00000000E+00  0.00000000E+00
  0.00000000E+00  0.00000000E+00  0.00000000E+00
  0.00000000E+00  0.00000000E+00  0.00000000E+00
  0.00000000E+00  0.00000000E+00  0.00000000E+00
  0.00000000E+00  0.00000000E+00  0.00000000E+00
  0.00000000E+00  0.00000000E+00  0.00000000E+00
  0.00000000E+00  0.00000000E+00  0.00000000E+00
  0.00000000E+00  0.00000000E+00  0.00000000E+00
  0.00000000E+00  0.00000000E+00  0.00000000E+00
  0.00000000E+00  0.00000000E+00  0.00000000E+00
  0.00000000E+00  0.00000000E+00  0.00000000E+00
  0.00000000E+00  0.00000000E+00  0.00000000E+00
  0.00000000E+00  0.00000000E+00  0.00000000E+00
  0.00000000E+00  0.00000000E+00  0.00000000E+00
  0.00000000E+00  0.00000000E+00  0.00000000E+00
  0.00000000E+00  0.00000000E+00  0.00000000E+00
  0.00000000E+00  0.00000000E+00  0.00000000E+00
  0.00000000E+00  0.00000000E+00  0.00000000E+00
  0.00000000E+00  0.00000000E+00  0.00000000E+00
