Na4 Ti4 O8 F4                           
   1.00000000000000     
     5.3732380767430312    0.0150863331727131    0.0180787962381049
     0.0140621190719766    5.4396282167696892   -0.0115653664508129
     0.0265563092636178   -0.0175298955397683    7.6214876597936563
   Na   Ti   O    F 
     4     4     8     4
Direct
  0.9889038114869556  0.0250196618081591  0.2578115461421651
  0.0046129921843505  0.9662548290444710  0.7468720542917956
  0.4967424958843324  0.4605322495985151  0.7312615452939640
  0.5031661170191609  0.5295846563108810  0.2731748345420886
  0.4984650841417172  0.0000938708453958  0.0133801935987633
  0.0046529530222244  0.5011677030127734  0.0008857630734515
  0.4769208266151749  0.0058824550525447  0.4908196110748831
  0.0052938024492018  0.4815235195181932  0.5067457789351950
  0.2205008284655289  0.2142429323342640  0.9614517837429383
  0.7902458319809295  0.8030635890803347  0.0278475274812818
  0.2903917027432377  0.7173337735784828  0.5363965633538474
  0.7169462168395659  0.2749161219391787  0.4647660905430747
  0.2154761516705613  0.2117035360189800  0.5431333220847488
  0.0643539506347470  0.4958336973951819  0.2439357660186431
  0.9272416251060143  0.5148054510562448  0.7532100411973683
  0.4218955686868595  0.9752747451361895  0.2454913479578615
  0.6980501826283907  0.3022980111215174  0.0450683119493917
  0.3032118368836956  0.7097804579489870  0.9430915659709844
  0.7870965547922619  0.7876343841683389  0.4637529157011793
  0.5858314667650901  0.0230543550313671  0.7509034370463744
 
  0.00000000E+00  0.00000000E+00  0.00000000E+00
  0.00000000E+00  0.00000000E+00  0.00000000E+00
  0.00000000E+00  0.00000000E+00  0.00000000E+00
  0.00000000E+00  0.00000000E+00  0.00000000E+00
  0.00000000E+00  0.00000000E+00  0.00000000E+00
  0.00000000E+00  0.00000000E+00  0.00000000E+00
  0.00000000E+00  0.00000000E+00  0.00000000E+00
  0.00000000E+00  0.00000000E+00  0.00000000E+00
  0.00000000E+00  0.00000000E+00  0.00000000E+00
  0.00000000E+00  0.00000000E+00  0.00000000E+00
  0.00000000E+00  0.00000000E+00  0.00000000E+00
  0.00000000E+00  0.00000000E+00  0.00000000E+00
  0.00000000E+00  0.00000000E+00  0.00000000E+00
  0.00000000E+00  0.00000000E+00  0.00000000E+00
  0.00000000E+00  0.00000000E+00  0.00000000E+00
  0.00000000E+00  0.00000000E+00  0.00000000E+00
  0.00000000E+00  0.00000000E+00  0.00000000E+00
  0.00000000E+00  0.00000000E+00  0.00000000E+00
  0.00000000E+00  0.00000000E+00  0.00000000E+00
  0.00000000E+00  0.00000000E+00  0.00000000E+00
