Na4 V4 O8 F4                            
   1.00000000000000     
     5.4494338643146163    0.0501328711674768   -0.0478761978711177
    -2.6989131076675474    4.6427618297439066   -0.0136753519900573
     0.1750349493590459    0.0393806246803765    9.2317662701245577
   Na   V    O    F 
     4     4     8     4
Direct
  0.0385850488374024  0.0302749259774064  0.9285864709026389
  0.9555842370332445  0.9306761487974227  0.5371041535647886
  0.3183370804787277  0.6713455978523541  0.2424081114952540
  0.6652258003799639  0.3289429202735083  0.7419057660687028
  0.2670534129156654  0.6065593047501509  0.5959221120678705
  0.6205232651179557  0.2801487893667594  0.4024381912915146
  0.6654152467112742  0.3524208185060372  0.1040324397092530
  0.3937059938663458  0.7124781702773073  0.8895246191963863
  0.4683786696239311  0.0545800124607902  0.9735616424618128
  0.6116691786846152  0.6259441428804300  0.0174059050756212
  0.3814734820868873  0.9101253886901269  0.4803613655131384
  0.9501988991013395  0.3572630852343617  0.5237536694319445
  0.5203943581389257  0.5059797089542589  0.5240327049182685
  0.2974135901653571  0.4114661311389288  0.7717120510563028
  0.7154434681994549  0.1377324156948591  0.2348283411376037
  0.1622395797568774  0.7698450457785181  0.7384672790291967
  0.0458986822637954  0.4789751699290384  0.0136911641305167
  0.8689697169481256  0.6416540635728937  0.2810425863808631
  0.3395642058551258  0.2627197914828231  0.2423242935597830
  0.7139260838349922  0.9308683683820311  0.7568971330085328
 
  0.00000000E+00  0.00000000E+00  0.00000000E+00
  0.00000000E+00  0.00000000E+00  0.00000000E+00
  0.00000000E+00  0.00000000E+00  0.00000000E+00
  0.00000000E+00  0.00000000E+00  0.00000000E+00
  0.00000000E+00  0.00000000E+00  0.00000000E+00
  0.00000000E+00  0.00000000E+00  0.00000000E+00
  0.00000000E+00  0.00000000E+00  0.00000000E+00
  0.00000000E+00  0.00000000E+00  0.00000000E+00
  0.00000000E+00  0.00000000E+00  0.00000000E+00
  0.00000000E+00  0.00000000E+00  0.00000000E+00
  0.00000000E+00  0.00000000E+00  0.00000000E+00
  0.00000000E+00  0.00000000E+00  0.00000000E+00
  0.00000000E+00  0.00000000E+00  0.00000000E+00
  0.00000000E+00  0.00000000E+00  0.00000000E+00
  0.00000000E+00  0.00000000E+00  0.00000000E+00
  0.00000000E+00  0.00000000E+00  0.00000000E+00
  0.00000000E+00  0.00000000E+00  0.00000000E+00
  0.00000000E+00  0.00000000E+00  0.00000000E+00
  0.00000000E+00  0.00000000E+00  0.00000000E+00
  0.00000000E+00  0.00000000E+00  0.00000000E+00
