Cr4 O4 F8                               
   1.00000000000000     
     4.8931743242343799    0.0711159095361551   -0.0094265821425063
     0.0594956370134180    5.1691569124092283   -0.0195593112011877
    -0.0328317650483437   -0.0386619996651312    7.0125540074540229
   Cr   O    F 
     4     4     8
Direct
  0.4829051126177472  0.0069732263599046  0.0067353698624295
  0.0052913084692821  0.4853799961044423  0.9843468182381097
  0.4741584235789374  0.0167280639129548  0.4873972337226160
  0.9982898687598251  0.4985240840805901  0.5172863268749882
  0.1958505035410543  0.1947731555628728  0.9405484596509990
  0.2174010888039733  0.2189920582384678  0.5592596300468383
  0.8673887158795660  0.5119079646398402  0.7504665691371994
  0.3871307620352650  0.9548306369380248  0.2532441599232741
  0.6893622778177714  0.3042565678176832  0.0629824823557634
  0.3146570144453144  0.6881934910177745  0.9375895026978323
  0.8168973452896899  0.8043870907732595  0.0551774179797150
  0.3051593394649199  0.7082473225628435  0.5655507999185754
  0.6953602594361943  0.3023649097796924  0.4317485715775016
  0.8122688406942927  0.8102659443690594  0.4478372490796120
  0.1135280465181822  0.4776904068811027  0.2506279404529554
  0.6243510926479779  0.0164850809614802  0.7492014684815910
 
  0.00000000E+00  0.00000000E+00  0.00000000E+00
  0.00000000E+00  0.00000000E+00  0.00000000E+00
  0.00000000E+00  0.00000000E+00  0.00000000E+00
  0.00000000E+00  0.00000000E+00  0.00000000E+00
  0.00000000E+00  0.00000000E+00  0.00000000E+00
  0.00000000E+00  0.00000000E+00  0.00000000E+00
  0.00000000E+00  0.00000000E+00  0.00000000E+00
  0.00000000E+00  0.00000000E+00  0.00000000E+00
  0.00000000E+00  0.00000000E+00  0.00000000E+00
  0.00000000E+00  0.00000000E+00  0.00000000E+00
  0.00000000E+00  0.00000000E+00  0.00000000E+00
  0.00000000E+00  0.00000000E+00  0.00000000E+00
  0.00000000E+00  0.00000000E+00  0.00000000E+00
  0.00000000E+00  0.00000000E+00  0.00000000E+00
  0.00000000E+00  0.00000000E+00  0.00000000E+00
  0.00000000E+00  0.00000000E+00  0.00000000E+00
