Na2 Fe2 O4 F2                           
   1.00000000000000     
     3.8767760488484377    0.0000000081049430    0.0000061731499364
     0.0000000082945884    3.8767928072467903    0.0000000049345892
     0.0000100737775047    0.0000000133197863    7.4033899393512614
   Na   Fe   O    F 
     2     2     4     2
Direct
  0.0000016089306304  0.0000000011092058  0.0019960294029556
  0.0000019661043119  0.0000000003141363  0.5019962685516836
  0.4999890210449919  0.4999999976035335  0.2541736561206022
  0.5000012620056270  0.5000000014137804  0.7541737246294189
  0.5000006870022835  0.4999999994044427  0.0046684205536564
  0.5000009378284087  0.4999999972157754  0.5046683885919621
  0.5000019198026915  0.9999999987048397  0.2549024871546446
  0.0000031050446252  0.4999999980565015  0.7549024806710886
  0.5000038153496015  0.0000000057093409  0.7557592723738159
  0.9999956768868283  0.5000000004684367  0.2557592719501504
 
  0.00000000E+00  0.00000000E+00  0.00000000E+00
  0.00000000E+00  0.00000000E+00  0.00000000E+00
  0.00000000E+00  0.00000000E+00  0.00000000E+00
  0.00000000E+00  0.00000000E+00  0.00000000E+00
  0.00000000E+00  0.00000000E+00  0.00000000E+00
  0.00000000E+00  0.00000000E+00  0.00000000E+00
  0.00000000E+00  0.00000000E+00  0.00000000E+00
  0.00000000E+00  0.00000000E+00  0.00000000E+00
  0.00000000E+00  0.00000000E+00  0.00000000E+00
  0.00000000E+00  0.00000000E+00  0.00000000E+00
