Decasodium dicobalto(II)dicobaltate     
   1.00000000000000     
    14.7655110548885169   -0.0000017832083292   -0.1269774451251960
    -0.0000009507491339    7.9815745791275594   -0.0000006362154578
    -2.9281303534086236   -0.0000004966001008   10.9793427843715321
   Co   Na   O 
    16    40    40
Direct
  0.2645524421906984  0.8792438378152738  0.2333223482998434
  0.7354791434546613  0.1207107370691816  0.7666973786888533
  0.7354790882856648  0.8792892556712886  0.2666974127726576
  0.2645524620307711  0.1207562242362883  0.7333222676835760
  0.7645524685688869  0.3792437946552809  0.2333224049537961
  0.2354791187670955  0.6207107499501348  0.7666974003045439
  0.2354791176420505  0.3792893238701041  0.2666973959091834
  0.7645524384637028  0.6207562242654845  0.7333222614366193
  0.0502450763395856  0.8647355573233639  0.0562866723736377
  0.9497482835955466  0.1352414750587982  0.9437153415110018
  0.9497482831270290  0.8647586862136265  0.4437152677026788
  0.0502450268879642  0.1352645847565626  0.5562867446393014
  0.5502450771070500  0.3647355214259207  0.0562866764901884
  0.4497482618939159  0.6352414009055352  0.9437153556454945
  0.4497482757231808  0.3647586495656938  0.4437152834913647
  0.5502450218415333  0.6352645582426319  0.5562867900271868
  0.9884759026192853  0.6112159505151311  0.8762000607592384
  0.0115680273342562  0.3889297022721721  0.1235499211104454
  0.0115685611082199  0.6110700589923752  0.6235491378696878
  0.9884770068342945  0.3887859041719324  0.3762007044298628
  0.4884763269512575  0.1112152529623245  0.8762002655077055
  0.5115679275310612  0.8889295412120006  0.1235501002460708
  0.5115686287435679  0.1110698948651034  0.6235490041063443
  0.4884764430007777  0.8887851489916585  0.3762004747227508
  0.1044002115737470  0.6701176216262112  0.2888574911913437
  0.8955794246818058  0.3298268658585499  0.7110829770809346
  0.8955794527231760  0.6701732292568749  0.2110830564607085
  0.1044001596998143  0.3298824274306256  0.7888576285638251
  0.6044001739155433  0.1701174574258602  0.2888573480982544
  0.3955794377741455  0.8298267971340323  0.7110829447197347
  0.3955794282734786  0.1701733141463890  0.2110829028355354
  0.6044001879835506  0.8298823526475019  0.7888576830412575
  0.1055541726446805  0.9043085176275483  0.8121463718223083
  0.8945256708086475  0.0960500504626651  0.1880392904754302
  0.8945257027126772  0.9039497551722135  0.6880391404196970
  0.1055542394599485  0.0956913641497295  0.3121466440058001
  0.6055541704177330  0.4043086607818580  0.8121464776168068
  0.3945249019606223  0.5960490757497325  0.1880386358776605
  0.3945260469379690  0.4039490006886410  0.6880394463335193
  0.6055537588728441  0.5956910356340117  0.3121463898485288
  0.1627516036914187  0.1664576171899057  0.0372588054114260
  0.8372602256546529  0.8335420619310128  0.9627801590301033
  0.8372602563871681  0.1664581368406743  0.4627801146720003
  0.1627516373704410  0.8335423664175039  0.5372587564579163
  0.6627516057012244  0.6664576321876012  0.0372588214780052
  0.3372602308866703  0.3335420238805540  0.9627801142337162
  0.3372602546407251  0.6664580635118540  0.4627801460977921
  0.6627516084456815  0.3335424255518191  0.5372587806362787
  0.1987498622623178  0.5941824888975304  0.0144951713088304
  0.8012104101047868  0.4058755362196251  0.9855273028000653
  0.8012103381186435  0.5941245424594825  0.4855271895929434
  0.1987500892984357  0.4058177136730237  0.5144952811547654
  0.6987499852869163  0.0941822783258459  0.0144952077452558
  0.3012104106023727  0.9058755158912675  0.9855272565536666
  0.3012104131508551  0.0941246769340580  0.4855272445807728
  0.6987500208613042  0.9058176492738923  0.5144952468141000
  0.0229706553605453  0.0823565067577618  0.1086033362889154
  0.9770122190277775  0.9176032738822713  0.8914283946880630
  0.9770122565769839  0.0823968037197460  0.3914284758616517
  0.0229706315347968  0.9176435198686264  0.6086033301339029
  0.5229705241158982  0.5823564285293799  0.1086033566373814
  0.4770122158388261  0.4176032742001254  0.8914284523362497
  0.4770120681843366  0.5823968436392164  0.3914284151268177
  0.5229706468963329  0.4176434535857538  0.6086033046279198
  0.3751112158147620  0.8880126146900622  0.1920260252704793
  0.6248978343508895  0.1121900704675838  0.8079266975168480
  0.6248978476988185  0.8878099092218008  0.3079269274855392
  0.3751111766092876  0.1119872438682634  0.6920257710889075
  0.8751119266382048  0.3880112310220838  0.1920282927486170
  0.1248978181788942  0.6121902221345010  0.8079266899393716
  0.1248979030372652  0.3878101704924433  0.3079269017945379
  0.8751110931041381  0.6119873493544716  0.6920256585659317
  0.1759244775696374  0.8684967007332034  0.0681990437726228
  0.8240830665201528  0.1314733883100985  0.9319504661569624
  0.8240830833785466  0.8685266615941032  0.4319505012368481
  0.1759244643448383  0.1315033824254357  0.5681989415530708
  0.6759244880037656  0.3684966846249864  0.0681990744471506
  0.3240830451457768  0.6314733277578668  0.9319505390702645
  0.3240830624250677  0.3685266425094227  0.4319504676067609
  0.6759244071376713  0.6315033985225043  0.5681990253855602
  0.2217781945126163  0.8701530153501551  0.3674342303066496
  0.7781625641915468  0.1299260375223454  0.6325401529946149
  0.7781625500570470  0.8700739833629854  0.1325401815642309
  0.2217782210008181  0.1298470772487761  0.8674341726363224
  0.7217780964796674  0.3701529691071030  0.3674342205601349
  0.2781625712282079  0.6299259794797223  0.6325401642711341
  0.2781625112265473  0.3700739466391454  0.1325401583437795
  0.7217782092898517  0.6298470360593953  0.8674342221637517
  0.9957233260448035  0.6788293180661853  0.0893897711462728
  0.0042352054006329  0.3211672064921132  0.9105421713686326
  0.0042353651994134  0.6788331976072186  0.4105421915764254
  0.9957234372769150  0.3211708262721160  0.5893898189683924
  0.4957233378895083  0.1788292221505330  0.0893897639226253
  0.5042352299793720  0.8211670705924519  0.9105422017286813
  0.5042352494744691  0.1788329956630008  0.4105421160389895
  0.4957233523093620  0.8211707564890816  0.5893897714280172
 
  0.00000000E+00  0.00000000E+00  0.00000000E+00
  0.00000000E+00  0.00000000E+00  0.00000000E+00
  0.00000000E+00  0.00000000E+00  0.00000000E+00
  0.00000000E+00  0.00000000E+00  0.00000000E+00
  0.00000000E+00  0.00000000E+00  0.00000000E+00
  0.00000000E+00  0.00000000E+00  0.00000000E+00
  0.00000000E+00  0.00000000E+00  0.00000000E+00
  0.00000000E+00  0.00000000E+00  0.00000000E+00
  0.00000000E+00  0.00000000E+00  0.00000000E+00
  0.00000000E+00  0.00000000E+00  0.00000000E+00
  0.00000000E+00  0.00000000E+00  0.00000000E+00
  0.00000000E+00  0.00000000E+00  0.00000000E+00
  0.00000000E+00  0.00000000E+00  0.00000000E+00
  0.00000000E+00  0.00000000E+00  0.00000000E+00
  0.00000000E+00  0.00000000E+00  0.00000000E+00
  0.00000000E+00  0.00000000E+00  0.00000000E+00
  0.00000000E+00  0.00000000E+00  0.00000000E+00
  0.00000000E+00  0.00000000E+00  0.00000000E+00
  0.00000000E+00  0.00000000E+00  0.00000000E+00
  0.00000000E+00  0.00000000E+00  0.00000000E+00
  0.00000000E+00  0.00000000E+00  0.00000000E+00
  0.00000000E+00  0.00000000E+00  0.00000000E+00
  0.00000000E+00  0.00000000E+00  0.00000000E+00
  0.00000000E+00  0.00000000E+00  0.00000000E+00
  0.00000000E+00  0.00000000E+00  0.00000000E+00
  0.00000000E+00  0.00000000E+00  0.00000000E+00
  0.00000000E+00  0.00000000E+00  0.00000000E+00
  0.00000000E+00  0.00000000E+00  0.00000000E+00
  0.00000000E+00  0.00000000E+00  0.00000000E+00
  0.00000000E+00  0.00000000E+00  0.00000000E+00
  0.00000000E+00  0.00000000E+00  0.00000000E+00
  0.00000000E+00  0.00000000E+00  0.00000000E+00
  0.00000000E+00  0.00000000E+00  0.00000000E+00
  0.00000000E+00  0.00000000E+00  0.00000000E+00
  0.00000000E+00  0.00000000E+00  0.00000000E+00
  0.00000000E+00  0.00000000E+00  0.00000000E+00
  0.00000000E+00  0.00000000E+00  0.00000000E+00
  0.00000000E+00  0.00000000E+00  0.00000000E+00
  0.00000000E+00  0.00000000E+00  0.00000000E+00
  0.00000000E+00  0.00000000E+00  0.00000000E+00
  0.00000000E+00  0.00000000E+00  0.00000000E+00
  0.00000000E+00  0.00000000E+00  0.00000000E+00
  0.00000000E+00  0.00000000E+00  0.00000000E+00
  0.00000000E+00  0.00000000E+00  0.00000000E+00
  0.00000000E+00  0.00000000E+00  0.00000000E+00
  0.00000000E+00  0.00000000E+00  0.00000000E+00
  0.00000000E+00  0.00000000E+00  0.00000000E+00
  0.00000000E+00  0.00000000E+00  0.00000000E+00
  0.00000000E+00  0.00000000E+00  0.00000000E+00
  0.00000000E+00  0.00000000E+00  0.00000000E+00
  0.00000000E+00  0.00000000E+00  0.00000000E+00
  0.00000000E+00  0.00000000E+00  0.00000000E+00
  0.00000000E+00  0.00000000E+00  0.00000000E+00
  0.00000000E+00  0.00000000E+00  0.00000000E+00
  0.00000000E+00  0.00000000E+00  0.00000000E+00
  0.00000000E+00  0.00000000E+00  0.00000000E+00
  0.00000000E+00  0.00000000E+00  0.00000000E+00
  0.00000000E+00  0.00000000E+00  0.00000000E+00
  0.00000000E+00  0.00000000E+00  0.00000000E+00
  0.00000000E+00  0.00000000E+00  0.00000000E+00
  0.00000000E+00  0.00000000E+00  0.00000000E+00
  0.00000000E+00  0.00000000E+00  0.00000000E+00
  0.00000000E+00  0.00000000E+00  0.00000000E+00
  0.00000000E+00  0.00000000E+00  0.00000000E+00
  0.00000000E+00  0.00000000E+00  0.00000000E+00
  0.00000000E+00  0.00000000E+00  0.00000000E+00
  0.00000000E+00  0.00000000E+00  0.00000000E+00
  0.00000000E+00  0.00000000E+00  0.00000000E+00
  0.00000000E+00  0.00000000E+00  0.00000000E+00
  0.00000000E+00  0.00000000E+00  0.00000000E+00
  0.00000000E+00  0.00000000E+00  0.00000000E+00
  0.00000000E+00  0.00000000E+00  0.00000000E+00
  0.00000000E+00  0.00000000E+00  0.00000000E+00
  0.00000000E+00  0.00000000E+00  0.00000000E+00
  0.00000000E+00  0.00000000E+00  0.00000000E+00
  0.00000000E+00  0.00000000E+00  0.00000000E+00
  0.00000000E+00  0.00000000E+00  0.00000000E+00
  0.00000000E+00  0.00000000E+00  0.00000000E+00
  0.00000000E+00  0.00000000E+00  0.00000000E+00
  0.00000000E+00  0.00000000E+00  0.00000000E+00
  0.00000000E+00  0.00000000E+00  0.00000000E+00
  0.00000000E+00  0.00000000E+00  0.00000000E+00
  0.00000000E+00  0.00000000E+00  0.00000000E+00
  0.00000000E+00  0.00000000E+00  0.00000000E+00
  0.00000000E+00  0.00000000E+00  0.00000000E+00
  0.00000000E+00  0.00000000E+00  0.00000000E+00
  0.00000000E+00  0.00000000E+00  0.00000000E+00
  0.00000000E+00  0.00000000E+00  0.00000000E+00
  0.00000000E+00  0.00000000E+00  0.00000000E+00
  0.00000000E+00  0.00000000E+00  0.00000000E+00
  0.00000000E+00  0.00000000E+00  0.00000000E+00
  0.00000000E+00  0.00000000E+00  0.00000000E+00
  0.00000000E+00  0.00000000E+00  0.00000000E+00
  0.00000000E+00  0.00000000E+00  0.00000000E+00
  0.00000000E+00  0.00000000E+00  0.00000000E+00
  0.00000000E+00  0.00000000E+00  0.00000000E+00
