V2 O2 F4                                
   1.00000000000000     
    -2.6211993020163247   -4.4218354295660349    0.0040294855854882
    -5.1399694311182653   -0.0622251527876531    0.0027498111372491
    -2.5837349962726708   -1.4944014742912539   -4.3711739434141812
   V    O    F 
     2     2     4
Direct
  0.0181604918787031  0.9676756339931813  0.0185184798284936
  0.4676797904794938  0.5180728769931875  0.5185814891242870
  0.2301569802418655  0.6789478498670860  0.2554692959321869
  0.1789990053389374  0.7301707276054046  0.7554743131471398
  0.6400978020823018  0.8607277358398235  0.2423285093444889
  0.3606747271623973  0.1401304042472731  0.7422058995844196
  0.7764424134599679  0.3276920769294236  0.7338015474928810
  0.8277887893563474  0.2765826945246275  0.2336204655461032
 
  0.00000000E+00  0.00000000E+00  0.00000000E+00
  0.00000000E+00  0.00000000E+00  0.00000000E+00
  0.00000000E+00  0.00000000E+00  0.00000000E+00
  0.00000000E+00  0.00000000E+00  0.00000000E+00
  0.00000000E+00  0.00000000E+00  0.00000000E+00
  0.00000000E+00  0.00000000E+00  0.00000000E+00
  0.00000000E+00  0.00000000E+00  0.00000000E+00
  0.00000000E+00  0.00000000E+00  0.00000000E+00
