Na8 V8 O16 F8                           
   1.00000000000000     
     7.8020448652599894   -0.0000877378999798   -0.0002040368032860
    -0.0000265271303751    7.5363536850871071    0.0000246545424740
    -0.0001927588717532    0.0000285233056376    7.4985483075519790
   Na   V    O    F 
     8     8    16     8
Direct
  0.2460456222776675  0.2685615878963236  0.2425625573654386
  0.2460311570191905  0.2685661738801693  0.7574276004556832
  0.2460803064842921  0.7314601574441992  0.2425611364409077
  0.2460671192617022  0.7314547286981284  0.7574291394080604
  0.7486760997119198  0.2497326797227665  0.2609930794565424
  0.7486703323405010  0.2497347633696386  0.7389886537535211
  0.7486730659538376  0.7503459025582176  0.2610227539660552
  0.7486683422465880  0.7503428706911625  0.7389597107408323
  0.0036511843285208 -0.0000218260500999  0.9999327255494923
  0.0113315241185606  0.0000880043794924  0.4999392861667589
  0.9752860495859210  0.5000101767991981  0.9999997574053622
  0.0006023179878531  0.5000792395231063  0.4999998719835367
  0.5018467273570001  0.9991565857426201  0.9999694801476819
  0.4761387443337468  0.0002873776636705  0.4999608043535423
  0.5112686748234561  0.4995639531169109  0.0001238867965130
  0.5007767200909021  0.5002019108040465  0.5001070327928758
  0.2549022884397964  0.0001400918111478  0.4999626494615877
  0.2520198358136420  0.5000650837602832  0.5000315741550294
  0.7526292547182881  0.5000045624127515  0.0000238758926856
  0.7510898263112035  0.5000144730533370  0.5000083492324859
  0.0055024852048492  0.2586038604884162  0.9999675860170184
  0.0054738840696168  0.7415000781484375  0.9999716035217452
  0.5007645278090004  0.2612414380411867  0.0000264512111918
  0.5056454735053426  0.2469311163888807  0.5000350538380981
  0.5006878063686678  0.7384245411056030  0.0000532804892786
  0.5056371912640424  0.7531197903218949  0.5000136652194858
  0.0029265086269832  0.0000905972957688  0.2525273579212362
  0.0029299836261115  0.0000877923586830  0.7473920851402053
  0.0041390290180947  0.5000940726921156  0.2511785691652149
  0.0041264702838963  0.5000993034027558  0.7488042479900712
  0.5033771245421066 -0.0000395300004124  0.2435568491078748
  0.5033741135254813  0.9999418666769510  0.7564304903255823
  0.2535627288845859  0.9999000300527547  0.9999674856186521
  0.2541159306160500  0.4999624169875909  0.0000137969543682
  0.7520979011902502 -0.0000926454095908  0.9999621201959793
  0.7530852890810275  0.0001102132066274  0.4999722074783304
  0.9935548348471407  0.2489218512033278  0.4999726658004456
  0.9935048925030924  0.7512489534688531  0.4999669520800115
  0.4924953217051263  0.5000129231665319  0.2489149438662484
  0.4925433101239376  0.5000528331265809  0.7512686625343756
 
  0.00000000E+00  0.00000000E+00  0.00000000E+00
  0.00000000E+00  0.00000000E+00  0.00000000E+00
  0.00000000E+00  0.00000000E+00  0.00000000E+00
  0.00000000E+00  0.00000000E+00  0.00000000E+00
  0.00000000E+00  0.00000000E+00  0.00000000E+00
  0.00000000E+00  0.00000000E+00  0.00000000E+00
  0.00000000E+00  0.00000000E+00  0.00000000E+00
  0.00000000E+00  0.00000000E+00  0.00000000E+00
  0.00000000E+00  0.00000000E+00  0.00000000E+00
  0.00000000E+00  0.00000000E+00  0.00000000E+00
  0.00000000E+00  0.00000000E+00  0.00000000E+00
  0.00000000E+00  0.00000000E+00  0.00000000E+00
  0.00000000E+00  0.00000000E+00  0.00000000E+00
  0.00000000E+00  0.00000000E+00  0.00000000E+00
  0.00000000E+00  0.00000000E+00  0.00000000E+00
  0.00000000E+00  0.00000000E+00  0.00000000E+00
  0.00000000E+00  0.00000000E+00  0.00000000E+00
  0.00000000E+00  0.00000000E+00  0.00000000E+00
  0.00000000E+00  0.00000000E+00  0.00000000E+00
  0.00000000E+00  0.00000000E+00  0.00000000E+00
  0.00000000E+00  0.00000000E+00  0.00000000E+00
  0.00000000E+00  0.00000000E+00  0.00000000E+00
  0.00000000E+00  0.00000000E+00  0.00000000E+00
  0.00000000E+00  0.00000000E+00  0.00000000E+00
  0.00000000E+00  0.00000000E+00  0.00000000E+00
  0.00000000E+00  0.00000000E+00  0.00000000E+00
  0.00000000E+00  0.00000000E+00  0.00000000E+00
  0.00000000E+00  0.00000000E+00  0.00000000E+00
  0.00000000E+00  0.00000000E+00  0.00000000E+00
  0.00000000E+00  0.00000000E+00  0.00000000E+00
  0.00000000E+00  0.00000000E+00  0.00000000E+00
  0.00000000E+00  0.00000000E+00  0.00000000E+00
  0.00000000E+00  0.00000000E+00  0.00000000E+00
  0.00000000E+00  0.00000000E+00  0.00000000E+00
  0.00000000E+00  0.00000000E+00  0.00000000E+00
  0.00000000E+00  0.00000000E+00  0.00000000E+00
  0.00000000E+00  0.00000000E+00  0.00000000E+00
  0.00000000E+00  0.00000000E+00  0.00000000E+00
  0.00000000E+00  0.00000000E+00  0.00000000E+00
  0.00000000E+00  0.00000000E+00  0.00000000E+00
