Fe4 O4 F8                               
   1.00000000000000     
     5.5774390481596017   -0.1156564740747456    0.0454884644008585
    -2.9014392753016343    4.6812157609524592   -0.0388498440188791
    -0.0083162717364765   -0.0852458329633302    9.7715318951017451
   Fe   O    F 
     4     4     8
Direct
  0.3322768667920181  0.6535498706747732  0.6183384801293708
  0.6806057445656654  0.3469076382152334  0.3818518989437986
  0.6823104202565168  0.3471808483903558  0.1035457225302483
  0.3160755852791238  0.6453179154918816  0.8961822398795509
  0.5121704493598379  0.0174562712590387  0.9989359136304991
  0.9745456693407285  0.4932904875086530 -0.0009886079853106
  0.4978928260817797  0.0050082167885395  0.5028951145818721
  0.4954967257373145  0.4962476387034045  0.4945130890606969
  0.4826027859740129  0.5010680522784867  0.0091641393336661
  0.0011403598162165  0.5054206127121642  0.5027350015461995
  0.8160835689382848  0.6496180373437510  0.2414063277463464
  0.1955139112011898  0.3447624755707813  0.7525025232957744
  0.3814354551029720  0.1630215109279356  0.2331526970970415
  0.6288739347506638  0.8405072549095871  0.7599433266911830
  0.8478147297767913  0.2207551735692152  0.2487693722511189
  0.1551609670268988  0.7698879956561994  0.7570527612679367
 
  0.00000000E+00  0.00000000E+00  0.00000000E+00
  0.00000000E+00  0.00000000E+00  0.00000000E+00
  0.00000000E+00  0.00000000E+00  0.00000000E+00
  0.00000000E+00  0.00000000E+00  0.00000000E+00
  0.00000000E+00  0.00000000E+00  0.00000000E+00
  0.00000000E+00  0.00000000E+00  0.00000000E+00
  0.00000000E+00  0.00000000E+00  0.00000000E+00
  0.00000000E+00  0.00000000E+00  0.00000000E+00
  0.00000000E+00  0.00000000E+00  0.00000000E+00
  0.00000000E+00  0.00000000E+00  0.00000000E+00
  0.00000000E+00  0.00000000E+00  0.00000000E+00
  0.00000000E+00  0.00000000E+00  0.00000000E+00
  0.00000000E+00  0.00000000E+00  0.00000000E+00
  0.00000000E+00  0.00000000E+00  0.00000000E+00
  0.00000000E+00  0.00000000E+00  0.00000000E+00
  0.00000000E+00  0.00000000E+00  0.00000000E+00
