Na4 Cr4 O8 F4                           
   1.00000000000000     
     5.2304609153472246   -0.2049703972187801   -0.0178049610422076
    -0.2002244671368113    5.2978262108736187    0.0205228888459324
     0.0160346892725356    0.0098403849133601    7.4482302367795414
   Na   Cr   O    F 
     4     4     8     4
Direct
  0.0024402588784738  0.0440598163397940  0.2389073910587275
  0.0090233912003896  0.9619080138601594  0.7523992347139974
  0.4854587679226367  0.4655416424266821  0.7516805224605981
  0.5074059109895438  0.5171781056098281  0.2413327200338390
  0.5185527216278034  0.9877720725115765  0.9846513486551579
  0.9816697268824249  0.5289724715193284  0.0156181023249416
  0.4946545767819778  0.9998682188356345  0.4902026707866489
  0.0010811382757517  0.5046277815072223  0.4821235422589376
  0.0754889471794074  0.4824246568723078  0.2552588268682953
  0.5679285980753276  0.0031079476509401  0.7495636480405631
  0.4350138588109420  0.9918595365317119  0.2595774440773418
  0.7309010908356234  0.2722860660275163  0.0337510864189471
  0.2814465582057898  0.7088398798670311  0.9714367478661666
  0.7883965690723982  0.7789891447795261  0.0457489692763543
  0.2779609947308166  0.7146792332660477  0.5449317689993510
  0.7079953798949494  0.2975568348845037  0.4798979086577613
  0.9168636748585087  0.5238502357169446  0.7531206807393022
  0.2227229741535253  0.2085886852535678  0.9581312421357623
  0.7960339451669434  0.7973016339459950  0.4533791000379933
  0.1989609164567666  0.2105880225936677  0.5382870445893070
 
  0.00000000E+00  0.00000000E+00  0.00000000E+00
  0.00000000E+00  0.00000000E+00  0.00000000E+00
  0.00000000E+00  0.00000000E+00  0.00000000E+00
  0.00000000E+00  0.00000000E+00  0.00000000E+00
  0.00000000E+00  0.00000000E+00  0.00000000E+00
  0.00000000E+00  0.00000000E+00  0.00000000E+00
  0.00000000E+00  0.00000000E+00  0.00000000E+00
  0.00000000E+00  0.00000000E+00  0.00000000E+00
  0.00000000E+00  0.00000000E+00  0.00000000E+00
  0.00000000E+00  0.00000000E+00  0.00000000E+00
  0.00000000E+00  0.00000000E+00  0.00000000E+00
  0.00000000E+00  0.00000000E+00  0.00000000E+00
  0.00000000E+00  0.00000000E+00  0.00000000E+00
  0.00000000E+00  0.00000000E+00  0.00000000E+00
  0.00000000E+00  0.00000000E+00  0.00000000E+00
  0.00000000E+00  0.00000000E+00  0.00000000E+00
  0.00000000E+00  0.00000000E+00  0.00000000E+00
  0.00000000E+00  0.00000000E+00  0.00000000E+00
  0.00000000E+00  0.00000000E+00  0.00000000E+00
  0.00000000E+00  0.00000000E+00  0.00000000E+00
