Na4 Ni4 O8 F4                           
   1.00000000000000     
     5.5532269978064326   -0.6298360534098330    0.0087882561838316
    -0.5176565101736466    5.5588641345586822   -0.0238602578051022
    -0.0195930743022422    0.0342596642458883    6.7955778264534015
   Na   Ni   O    F 
     4     4     8     4
Direct
  0.0049397552415801 -0.0123622870982046  0.2380991466275544
  0.0030303333889729  0.9993152035265086  0.7576974462402960
  0.4939890068488538  0.4945202331965533  0.7639602561641915
  0.4896068636607760  0.5059981227880900  0.2388665552566542
  0.5389412339342384  0.9686430580086679 -0.0010776332614198
  0.9790389617489531  0.5087079308805819  0.9968716818523338
  0.5063968392894720  0.0000512284502713  0.4993052571653783
  0.9943261720324496  0.4885373464011817  0.5071224829852974
  0.8491361663869752  0.3467712422376709  0.7486253166991813
  0.6362901915014604  0.1389118176117190  0.7498838519420031
  0.3940137678346936  0.9307154543330279  0.2442073487954978
  0.7483454600969616  0.2507654752268563  0.1428922991083438
  0.2528804116105185  0.7565162511678730  0.8589320116131738
  0.7587177119369785  0.7429626273891550  0.9978605652165051
  0.2534172739268263  0.7480651257205271  0.6383540437643583
  0.7513159258020580  0.2490634982257936  0.3595302048140051
  0.1206662622862717  0.6023434038679236  0.2568279941024098
  0.2243804833949342  0.2784481137832098  0.9940138408145488
  0.7531935588354376  0.7490205194396272  0.4981198430585622
  0.2473736202416164  0.2530056348429743  0.5099074870411257
 
  0.00000000E+00  0.00000000E+00  0.00000000E+00
  0.00000000E+00  0.00000000E+00  0.00000000E+00
  0.00000000E+00  0.00000000E+00  0.00000000E+00
  0.00000000E+00  0.00000000E+00  0.00000000E+00
  0.00000000E+00  0.00000000E+00  0.00000000E+00
  0.00000000E+00  0.00000000E+00  0.00000000E+00
  0.00000000E+00  0.00000000E+00  0.00000000E+00
  0.00000000E+00  0.00000000E+00  0.00000000E+00
  0.00000000E+00  0.00000000E+00  0.00000000E+00
  0.00000000E+00  0.00000000E+00  0.00000000E+00
  0.00000000E+00  0.00000000E+00  0.00000000E+00
  0.00000000E+00  0.00000000E+00  0.00000000E+00
  0.00000000E+00  0.00000000E+00  0.00000000E+00
  0.00000000E+00  0.00000000E+00  0.00000000E+00
  0.00000000E+00  0.00000000E+00  0.00000000E+00
  0.00000000E+00  0.00000000E+00  0.00000000E+00
  0.00000000E+00  0.00000000E+00  0.00000000E+00
  0.00000000E+00  0.00000000E+00  0.00000000E+00
  0.00000000E+00  0.00000000E+00  0.00000000E+00
  0.00000000E+00  0.00000000E+00  0.00000000E+00
