Na4 Fe4 O8 F4                           
   1.00000000000000     
     5.4179093371705376   -0.0000130707521145   -0.0000237606486577
     0.0000005491684062    5.3733533318512006    0.0035456060226813
     0.0000121074525789   -0.0050047986501357    7.2028584781984284
   Na   Fe   O    F 
     4     4     8     4
Direct
 -0.0007275486137972  0.0349225807254047  0.2489488517649121
  0.0006495988584719  0.9653515091389626  0.7489632085753731
  0.4993518628622664  0.4653527386551679  0.7489611227206463
  0.5007255460793825  0.5349170412353268  0.2489458571715132
  0.4747717390930383  0.9972133041483061  0.9953623094955256
  0.0252228647474331  0.4972166201301433  0.9953628578779723
  0.5251491694456180  0.0026851546147107  0.4954138024171455
  0.9748453467674822  0.5026899058375258  0.4954140822418733
  0.0707244363552212  0.4849394446912184  0.2521440768390210
  0.9293311777671808  0.5149231182087501  0.7521799201566270
  0.5706722882436770  0.0149195909089665  0.7521879545632157
  0.4292794773211432  0.9849313800493308  0.2521350957122567
  0.2865850997760174  0.7173764813369807  0.9616667169639223
  0.2134224649175891  0.2173678560321073  0.9616726645760649
  0.7139339191362568  0.2820116111094220  0.4616278684598636
  0.7860699652822813  0.7820025592171103  0.4616255776865165
  0.7094754127941466  0.2909232773244315  0.0417720578765419
  0.7905231686089195  0.7909284114133749  0.0417683182743359
  0.2898848135602869  0.7096654621884928  0.5419226498686152
  0.2101091969974064  0.2096619530342669  0.5419250067580714
 
  0.00000000E+00  0.00000000E+00  0.00000000E+00
  0.00000000E+00  0.00000000E+00  0.00000000E+00
  0.00000000E+00  0.00000000E+00  0.00000000E+00
  0.00000000E+00  0.00000000E+00  0.00000000E+00
  0.00000000E+00  0.00000000E+00  0.00000000E+00
  0.00000000E+00  0.00000000E+00  0.00000000E+00
  0.00000000E+00  0.00000000E+00  0.00000000E+00
  0.00000000E+00  0.00000000E+00  0.00000000E+00
  0.00000000E+00  0.00000000E+00  0.00000000E+00
  0.00000000E+00  0.00000000E+00  0.00000000E+00
  0.00000000E+00  0.00000000E+00  0.00000000E+00
  0.00000000E+00  0.00000000E+00  0.00000000E+00
  0.00000000E+00  0.00000000E+00  0.00000000E+00
  0.00000000E+00  0.00000000E+00  0.00000000E+00
  0.00000000E+00  0.00000000E+00  0.00000000E+00
  0.00000000E+00  0.00000000E+00  0.00000000E+00
  0.00000000E+00  0.00000000E+00  0.00000000E+00
  0.00000000E+00  0.00000000E+00  0.00000000E+00
  0.00000000E+00  0.00000000E+00  0.00000000E+00
  0.00000000E+00  0.00000000E+00  0.00000000E+00
