Na4 Co4 O8 F4                           
   1.00000000000000     
     5.3051005905444750    0.2648551676569509    0.0256718174526734
     0.2779319149132888    5.3684791496548536   -0.0142201317122082
     0.0449259063361943   -0.0198880365454522    7.3923565449556081
   Na   Co   O    F 
     4     4     8     4
Direct
  0.9779983550621878  0.0402310052272360  0.2394764670999628
  0.0132641157684837  0.9669972473791072  0.7515857461941604
  0.5076905493099607  0.4607667339446394  0.7566329444314814
  0.5056601467111507  0.5383839462134714  0.2490289303400672
  0.4785341919072130  0.9746500514770238  0.9857323040583701
  0.0104381669464143  0.5109166972519975  0.0002582309280695
  0.5088316254759987  0.9947614200471755  0.5043307681768497
  0.0032388630462510  0.5013568836716013  0.5033272922894084
  0.0705651324247206  0.4820043976702107  0.2730210083591806
  0.9307820762026198  0.5284227601403871  0.7322212378508127
  0.5728426648785192  0.0191508936286843  0.7448407432427852
  0.2876125241542326  0.7298907044100000  0.9684580129991646
  0.2061713740405285  0.2406640460459131  0.9655951692717216
  0.7909737654640274  0.7655341968600938  0.0353196533465117
  0.7779644704271654  0.8013255436024493  0.4531060117937417
  0.2310873537352657  0.1935961727818796  0.5463338290991292
  0.4108741132201173  0.9895526342458374  0.2539928740258713
  0.7019580724214278  0.2699111128910521  0.0380617634289583
  0.3065720645629327  0.6973079430495381  0.5426156205314907
  0.7069403742407619  0.2945756094617024  0.4560613925322626
 
  0.00000000E+00  0.00000000E+00  0.00000000E+00
  0.00000000E+00  0.00000000E+00  0.00000000E+00
  0.00000000E+00  0.00000000E+00  0.00000000E+00
  0.00000000E+00  0.00000000E+00  0.00000000E+00
  0.00000000E+00  0.00000000E+00  0.00000000E+00
  0.00000000E+00  0.00000000E+00  0.00000000E+00
  0.00000000E+00  0.00000000E+00  0.00000000E+00
  0.00000000E+00  0.00000000E+00  0.00000000E+00
  0.00000000E+00  0.00000000E+00  0.00000000E+00
  0.00000000E+00  0.00000000E+00  0.00000000E+00
  0.00000000E+00  0.00000000E+00  0.00000000E+00
  0.00000000E+00  0.00000000E+00  0.00000000E+00
  0.00000000E+00  0.00000000E+00  0.00000000E+00
  0.00000000E+00  0.00000000E+00  0.00000000E+00
  0.00000000E+00  0.00000000E+00  0.00000000E+00
  0.00000000E+00  0.00000000E+00  0.00000000E+00
  0.00000000E+00  0.00000000E+00  0.00000000E+00
  0.00000000E+00  0.00000000E+00  0.00000000E+00
  0.00000000E+00  0.00000000E+00  0.00000000E+00
  0.00000000E+00  0.00000000E+00  0.00000000E+00
