Cr4 O4 F8                               
   1.00000000000000     
     4.9283694194479377    0.0068332116662642   -0.0029816285294267
    -0.0084808652921427    5.1531472607535838    0.0098626757645426
     0.0054545526929484    0.0046647366480319    7.2178050008775436
   Cr   O    F 
     4     4     8
Direct
  0.4662660572034243  0.9723468481427046  0.0269915013981057
  0.0000086227391743  0.5028394129560745 -0.0047547386155224
  0.5430640980582906  0.9894816849035668  0.5255155114107979
  0.0038729485960224  0.5091772610219145  0.4952161825508887
  0.3120803332678440  0.7060024449214756  0.9438273233390231
  0.8031149804426424  0.8134417410084019  0.4431501911615272
  0.5907986233643475  0.0335405740762986  0.7443483981800441
  0.3978813358367432 -0.0158484973424417  0.2461887239926622
  0.6812262154379877  0.3004461461230649  0.0443069573753177
  0.1776579693840631  0.1857428332632707  0.9414157107438791
  0.8044558671843579  0.8082648492243830  0.0590351116454525
  0.3269170035684010  0.6912309468208632  0.5610460072625034
  0.6936365883164869  0.3059409770171634  0.4417380384164613
  0.1966948017035748  0.1920134192790655  0.5414666085587055
  0.1214582488408799  0.4788096919908346  0.2451476090241568
  0.8808663060557523  0.5265696665933605  0.7453608635560108
 
  0.00000000E+00  0.00000000E+00  0.00000000E+00
  0.00000000E+00  0.00000000E+00  0.00000000E+00
  0.00000000E+00  0.00000000E+00  0.00000000E+00
  0.00000000E+00  0.00000000E+00  0.00000000E+00
  0.00000000E+00  0.00000000E+00  0.00000000E+00
  0.00000000E+00  0.00000000E+00  0.00000000E+00
  0.00000000E+00  0.00000000E+00  0.00000000E+00
  0.00000000E+00  0.00000000E+00  0.00000000E+00
  0.00000000E+00  0.00000000E+00  0.00000000E+00
  0.00000000E+00  0.00000000E+00  0.00000000E+00
  0.00000000E+00  0.00000000E+00  0.00000000E+00
  0.00000000E+00  0.00000000E+00  0.00000000E+00
  0.00000000E+00  0.00000000E+00  0.00000000E+00
  0.00000000E+00  0.00000000E+00  0.00000000E+00
  0.00000000E+00  0.00000000E+00  0.00000000E+00
  0.00000000E+00  0.00000000E+00  0.00000000E+00
