Co4 O4 F8                               
    1.000000000000000     
     5.0297408035294708    0.0357621223363010   -0.0412742010742925
     0.0248556388997425    5.1781700451627248   -0.0115806721282857
    -0.0751209870234086   -0.0490277851993968    7.3047656488332589
   Co   O    F 
     4     4     8
Direct
  0.4920363824731742  0.9949297107421011  0.0045915419189974
  0.9931962343439621  0.4959574597749321  0.0015744653601482
  0.5067630238322551  0.0040430264966346  0.4989509724030508
  0.0073933154068577  0.5081977544337305  0.5057533178825783
  0.8972641330686563  0.5622870848027828  0.7504408405169780
  0.6018282408216379  0.0210411816392861  0.7519679414158813
  0.3838034071519076  0.9680433136439595  0.2501117478299128
  0.3292619890718350  0.6907354177314144  0.5443457091760107
  0.1208833475090557  0.4584694269536877  0.2508392664472759
  0.6771159276170156  0.3017530887539454  0.0552062990384431
  0.3107862649136818  0.6895112149317646  0.9389536559942732
  0.1712277539596661  0.1913965228337266  0.9397338674535604
  0.8134966207569119  0.7979059864992851  0.0687769733499799
  0.6884408908002804  0.3100629838860299  0.4443444953995045
  0.8251954517516769  0.8081139071512290  0.4330953094846515
  0.1813070165214259  0.1975519197254905  0.5613135963287404
 
  0.00000000E+00  0.00000000E+00  0.00000000E+00
  0.00000000E+00  0.00000000E+00  0.00000000E+00
  0.00000000E+00  0.00000000E+00  0.00000000E+00
  0.00000000E+00  0.00000000E+00  0.00000000E+00
  0.00000000E+00  0.00000000E+00  0.00000000E+00
  0.00000000E+00  0.00000000E+00  0.00000000E+00
  0.00000000E+00  0.00000000E+00  0.00000000E+00
  0.00000000E+00  0.00000000E+00  0.00000000E+00
  0.00000000E+00  0.00000000E+00  0.00000000E+00
  0.00000000E+00  0.00000000E+00  0.00000000E+00
  0.00000000E+00  0.00000000E+00  0.00000000E+00
  0.00000000E+00  0.00000000E+00  0.00000000E+00
  0.00000000E+00  0.00000000E+00  0.00000000E+00
  0.00000000E+00  0.00000000E+00  0.00000000E+00
  0.00000000E+00  0.00000000E+00  0.00000000E+00
  0.00000000E+00  0.00000000E+00  0.00000000E+00
