Ti4 O4 F8                               
   1.00000000000000     
     5.1550206485650545    0.0003416947163842   -0.0119512222545690
     0.0002665136856910    5.3625058547288482    0.0021697297288754
    -0.0184155633198459   -0.0075559740946023    7.5859883929166001
   Ti   O    F 
     4     4     8
Direct
  0.5120371659618496  0.0242665640828055  0.0032951328745673
  0.0197730939540758  0.5182687352082342  0.9967434287080578
  0.5192008088591942  0.9816276091307199  0.4971971280128797
  0.0117226632854230  0.4758355953628502  0.5029890895968819
  0.7082729828204853  0.2843169624579114  0.0390250423989112
  0.2819487482000311  0.7163143429932224  0.9592606027742497
  0.7810885702948004  0.7834310687479636  0.4591321913979179
  0.2077212139204767  0.2157688033998694  0.5391461669164277
  0.0951570188429167  0.4855078707426703  0.2499148858474038
  0.8995189368468182  0.5129488898294399  0.7497218761310264
  0.5954133828708640  0.0143852419281795  0.7500969432821807
  0.3995856273394343  0.9875064201414416  0.2498632535265597
  0.1979710742019682  0.2068764517132506  0.9469429504031944
  0.7867842526851290  0.7884995438636967  0.0545694495999023
  0.2861312512350531  0.7116997048295655  0.5546775312116248
  0.6976732086814809  0.2927461955681717  0.4474243273182150
 
  0.00000000E+00  0.00000000E+00  0.00000000E+00
  0.00000000E+00  0.00000000E+00  0.00000000E+00
  0.00000000E+00  0.00000000E+00  0.00000000E+00
  0.00000000E+00  0.00000000E+00  0.00000000E+00
  0.00000000E+00  0.00000000E+00  0.00000000E+00
  0.00000000E+00  0.00000000E+00  0.00000000E+00
  0.00000000E+00  0.00000000E+00  0.00000000E+00
  0.00000000E+00  0.00000000E+00  0.00000000E+00
  0.00000000E+00  0.00000000E+00  0.00000000E+00
  0.00000000E+00  0.00000000E+00  0.00000000E+00
  0.00000000E+00  0.00000000E+00  0.00000000E+00
  0.00000000E+00  0.00000000E+00  0.00000000E+00
  0.00000000E+00  0.00000000E+00  0.00000000E+00
  0.00000000E+00  0.00000000E+00  0.00000000E+00
  0.00000000E+00  0.00000000E+00  0.00000000E+00
  0.00000000E+00  0.00000000E+00  0.00000000E+00
