Co2 O2 F4                               
   1.00000000000000     
     3.7526748805055332   -0.0000394466175207   -0.0018826899125382
    -0.0000454907198493    3.7528693613623934    0.0022044671421750
    -0.0058878708233089    0.0064994620479975    7.6768557365444030
   Co   O    F 
     2     2     4
Direct
  0.4998261992753455  0.5000505510978414  0.2562304241642928
  0.4999914793998975  0.5000552937549781  0.7562161673012399
  0.5001251400618807  0.0000497016400150  0.7554331906963951
  0.0001409805345278  0.4998079648213979  0.2554153023914332
  0.4998413660891691  0.4998882337401726  0.0055165649821255
  0.5001788725197455  0.5002116525403938  0.5055339962718954
  0.5000491617917797 -0.0000819668620815  0.2543109023094993
  0.9998468003276471  0.5000185692672825  0.7543434518831038
 
  0.00000000E+00  0.00000000E+00  0.00000000E+00
  0.00000000E+00  0.00000000E+00  0.00000000E+00
  0.00000000E+00  0.00000000E+00  0.00000000E+00
  0.00000000E+00  0.00000000E+00  0.00000000E+00
  0.00000000E+00  0.00000000E+00  0.00000000E+00
  0.00000000E+00  0.00000000E+00  0.00000000E+00
  0.00000000E+00  0.00000000E+00  0.00000000E+00
  0.00000000E+00  0.00000000E+00  0.00000000E+00
