Ti8 O8 F16                              
   1.00000000000000     
     7.7818723033884263   -0.0000000132461243   -0.0000000102007634
    -0.0000000504882371    7.4682619005590896    0.0000000143896467
    -0.0000000043345203    0.0000000191773547    7.8446427353008632
   Ti   O    F 
     8     8    16
Direct
  0.0272766694831012  0.0000000076751199  0.9999999363181732
  0.9972357722979721  0.0000001399147354  0.4999999266177341
  0.9726897312057138  0.5000000166048305  0.0000000858910221
  0.0027768730917014  0.5000001030786742  0.5000001348720291
  0.5027784971575709  0.0000000568038554 -0.0000000172843410
  0.4980480309757897  0.0000001666703769  0.4999999975561575
  0.4971944312651927  0.5000000416844228  0.9999999461374095
  0.5019508006973977  0.5000001524613563  0.4999999683740727
  0.2479232750309030  0.0000000463923075  0.9999999291855082
  0.7520742367843966  0.5000000155885564  0.0000000480870337
 -0.0000043234680687  0.2500034985474802  0.5000000396601916
 -0.0000043135944861  0.7499964159639027  0.5000000315353829
  0.4999846776679763  0.2500002480804548  0.9999999606844578
  0.4999787839943886  0.2500013789494981  0.4999999697139956
  0.4999846705822582  0.7499997356179531  0.9999999611908799
  0.4999787924160612  0.7499983675184327  0.4999999788091533
  0.9986572504796137  0.0000000325871236  0.2473187963414785
  0.9986571984742593  0.0000000126759740  0.7526811308170958
  0.0013669496229769  0.5000000343145996  0.2473089421265819
  0.0013669295036488  0.5000000428104303  0.7526912406851212
  0.5048365330221306  0.9999999195151944  0.2519069191329764
  0.5048366364918561  0.9999999300360458  0.7480930741788636
  0.4951899782685835  0.4999999421390139  0.2519035405230678
  0.4951900724867604  0.4999999298609401  0.7480963559661559
  0.2468110491789123  0.9999999051413239  0.5000000198314408
  0.2395068000924172  0.5000000385144457  0.0000000428247076
  0.2499663603825044  0.4999999188819000  0.5000000330056620
  0.7605019211610907  0.0000000476461989  0.9999999671439384
  0.7500376674789975  0.9999999006567566  0.4999999474910610
  0.7532036947226374  0.4999999255229948  0.4999999779193512
  0.0000021898696656  0.2500008794481907  0.0000000431900956
  0.0000021631760845  0.7499991486969112  0.0000000714735417
 
  0.00000000E+00  0.00000000E+00  0.00000000E+00
  0.00000000E+00  0.00000000E+00  0.00000000E+00
  0.00000000E+00  0.00000000E+00  0.00000000E+00
  0.00000000E+00  0.00000000E+00  0.00000000E+00
  0.00000000E+00  0.00000000E+00  0.00000000E+00
  0.00000000E+00  0.00000000E+00  0.00000000E+00
  0.00000000E+00  0.00000000E+00  0.00000000E+00
  0.00000000E+00  0.00000000E+00  0.00000000E+00
  0.00000000E+00  0.00000000E+00  0.00000000E+00
  0.00000000E+00  0.00000000E+00  0.00000000E+00
  0.00000000E+00  0.00000000E+00  0.00000000E+00
  0.00000000E+00  0.00000000E+00  0.00000000E+00
  0.00000000E+00  0.00000000E+00  0.00000000E+00
  0.00000000E+00  0.00000000E+00  0.00000000E+00
  0.00000000E+00  0.00000000E+00  0.00000000E+00
  0.00000000E+00  0.00000000E+00  0.00000000E+00
  0.00000000E+00  0.00000000E+00  0.00000000E+00
  0.00000000E+00  0.00000000E+00  0.00000000E+00
  0.00000000E+00  0.00000000E+00  0.00000000E+00
  0.00000000E+00  0.00000000E+00  0.00000000E+00
  0.00000000E+00  0.00000000E+00  0.00000000E+00
  0.00000000E+00  0.00000000E+00  0.00000000E+00
  0.00000000E+00  0.00000000E+00  0.00000000E+00
  0.00000000E+00  0.00000000E+00  0.00000000E+00
  0.00000000E+00  0.00000000E+00  0.00000000E+00
  0.00000000E+00  0.00000000E+00  0.00000000E+00
  0.00000000E+00  0.00000000E+00  0.00000000E+00
  0.00000000E+00  0.00000000E+00  0.00000000E+00
  0.00000000E+00  0.00000000E+00  0.00000000E+00
  0.00000000E+00  0.00000000E+00  0.00000000E+00
  0.00000000E+00  0.00000000E+00  0.00000000E+00
  0.00000000E+00  0.00000000E+00  0.00000000E+00
