Fe4 O4 F8                               
   1.00000000000000     
     5.5229416988560196    0.0041249736159200    0.0023953830564527
    -2.7613196183279900    4.7872481853943079   -0.0014179811787964
     0.0041235794350325   -0.0002907105599496    9.3708333101216716
   Fe   O    F 
     4     4     8
Direct
  0.3386976208609972  0.6903099458851039  0.6028538432615802
  0.6486852849905645  0.3093371611859153  0.3970323468254426
  0.6484328256578025  0.3094384050267005  0.1028374942199890
  0.3388953657829795  0.6902939909048827  0.8970377179954663
  0.5099916403865601  0.9993107874356711  0.0000492378723999
  0.5102553770125514  0.9997573769126838  0.4997645830439826
  0.6374457698862890  0.8254371052297641  0.7501329019897972
  0.8138013451882462  0.1766920020942933  0.2501009278525124
  0.0026205103461500  0.5070237069740474  0.0013507904506285
  0.4956544675906076  0.4925453962384361  0.9982446113229168
  0.0025814767511763  0.5070069674084078  0.4986472922454698
  0.4957385409926047  0.4925887756635513  0.5016825894946598
  0.8140895625532137  0.6022985880326218  0.2501492133072432
  0.2111243728080971  0.3973962683742676  0.7501177359396595
  0.3551476482392767  0.1785443276430400  0.2499914987058470
  0.1768381909528693  0.8220191949906059  0.7500072154724053
 
  0.00000000E+00  0.00000000E+00  0.00000000E+00
  0.00000000E+00  0.00000000E+00  0.00000000E+00
  0.00000000E+00  0.00000000E+00  0.00000000E+00
  0.00000000E+00  0.00000000E+00  0.00000000E+00
  0.00000000E+00  0.00000000E+00  0.00000000E+00
  0.00000000E+00  0.00000000E+00  0.00000000E+00
  0.00000000E+00  0.00000000E+00  0.00000000E+00
  0.00000000E+00  0.00000000E+00  0.00000000E+00
  0.00000000E+00  0.00000000E+00  0.00000000E+00
  0.00000000E+00  0.00000000E+00  0.00000000E+00
  0.00000000E+00  0.00000000E+00  0.00000000E+00
  0.00000000E+00  0.00000000E+00  0.00000000E+00
  0.00000000E+00  0.00000000E+00  0.00000000E+00
  0.00000000E+00  0.00000000E+00  0.00000000E+00
  0.00000000E+00  0.00000000E+00  0.00000000E+00
  0.00000000E+00  0.00000000E+00  0.00000000E+00
