Na8 Fe8 O16 F8                          
   1.00000000000000     
     7.5591530153377251    0.0069466169251370   -0.0017731291253873
    -0.0014750988889026    7.5347207660180757   -0.0150754694790412
    -0.0011563793035762   -0.0182773308696116    7.5368993915516498
   Na   Fe   O    F 
     8     8    16     8
Direct
  0.2483433736465255  0.2491424124234650  0.2527426025747878
  0.2515992288620463  0.2449310470799399  0.7483664925576026
  0.2499651313441789  0.7501317056798668  0.2575644495135141
  0.2501035066309396  0.7455468404652371  0.7544686288037548
  0.7490903486380616  0.2486990910434535  0.2538311846093249
  0.7499565784594185  0.2420921586197693  0.7497947412539191
  0.7499143311180460  0.7515656339864697  0.2552337109370993
  0.7508357616317999  0.7440284645785118  0.7545463141880121
  0.0001559101972565  0.9944749463416859  0.0024292667699966
  0.0003615305458332  0.9880892522212801  0.5024734075704570
 -0.0014204621959876  0.5008803777828192  0.0082543267367186
  0.0001021388968660  0.5124110667453333  0.4960188015968745
  0.5001699135436655  0.0039703690115902  0.9876011254501684
  0.5003289190733945 -0.0025043898975025  0.5118895813563107
  0.4985594783015799  0.4917904299294901 -0.0009946070521225
  0.5000590101897432  0.4976313785971718  0.5055065307181792
  0.2561437913598434  0.9931710262384975  0.0011280394918137
  0.2487462473219762  0.5012377131369841  0.9969281892474042
  0.2443472408659981  0.4969641665032299  0.5069480476546520
  0.7444983520297536  0.9922026338900793  0.0024979032274387
  0.7488408280550228  0.5034763609534363  0.9977825192500606
  0.7560133216508236  0.4984755659650577  0.5068529867842887
  0.0011756803307927  0.7541396531314434  0.5490987321269494
  0.5006324548054335  0.2490185561805211 -0.0492238128022198
  0.5017803757872049  0.2524562646006466  0.5517384013452454
  0.4989125649470974  0.7515436376139806  0.0484906554609364
  0.4997272981547691  0.7551711797678590  0.4555681696223617
  0.0017349058549049  0.9479722317255714  0.2475870940057298
  0.0002515615873067  0.0440793054998784  0.7448843037606571
 -0.0000826618995222  0.5488328340267296  0.2508394335193039
 -0.0009307123593370  0.4512648926383949  0.7486526289152828
  0.5015554331049710 -0.0492655479939391  0.7456697963435751
  0.2503935726665798  0.0220213537287823  0.4811309913425119
  0.7504566803687174  0.0191872922569635  0.4781819750597978
  0.9988151052036244  0.2471828226923594  0.0623061415622826
 -0.0003941306945122  0.2461088616765013  0.4422585265901905
  0.0005892525321083  0.7473897714931658  0.9319707783154607
  0.4996375471415075  0.0581360953372134  0.2538566865439690
  0.4993575271163456  0.4383124749585016  0.2526444143866318
  0.4996730651852232  0.5680400693695696  0.7524808406610644
 
  0.00000000E+00  0.00000000E+00  0.00000000E+00
  0.00000000E+00  0.00000000E+00  0.00000000E+00
  0.00000000E+00  0.00000000E+00  0.00000000E+00
  0.00000000E+00  0.00000000E+00  0.00000000E+00
  0.00000000E+00  0.00000000E+00  0.00000000E+00
  0.00000000E+00  0.00000000E+00  0.00000000E+00
  0.00000000E+00  0.00000000E+00  0.00000000E+00
  0.00000000E+00  0.00000000E+00  0.00000000E+00
  0.00000000E+00  0.00000000E+00  0.00000000E+00
  0.00000000E+00  0.00000000E+00  0.00000000E+00
  0.00000000E+00  0.00000000E+00  0.00000000E+00
  0.00000000E+00  0.00000000E+00  0.00000000E+00
  0.00000000E+00  0.00000000E+00  0.00000000E+00
  0.00000000E+00  0.00000000E+00  0.00000000E+00
  0.00000000E+00  0.00000000E+00  0.00000000E+00
  0.00000000E+00  0.00000000E+00  0.00000000E+00
  0.00000000E+00  0.00000000E+00  0.00000000E+00
  0.00000000E+00  0.00000000E+00  0.00000000E+00
  0.00000000E+00  0.00000000E+00  0.00000000E+00
  0.00000000E+00  0.00000000E+00  0.00000000E+00
  0.00000000E+00  0.00000000E+00  0.00000000E+00
  0.00000000E+00  0.00000000E+00  0.00000000E+00
  0.00000000E+00  0.00000000E+00  0.00000000E+00
  0.00000000E+00  0.00000000E+00  0.00000000E+00
  0.00000000E+00  0.00000000E+00  0.00000000E+00
  0.00000000E+00  0.00000000E+00  0.00000000E+00
  0.00000000E+00  0.00000000E+00  0.00000000E+00
  0.00000000E+00  0.00000000E+00  0.00000000E+00
  0.00000000E+00  0.00000000E+00  0.00000000E+00
  0.00000000E+00  0.00000000E+00  0.00000000E+00
  0.00000000E+00  0.00000000E+00  0.00000000E+00
  0.00000000E+00  0.00000000E+00  0.00000000E+00
  0.00000000E+00  0.00000000E+00  0.00000000E+00
  0.00000000E+00  0.00000000E+00  0.00000000E+00
  0.00000000E+00  0.00000000E+00  0.00000000E+00
  0.00000000E+00  0.00000000E+00  0.00000000E+00
  0.00000000E+00  0.00000000E+00  0.00000000E+00
  0.00000000E+00  0.00000000E+00  0.00000000E+00
  0.00000000E+00  0.00000000E+00  0.00000000E+00
  0.00000000E+00  0.00000000E+00  0.00000000E+00
