Ni4 O4 F8                               
   1.00000000000000     
     4.8322064728397196    0.0079801678816245   -0.0871143771770098
    -0.0002534143651761    5.1456259769545385   -0.0532160480415001
     0.1772404719656288   -0.1514072846931005    7.1823293265931394
   Ni   O    F 
     4     4     8
Direct
  0.4996737953045113 -0.0014472367158363  0.9995058977422110
 -0.0003193487828187  0.4967965484091113 -0.0002493097164403
  0.4897924629793703  0.9933470116359931  0.4992533678683858
  0.0019123184320440  0.5034513928050999  0.5033140113542448
  0.8692736163272579  0.5647706240091973  0.7362311309075262
  0.6045101612322592  0.0272746494549220  0.7506739009450534
  0.4044955802271789  0.9736453828018333  0.2468012656525747
  0.3211329058207290  0.6657738123355622  0.5629975328720794
  0.1359215393489262  0.4535999125443307  0.2642487943265900
  0.6751272384442366  0.3320450853087289  0.0633621440449039
  0.3171014413731432  0.6705855185189632  0.9263137709816837
  0.1610912130837271  0.1834233154318807  0.9343409893351858
  0.8388623494948007  0.8117786937952995  0.0660259608011709
  0.6847200709724465  0.3249469838111981  0.4459980432626611
  0.8416236273503714  0.7990145492533246  0.4349508148209664
  0.1550810283918168  0.2009937566003990  0.5662316848012032
 
  0.00000000E+00  0.00000000E+00  0.00000000E+00
  0.00000000E+00  0.00000000E+00  0.00000000E+00
  0.00000000E+00  0.00000000E+00  0.00000000E+00
  0.00000000E+00  0.00000000E+00  0.00000000E+00
  0.00000000E+00  0.00000000E+00  0.00000000E+00
  0.00000000E+00  0.00000000E+00  0.00000000E+00
  0.00000000E+00  0.00000000E+00  0.00000000E+00
  0.00000000E+00  0.00000000E+00  0.00000000E+00
  0.00000000E+00  0.00000000E+00  0.00000000E+00
  0.00000000E+00  0.00000000E+00  0.00000000E+00
  0.00000000E+00  0.00000000E+00  0.00000000E+00
  0.00000000E+00  0.00000000E+00  0.00000000E+00
  0.00000000E+00  0.00000000E+00  0.00000000E+00
  0.00000000E+00  0.00000000E+00  0.00000000E+00
  0.00000000E+00  0.00000000E+00  0.00000000E+00
  0.00000000E+00  0.00000000E+00  0.00000000E+00
