Na4 V4 O8 F4                            
   1.00000000000000     
     5.3626845565656671    0.2069977882912578    0.0100695136394536
     0.2179783608745490    5.3946750803574997    0.0172522478845139
     0.0120232871556605    0.0076574953317441    7.4695603031075066
   Na   V    O    F 
     4     4     8     4
Direct
  0.9845027404361774  0.0335013413340187  0.2364456465778668
  0.9950516823196843  0.9819175004605670  0.7536081652895600
  0.5090656980784257  0.4572667393440486  0.7611494026110024
  0.5235139433212563  0.5423595067922219  0.2434934704159196
  0.4850467559170855  0.9938414398881570  0.9983346014971395
  0.0426032981872547  0.5270932822565579  0.0175685368612185
  0.4983331031214365  0.9977654687870537  0.5001747114423694
  0.0071431905433626  0.5000728474998940  0.4937023243137822
  0.2810562088651416  0.7083040346289825  0.9595091343412367
  0.1855315862676820  0.2249786355926331  0.9608272946275630
  0.7890619531391191  0.7593989428009115  0.0306798145703637
  0.7970809844462394  0.7771521750077549  0.4681945612337857
  0.2012469113888141  0.2206180202980979  0.5346344043298649
  0.0894956246272190  0.4905883134484192  0.2467384169615628
  0.5551952339154765  0.0130210210889581  0.7581841818024347
  0.4348731923554978  0.9842343616146726  0.2411226242258553
  0.6998681715892463  0.2798723248689941  0.0400017420542888
  0.2962483302619904  0.6982218010304263  0.5470058072451592
  0.7092465974700408  0.2962756987421515  0.4572391576689994
  0.9158347937488569  0.5135165445154722  0.7513860019300345
 
  0.00000000E+00  0.00000000E+00  0.00000000E+00
  0.00000000E+00  0.00000000E+00  0.00000000E+00
  0.00000000E+00  0.00000000E+00  0.00000000E+00
  0.00000000E+00  0.00000000E+00  0.00000000E+00
  0.00000000E+00  0.00000000E+00  0.00000000E+00
  0.00000000E+00  0.00000000E+00  0.00000000E+00
  0.00000000E+00  0.00000000E+00  0.00000000E+00
  0.00000000E+00  0.00000000E+00  0.00000000E+00
  0.00000000E+00  0.00000000E+00  0.00000000E+00
  0.00000000E+00  0.00000000E+00  0.00000000E+00
  0.00000000E+00  0.00000000E+00  0.00000000E+00
  0.00000000E+00  0.00000000E+00  0.00000000E+00
  0.00000000E+00  0.00000000E+00  0.00000000E+00
  0.00000000E+00  0.00000000E+00  0.00000000E+00
  0.00000000E+00  0.00000000E+00  0.00000000E+00
  0.00000000E+00  0.00000000E+00  0.00000000E+00
  0.00000000E+00  0.00000000E+00  0.00000000E+00
  0.00000000E+00  0.00000000E+00  0.00000000E+00
  0.00000000E+00  0.00000000E+00  0.00000000E+00
  0.00000000E+00  0.00000000E+00  0.00000000E+00
