Fe4 O4 F8                               
   1.00000000000000     
     5.0699046323562866   -0.0018010989559584    0.0241961368172898
     0.0104292038320311    5.3802596587229967    0.1668108440279111
    -0.0509662937300730    0.1422283861112605    7.1358226014559394
   Fe   O    F 
     4     4     8
Direct
  0.5082103418361463 -0.0007465410657570  0.0039003309562664
 -0.0003940848684994  0.5052739459926349 -0.0081160284684826
  0.4896965573667774  0.9910107711709200  0.4897101549996102
 -0.0096046197724666  0.4884202242892731  0.5059380544057619
  0.7145953000250521  0.3145320678051829  0.0256894574641587
  0.7988490960525129  0.8081208674588273  0.4445664762322284
  0.8795317171722374  0.5333967601413986  0.7641785161114604
  0.4048580451617628  0.9907689297640737  0.2553763446380616
  0.2997024258841798  0.7059386493029658  0.9500657751772245
  0.2198480715635755  0.2107725572518808  0.9389581770113039
  0.8164142247553664  0.8099843510653360  0.0740413971707928
  0.2949927741476167  0.6841922429363747  0.5593762387582780
  0.6807010685344344  0.3098009707866424  0.4514437417152971
  0.1889962307258664  0.1835604691413500  0.5581923289747485
  0.1017616619602085  0.4662540059491606  0.2463190630342708
  0.6118411894552228 -0.0012802719902703  0.7403599718190200
 
  0.00000000E+00  0.00000000E+00  0.00000000E+00
  0.00000000E+00  0.00000000E+00  0.00000000E+00
  0.00000000E+00  0.00000000E+00  0.00000000E+00
  0.00000000E+00  0.00000000E+00  0.00000000E+00
  0.00000000E+00  0.00000000E+00  0.00000000E+00
  0.00000000E+00  0.00000000E+00  0.00000000E+00
  0.00000000E+00  0.00000000E+00  0.00000000E+00
  0.00000000E+00  0.00000000E+00  0.00000000E+00
  0.00000000E+00  0.00000000E+00  0.00000000E+00
  0.00000000E+00  0.00000000E+00  0.00000000E+00
  0.00000000E+00  0.00000000E+00  0.00000000E+00
  0.00000000E+00  0.00000000E+00  0.00000000E+00
  0.00000000E+00  0.00000000E+00  0.00000000E+00
  0.00000000E+00  0.00000000E+00  0.00000000E+00
  0.00000000E+00  0.00000000E+00  0.00000000E+00
  0.00000000E+00  0.00000000E+00  0.00000000E+00
