V4 O4 F8                                
   1.00000000000000     
     5.1502338154668630    0.0443174340695379    0.0413102245800158
     0.0577112918637310    5.2793576365372905   -0.0025533933476196
     0.0127127438992410   -0.0379606218260919    7.3131126554181929
   V    O    F 
     4     4     8
Direct
  0.4948050919665723  0.9908336041466815  0.0202218398124756
  0.0173220445718658  0.4685228154483841  0.9934133676913613
  0.4693128295536540  0.0193225241781639  0.5017449728990379
  0.9860879275699092  0.5026106334432180  0.5209720112345414
  0.9183860218915755  0.5099083131135699  0.7444020907073428
  0.4307340510137897  0.9770410525716200  0.2436835710185389
  0.2062393818578176  0.2109930789061931  0.9630083742786446
  0.2096288668674862  0.2086527402667701  0.5335108896372678
  0.0765951166616814  0.5015867166824469  0.2539164088059528
  0.5864561070451102  0.0169274050292300  0.7535037170024216
  0.6994923631294961  0.2970969325291006  0.0438686889720849
  0.3027287413846006  0.6999647379811813  0.9466691052343531
  0.8113494222749957  0.7889755184336733  0.0311620098138289
  0.3000949515797426  0.7024260119432404  0.5425429936005727
  0.6996933635717709  0.2990312534925694  0.4470842803564370
  0.7910737190599394  0.8061066618339434  0.4602956789351458
 
  0.00000000E+00  0.00000000E+00  0.00000000E+00
  0.00000000E+00  0.00000000E+00  0.00000000E+00
  0.00000000E+00  0.00000000E+00  0.00000000E+00
  0.00000000E+00  0.00000000E+00  0.00000000E+00
  0.00000000E+00  0.00000000E+00  0.00000000E+00
  0.00000000E+00  0.00000000E+00  0.00000000E+00
  0.00000000E+00  0.00000000E+00  0.00000000E+00
  0.00000000E+00  0.00000000E+00  0.00000000E+00
  0.00000000E+00  0.00000000E+00  0.00000000E+00
  0.00000000E+00  0.00000000E+00  0.00000000E+00
  0.00000000E+00  0.00000000E+00  0.00000000E+00
  0.00000000E+00  0.00000000E+00  0.00000000E+00
  0.00000000E+00  0.00000000E+00  0.00000000E+00
  0.00000000E+00  0.00000000E+00  0.00000000E+00
  0.00000000E+00  0.00000000E+00  0.00000000E+00
  0.00000000E+00  0.00000000E+00  0.00000000E+00
