Ti24 O44                                
   1.00000000000000     
     4.7270107519728830    0.0126779984949910    3.0806854564347548
    -4.5476230563107247    4.7688659911308049    2.8467399083563443
     0.0546030382723868    0.0448994870809267   32.8529789897491042
   Ti   O 
    24    44
Direct
  0.9798484449121722  0.9855209987975939  0.9574492897531789
  0.0175362925404587  0.0079952925405903  0.0415723213582095
  0.4798415595349377  0.4855587613258975  0.4574535551417985
  0.5175002278957380  0.5079902968677509  0.5415807783200146
  0.9528082245540909  0.9569193161447240  0.8716347622767568
  0.0493648555876901  0.0396662799371750  0.1285078865674862
  0.4530780055543686  0.4570256028393829  0.3715841250446331
  0.5494700022730357  0.5397675133299785  0.6284782304185407
  0.9121264962748035  0.9598248941728876  0.7813526827184077
  0.0937163022554205  0.0494078139941679  0.2176826696401805
  0.4122656054906279  0.4598475960033978  0.2813486495682360
  0.5938898725787236  0.5495539363394866  0.7176570886546372
  0.9854843634509544  0.4885811984112519  0.9574596009530190
  0.0182608190838148  0.5102714990363389  0.0432639019088302
  0.4856214440583420  0.9887147171278501  0.4574349931961353
  0.5184553765789144  0.0103616216247772  0.5432296739443305
  0.9579498391569777  0.4615285163797887  0.8705176101241974
  0.0431132159401393  0.5369141654902581  0.1294437881099363
  0.4579378708039783  0.9615217496241975  0.3705208639976084
  0.5430939290118060  0.0369785371085859  0.6294445505027445
  0.9046018322294556  0.4569324180993303  0.7828468258579381
  0.1002735156154063  0.5505923107501424  0.2173994745319416
  0.4050224766631315  0.9573452119287242  0.2827652965308697
  0.6001594209031305  0.0507328225123098  0.7174296741092728
  0.0141201465686133  0.3096311915471140  0.9242128035830111
  0.9882734484851714  0.6990022985159837  0.0716682919205869
  0.5142336949834575  0.8096709099681448  0.4241956932098263
  0.4882664973771302  0.1989511480331427  0.5716677420234922
  0.0710422719493767  0.3287529377267494  0.8238234941221239
  0.9120995904032840  0.6692317850519024  0.1809175581862836
  0.5711055602639100  0.8288635254536281  0.3238197373055614
  0.4120051059152594  0.1693418173051958  0.6809125834590355
  0.9650278275438962  0.6736390804209367  0.9869696324501027
  0.0318562128375272  0.3204591247627387  0.0124406019932466
  0.4650418655831252  0.1736807032210538  0.4869648683824050
  0.5318610022754230  0.8205027534902625  0.5124332577695727
  0.9422086038414779  0.6591911740501600  0.8995508966624600
  0.0566726772829519  0.3330617608022749  0.0990322772698598
  0.4421708961677424  0.1591559068654187  0.3995461981846150
  0.5567487958477572  0.8331489319751954  0.5990129288325007
  0.9764574896259030  0.6909570758379017  0.8053446070360402
  0.0199454740417118  0.3059807103487648  0.1983830449520933
  0.4766086297333291  0.1910553675605141  0.3053242724660080
  0.5203049497297768  0.8061940671474493  0.6983449472027575
  0.4022724202598859  0.1852897268232466  0.9458043801249518
  0.6132354129601859  0.8223052265432532  0.0557964909719917
  0.9023911268606984  0.6853949086015514  0.4458224328923416
  0.1132180301279558  0.3223179083248658  0.5558201031561697
  0.3525135015135450  0.1574638826994034  0.8583113319988241
  0.6602464953926828  0.8429443399226469  0.1377003398502353
  0.8527701114261880  0.6574371642803536  0.3582326574225901
  0.1603137694551762  0.3429601707167638  0.6376812232555232
  0.3655887105044925  0.1605085508450916  0.7694135351229795
  0.6280938020917698  0.8437463394248442  0.2310050036189085
  0.8655319784238749  0.6605156070828375  0.2694104635104108
  0.1280565717048611  0.3436771408380089  0.7310423861246944
  0.5868244399403217  0.8111625568581332  0.9611751481448935
  0.4045484022647942  0.1825000862837717  0.0381142698559426
  0.0870461599666025  0.3112219251561265  0.4611436075406604
  0.9046699347474901  0.6825364150422634  0.5381030030167400
  0.5839746375011169  0.8094926781397932  0.8723894466256278
  0.4126150733237686  0.1895475057634629  0.1279692313579786
  0.0839364841249180  0.3094502804337205  0.3723964552867187
  0.9126123390375633  0.6895067367679540  0.6279706791961944
  0.5505513604016031  0.8117502448117614  0.7873471787665939
  0.4453006084488341  0.1881156718999929  0.2137080646546559
  0.0508097209735985  0.3120956435980282  0.2872966258400174
  0.9454081751431382  0.6880339486709984  0.7137222114238559
 
  0.00000000E+00  0.00000000E+00  0.00000000E+00
  0.00000000E+00  0.00000000E+00  0.00000000E+00
  0.00000000E+00  0.00000000E+00  0.00000000E+00
  0.00000000E+00  0.00000000E+00  0.00000000E+00
  0.00000000E+00  0.00000000E+00  0.00000000E+00
  0.00000000E+00  0.00000000E+00  0.00000000E+00
  0.00000000E+00  0.00000000E+00  0.00000000E+00
  0.00000000E+00  0.00000000E+00  0.00000000E+00
  0.00000000E+00  0.00000000E+00  0.00000000E+00
  0.00000000E+00  0.00000000E+00  0.00000000E+00
  0.00000000E+00  0.00000000E+00  0.00000000E+00
  0.00000000E+00  0.00000000E+00  0.00000000E+00
  0.00000000E+00  0.00000000E+00  0.00000000E+00
  0.00000000E+00  0.00000000E+00  0.00000000E+00
  0.00000000E+00  0.00000000E+00  0.00000000E+00
  0.00000000E+00  0.00000000E+00  0.00000000E+00
  0.00000000E+00  0.00000000E+00  0.00000000E+00
  0.00000000E+00  0.00000000E+00  0.00000000E+00
  0.00000000E+00  0.00000000E+00  0.00000000E+00
  0.00000000E+00  0.00000000E+00  0.00000000E+00
  0.00000000E+00  0.00000000E+00  0.00000000E+00
  0.00000000E+00  0.00000000E+00  0.00000000E+00
  0.00000000E+00  0.00000000E+00  0.00000000E+00
  0.00000000E+00  0.00000000E+00  0.00000000E+00
  0.00000000E+00  0.00000000E+00  0.00000000E+00
  0.00000000E+00  0.00000000E+00  0.00000000E+00
  0.00000000E+00  0.00000000E+00  0.00000000E+00
  0.00000000E+00  0.00000000E+00  0.00000000E+00
  0.00000000E+00  0.00000000E+00  0.00000000E+00
  0.00000000E+00  0.00000000E+00  0.00000000E+00
  0.00000000E+00  0.00000000E+00  0.00000000E+00
  0.00000000E+00  0.00000000E+00  0.00000000E+00
  0.00000000E+00  0.00000000E+00  0.00000000E+00
  0.00000000E+00  0.00000000E+00  0.00000000E+00
  0.00000000E+00  0.00000000E+00  0.00000000E+00
  0.00000000E+00  0.00000000E+00  0.00000000E+00
  0.00000000E+00  0.00000000E+00  0.00000000E+00
  0.00000000E+00  0.00000000E+00  0.00000000E+00
  0.00000000E+00  0.00000000E+00  0.00000000E+00
  0.00000000E+00  0.00000000E+00  0.00000000E+00
  0.00000000E+00  0.00000000E+00  0.00000000E+00
  0.00000000E+00  0.00000000E+00  0.00000000E+00
  0.00000000E+00  0.00000000E+00  0.00000000E+00
  0.00000000E+00  0.00000000E+00  0.00000000E+00
  0.00000000E+00  0.00000000E+00  0.00000000E+00
  0.00000000E+00  0.00000000E+00  0.00000000E+00
  0.00000000E+00  0.00000000E+00  0.00000000E+00
  0.00000000E+00  0.00000000E+00  0.00000000E+00
  0.00000000E+00  0.00000000E+00  0.00000000E+00
  0.00000000E+00  0.00000000E+00  0.00000000E+00
  0.00000000E+00  0.00000000E+00  0.00000000E+00
  0.00000000E+00  0.00000000E+00  0.00000000E+00
  0.00000000E+00  0.00000000E+00  0.00000000E+00
  0.00000000E+00  0.00000000E+00  0.00000000E+00
  0.00000000E+00  0.00000000E+00  0.00000000E+00
  0.00000000E+00  0.00000000E+00  0.00000000E+00
  0.00000000E+00  0.00000000E+00  0.00000000E+00
  0.00000000E+00  0.00000000E+00  0.00000000E+00
  0.00000000E+00  0.00000000E+00  0.00000000E+00
  0.00000000E+00  0.00000000E+00  0.00000000E+00
  0.00000000E+00  0.00000000E+00  0.00000000E+00
  0.00000000E+00  0.00000000E+00  0.00000000E+00
  0.00000000E+00  0.00000000E+00  0.00000000E+00
  0.00000000E+00  0.00000000E+00  0.00000000E+00
  0.00000000E+00  0.00000000E+00  0.00000000E+00
  0.00000000E+00  0.00000000E+00  0.00000000E+00
  0.00000000E+00  0.00000000E+00  0.00000000E+00
  0.00000000E+00  0.00000000E+00  0.00000000E+00
