Na4 Co4 O8 F4                           
    1.000000000000000     
     5.2723191119684945    0.1535740919595972   -0.0027162902491742
     0.1542147513540479    5.2613669595234418    0.0056390400142961
    -0.0052997731304485    0.0093610452492667    7.7310122870512101
   Na   Co   O    F 
     4     4     8     4
Direct
  0.9829444327743886  0.0294661510201024  0.2492494645787176
  0.0181746780184895  0.9771337277500010  0.7498137807884717
  0.4934075886710119  0.4694827353480449  0.7500350470430135
  0.5205736478509024  0.5296271561676988  0.2502770136761683
  0.4882711693009512  0.9746524017438531  0.9895467358633283
  0.0124180295798197  0.5052503278265661  0.0026745913041779
  0.4885802634065755  0.9769433852101841  0.5138230945481581
  0.0113270878842542  0.5088710074222718  0.4969138690355166
  0.2906292408760081  0.7248801750270957  0.9567063261727640
  0.2057278074979507  0.2373232763881319  0.9644687011319490
  0.8035284745952112  0.7642029325089581  0.0394996109996484
  0.2901135470081542  0.7271274288757326  0.5432931891591579
  0.8017647660753937  0.7669670981836205  0.4599624998886540
  0.2052034513976082  0.2396927024923627  0.5337487852489744
  0.0749662597332659  0.4920037420163865  0.2500081125919564
  0.5738531849723998  0.0234248041404115  0.7505181574092532
  0.7043488448114346  0.2711385852808945  0.0426845244521772
  0.7037196419770382  0.2720559587037314  0.4572072168502501
  0.9061535321070195  0.5250301298011024  0.7495321932176111
  0.4242943514621160  0.9847262740928500  0.2500370860400594
 
  0.00000000E+00  0.00000000E+00  0.00000000E+00
  0.00000000E+00  0.00000000E+00  0.00000000E+00
  0.00000000E+00  0.00000000E+00  0.00000000E+00
  0.00000000E+00  0.00000000E+00  0.00000000E+00
  0.00000000E+00  0.00000000E+00  0.00000000E+00
  0.00000000E+00  0.00000000E+00  0.00000000E+00
  0.00000000E+00  0.00000000E+00  0.00000000E+00
  0.00000000E+00  0.00000000E+00  0.00000000E+00
  0.00000000E+00  0.00000000E+00  0.00000000E+00
  0.00000000E+00  0.00000000E+00  0.00000000E+00
  0.00000000E+00  0.00000000E+00  0.00000000E+00
  0.00000000E+00  0.00000000E+00  0.00000000E+00
  0.00000000E+00  0.00000000E+00  0.00000000E+00
  0.00000000E+00  0.00000000E+00  0.00000000E+00
  0.00000000E+00  0.00000000E+00  0.00000000E+00
  0.00000000E+00  0.00000000E+00  0.00000000E+00
  0.00000000E+00  0.00000000E+00  0.00000000E+00
  0.00000000E+00  0.00000000E+00  0.00000000E+00
  0.00000000E+00  0.00000000E+00  0.00000000E+00
  0.00000000E+00  0.00000000E+00  0.00000000E+00
