Na4 V4 O8 F4                            
   1.00000000000000     
     5.4362916863783672   -0.0352217598363279   -0.0776282868082089
    -2.7217050811119550    4.6801868130846405    0.0355726588474595
    -0.1773629155605621    0.0102265600773273    9.2721448240796303
   Na   V    O    F 
     4     4     8     4
Direct
  0.9947220029723752  0.9960019068763213  0.9282943834635889
 -0.0040851893929104  0.0024198992639799  0.5786574005428772
  0.3434877864431420  0.6697706794156467  0.2504121675436801
  0.6805211794938039  0.3482253959560027  0.7408493686275516
  0.3389929078615277  0.6433242509571382  0.5941929389110387
  0.6817832351600044  0.3261628098544176  0.4043887690443272
  0.7064021306634760  0.3180298811228034  0.1046998723561210
  0.3477300066991524  0.6747015450955306  0.8868766979145136
  0.5662008633052089  0.9609357414378308  0.0128688999986701
  0.9791626869655726  0.5436418684643635 -0.0064251292999325
  0.5622520655102133  0.0195929184066973  0.5106505999218545
  0.9918084515871949  0.5941543786801102  0.5105154869545064
  0.4158508893918070  0.4397651154655657  0.4863328119800649
  0.1211378947943562  0.3972924689057927  0.7484588421033892
  0.6258851648245789  0.7627027340563636  0.7487632833919647
  0.8853838669667889  0.2693122824768946  0.2613454774479066
  0.4112997778462752  0.3838430736264311  0.9914185078408214
  0.7223453706888099  0.6148961445310089  0.2399368452462718
  0.3695966970323435  0.1031524752824528  0.2409493877958284
  0.2595222111862875  0.9320744301246550  0.7668133882149559
 
  0.00000000E+00  0.00000000E+00  0.00000000E+00
  0.00000000E+00  0.00000000E+00  0.00000000E+00
  0.00000000E+00  0.00000000E+00  0.00000000E+00
  0.00000000E+00  0.00000000E+00  0.00000000E+00
  0.00000000E+00  0.00000000E+00  0.00000000E+00
  0.00000000E+00  0.00000000E+00  0.00000000E+00
  0.00000000E+00  0.00000000E+00  0.00000000E+00
  0.00000000E+00  0.00000000E+00  0.00000000E+00
  0.00000000E+00  0.00000000E+00  0.00000000E+00
  0.00000000E+00  0.00000000E+00  0.00000000E+00
  0.00000000E+00  0.00000000E+00  0.00000000E+00
  0.00000000E+00  0.00000000E+00  0.00000000E+00
  0.00000000E+00  0.00000000E+00  0.00000000E+00
  0.00000000E+00  0.00000000E+00  0.00000000E+00
  0.00000000E+00  0.00000000E+00  0.00000000E+00
  0.00000000E+00  0.00000000E+00  0.00000000E+00
  0.00000000E+00  0.00000000E+00  0.00000000E+00
  0.00000000E+00  0.00000000E+00  0.00000000E+00
  0.00000000E+00  0.00000000E+00  0.00000000E+00
  0.00000000E+00  0.00000000E+00  0.00000000E+00
