Na4 V4 O8 F4                            
   1.00000000000000     
     5.4786930744711402   -0.0148963096181288    0.0008412549045159
    -2.7543080978955392    4.7362648732001418   -0.0008188007204893
     0.0020412819379016   -0.0011042191857607    9.2277416114062358
   Na   V    O    F 
     4     4     8     4
Direct
  0.9927783251451022  0.0071943571873007  0.0004599591799827
  0.9932985340630700  0.0067539729055744  0.5000777378521150
  0.3522974631987585  0.6477537344928823  0.2498734437032223
  0.6484276966185154  0.3515975318987825  0.7501329869974462
  0.3285081791544994  0.6715365086948714  0.5957051558181179
  0.6673226351566045  0.3326809029300215  0.4005198001659637
  0.6671997628459315  0.3327486750173319  0.0994608177109871
  0.3285247888420021  0.6715064166610347  0.9042482891845673
  0.5053918688010018  0.9967967634165835  0.9951358292623413
  0.0032769523079752  0.4950895480167964  0.9952667952311266
  0.4992355338435769  0.5004347513654768  0.0008781596275492
  0.5052520500319568  0.9967756163854578  0.5048082942204468
  0.0033267330334561  0.4952776831944349  0.5046684828559885
  0.4992417447353814  0.5004085590942722  0.4990518658359066
  0.7970777493836941  0.2028591278717244  0.2499350905545226
  0.2039908995529128  0.7959435812765435  0.7500350912796007
  0.8096724844910053  0.6647407087650820  0.2499831328330600
  0.2024261156010652  0.3423654698413914  0.7498754131813442
  0.3351669714405977  0.1901220813664491  0.2499865141136213
  0.6575835117529008  0.7974140096180028  0.7498971403920905
 
  0.00000000E+00  0.00000000E+00  0.00000000E+00
  0.00000000E+00  0.00000000E+00  0.00000000E+00
  0.00000000E+00  0.00000000E+00  0.00000000E+00
  0.00000000E+00  0.00000000E+00  0.00000000E+00
  0.00000000E+00  0.00000000E+00  0.00000000E+00
  0.00000000E+00  0.00000000E+00  0.00000000E+00
  0.00000000E+00  0.00000000E+00  0.00000000E+00
  0.00000000E+00  0.00000000E+00  0.00000000E+00
  0.00000000E+00  0.00000000E+00  0.00000000E+00
  0.00000000E+00  0.00000000E+00  0.00000000E+00
  0.00000000E+00  0.00000000E+00  0.00000000E+00
  0.00000000E+00  0.00000000E+00  0.00000000E+00
  0.00000000E+00  0.00000000E+00  0.00000000E+00
  0.00000000E+00  0.00000000E+00  0.00000000E+00
  0.00000000E+00  0.00000000E+00  0.00000000E+00
  0.00000000E+00  0.00000000E+00  0.00000000E+00
  0.00000000E+00  0.00000000E+00  0.00000000E+00
  0.00000000E+00  0.00000000E+00  0.00000000E+00
  0.00000000E+00  0.00000000E+00  0.00000000E+00
  0.00000000E+00  0.00000000E+00  0.00000000E+00
