Co4 O4 F8                               
    1.000000000000000     
     5.0072412712585059    0.0144306251294489    0.0483653552600560
     0.0056539198015862    5.1439686291853493    0.0255197839560866
     0.0798132903281953    0.0420538737349228    7.1867139465175391
   Co   O    F 
     4     4     8
Direct
  0.4980096464271630  0.0002277145244453  0.0014781916569891
  0.0030288413697169  0.5020478079751403  0.0004917501611037
  0.4879342337846203  0.0081879036893411  0.5004008375134528
  0.0026256254032774  0.4991238104695539  0.5003892476080931
  0.1134569503753262  0.4692999079175423  0.2578462555724234
  0.8889996895219859  0.5272222103444634  0.7407981092869630
  0.3849732546143323  0.9369163231982695  0.2505611612652459
  0.1639277096096477  0.1988338983499839  0.5547784599232702
  0.6247548336329322  0.0467207719342259  0.7499956239226476
  0.6804072403361890  0.3043019080977765  0.0597670438920284
  0.3247949521620077  0.6919366282373470  0.9365768770410458
  0.1804024588042382  0.1926287322779306  0.9392924963241475
  0.8196846939063557  0.8058257666723091  0.0579102127218373
  0.3312149599148703  0.7034981771330489  0.5752263764167392
  0.6671825934595986  0.3034104420009160  0.4291232173295914
  0.8286023166777320  0.8098179971776921  0.4453641393644144
 
  0.00000000E+00  0.00000000E+00  0.00000000E+00
  0.00000000E+00  0.00000000E+00  0.00000000E+00
  0.00000000E+00  0.00000000E+00  0.00000000E+00
  0.00000000E+00  0.00000000E+00  0.00000000E+00
  0.00000000E+00  0.00000000E+00  0.00000000E+00
  0.00000000E+00  0.00000000E+00  0.00000000E+00
  0.00000000E+00  0.00000000E+00  0.00000000E+00
  0.00000000E+00  0.00000000E+00  0.00000000E+00
  0.00000000E+00  0.00000000E+00  0.00000000E+00
  0.00000000E+00  0.00000000E+00  0.00000000E+00
  0.00000000E+00  0.00000000E+00  0.00000000E+00
  0.00000000E+00  0.00000000E+00  0.00000000E+00
  0.00000000E+00  0.00000000E+00  0.00000000E+00
  0.00000000E+00  0.00000000E+00  0.00000000E+00
  0.00000000E+00  0.00000000E+00  0.00000000E+00
  0.00000000E+00  0.00000000E+00  0.00000000E+00
