Na4 Mn4 O8 F4                           
   1.00000000000000     
     5.1439764931140521    0.0518164199535014   -0.0141884090125704
     0.0539920811229488    5.1953561113962801    0.0071000105241576
     0.0089471398158291    0.0176037077669245    7.7273382104070878
   Na   Mn   O    F 
     4     4     8     4
Direct
  0.9821857972890684  0.0311287309961015  0.2523303421343855
  0.0154325719883204  0.9637049213773420  0.7468871417770310
  0.4870799087692830  0.4655994764597074  0.7419062990573734
  0.5217423083462297  0.5372222552047540  0.2519387333051792
  0.4846532380035276  0.9878239158761871  0.9995785756003571
  0.0149087885517931  0.5116953701271236  0.0160878781191353
  0.4972195624538736  0.0034630840096554  0.4994812763567050
  0.0046009323624575  0.5031820563504249  0.4822221985931630
  0.2939924475061797  0.6937712089213323  0.9594145937467304
  0.1980072466228640  0.2036464372856603  0.9623673987879279
  0.7933770638516385  0.7906616536383093  0.0434442562462612
  0.2717588194082156  0.7324180806820072  0.5404857871059343
  0.7252815997444646  0.2760933241876251  0.4585264179304804
  0.7722127616889293  0.7751136363281214  0.4537614196768581
  0.2279059420855960  0.2312424962854643  0.5468305230209841
  0.0903607595012744  0.4741491007487745  0.2498441261123271
  0.7019049099224368  0.2938981925052906  0.0395708235157025
  0.9183573337952723  0.5167269362169618  0.7537778613927389
  0.5868640026456161  0.0138614277723330  0.7369094034386127
  0.4121540054629460  0.9945976950268318  0.2646349440821200
 
  0.00000000E+00  0.00000000E+00  0.00000000E+00
  0.00000000E+00  0.00000000E+00  0.00000000E+00
  0.00000000E+00  0.00000000E+00  0.00000000E+00
  0.00000000E+00  0.00000000E+00  0.00000000E+00
  0.00000000E+00  0.00000000E+00  0.00000000E+00
  0.00000000E+00  0.00000000E+00  0.00000000E+00
  0.00000000E+00  0.00000000E+00  0.00000000E+00
  0.00000000E+00  0.00000000E+00  0.00000000E+00
  0.00000000E+00  0.00000000E+00  0.00000000E+00
  0.00000000E+00  0.00000000E+00  0.00000000E+00
  0.00000000E+00  0.00000000E+00  0.00000000E+00
  0.00000000E+00  0.00000000E+00  0.00000000E+00
  0.00000000E+00  0.00000000E+00  0.00000000E+00
  0.00000000E+00  0.00000000E+00  0.00000000E+00
  0.00000000E+00  0.00000000E+00  0.00000000E+00
  0.00000000E+00  0.00000000E+00  0.00000000E+00
  0.00000000E+00  0.00000000E+00  0.00000000E+00
  0.00000000E+00  0.00000000E+00  0.00000000E+00
  0.00000000E+00  0.00000000E+00  0.00000000E+00
  0.00000000E+00  0.00000000E+00  0.00000000E+00
