Fe8 O8 F16                              
    1.000000000000000     
     7.6804081816142373    0.0003990666486418   -0.0030834186852113
    -0.0006700234066659    7.6082846978697320   -0.0088337065064050
    -0.0026465714502374   -0.0038411187487952    7.7519551005503118
   Fe   O    F 
     8     8    16
Direct
  0.9999338826457560  0.0032983269419589  0.0024139645310370
  0.9999924632022825  0.9993867590993233  0.5017051040315224
  0.0000348346642340  0.4854249243171651  0.0001183961595288
  0.0000178663816044  0.4996915957276897  0.5001638774355470
  0.5001195726444223  0.9965599681501587  0.9977477136929167
  0.5000043124115905  0.0004184065763226  0.4983837810169831
  0.5000395940065090  0.5129474441884767  0.9985988305428961
  0.4999744180340144  0.5005482920023709  0.4991778585021081
  0.2524940652003309  0.9988612840495179  0.9990605228588336
  0.7473474950055419  0.9988372413258304  0.0013832580662978
  0.0000279284441547  0.2350699881913769  0.0008225132100677
  0.9999959079473228  0.2499870822347390  0.5009583842625887
  0.9999682096173999  0.7475783775690630  0.5008298411103738
  0.4999839331261242  0.2525585128157886  0.4996806828336346
  0.5002509531450841  0.7661005484173344  0.9995254360083550
  0.4999790322123943  0.7497095019566444  0.4993423116590208
  0.0012092689417216  0.0003657760736573  0.2558798377067006
  0.5014092170523554  0.0065986045175848  0.7432694736456682
  0.2495445421117921  0.9938392410923953  0.4997880931897427
  0.2496751502547170  0.5046769084527938  0.4979539267286128
  0.7497223120293697  0.5010071115715888  0.0002615761338802
  0.7503439142569164  0.5048232503078296  0.5021310007470206
  0.0000257486876620  0.7490682355618219  0.0013847755865015
  0.5000736937765780  0.2499204396233523  0.9987634104659904
  0.9986232824345933  0.9998393490711663  0.7468012505957162
  0.0003051550475561  0.4887678430974915  0.2499182292161422
  0.9995583052133981  0.4883036609165856  0.7504747619172250
  0.4984355531200535  0.0070824473689157  0.2546409108288685
  0.4999369776592246  0.5068567971531479  0.2489238388002804
  0.5000990545322779  0.5067037714645153  0.7496179599911699
  0.2503450698349852  0.5011231911654903  0.9996177452479031
  0.7505282863580547  0.9940451189979029  0.5006607332768596
 
  0.00000000E+00  0.00000000E+00  0.00000000E+00
  0.00000000E+00  0.00000000E+00  0.00000000E+00
  0.00000000E+00  0.00000000E+00  0.00000000E+00
  0.00000000E+00  0.00000000E+00  0.00000000E+00
  0.00000000E+00  0.00000000E+00  0.00000000E+00
  0.00000000E+00  0.00000000E+00  0.00000000E+00
  0.00000000E+00  0.00000000E+00  0.00000000E+00
  0.00000000E+00  0.00000000E+00  0.00000000E+00
  0.00000000E+00  0.00000000E+00  0.00000000E+00
  0.00000000E+00  0.00000000E+00  0.00000000E+00
  0.00000000E+00  0.00000000E+00  0.00000000E+00
  0.00000000E+00  0.00000000E+00  0.00000000E+00
  0.00000000E+00  0.00000000E+00  0.00000000E+00
  0.00000000E+00  0.00000000E+00  0.00000000E+00
  0.00000000E+00  0.00000000E+00  0.00000000E+00
  0.00000000E+00  0.00000000E+00  0.00000000E+00
  0.00000000E+00  0.00000000E+00  0.00000000E+00
  0.00000000E+00  0.00000000E+00  0.00000000E+00
  0.00000000E+00  0.00000000E+00  0.00000000E+00
  0.00000000E+00  0.00000000E+00  0.00000000E+00
  0.00000000E+00  0.00000000E+00  0.00000000E+00
  0.00000000E+00  0.00000000E+00  0.00000000E+00
  0.00000000E+00  0.00000000E+00  0.00000000E+00
  0.00000000E+00  0.00000000E+00  0.00000000E+00
  0.00000000E+00  0.00000000E+00  0.00000000E+00
  0.00000000E+00  0.00000000E+00  0.00000000E+00
  0.00000000E+00  0.00000000E+00  0.00000000E+00
  0.00000000E+00  0.00000000E+00  0.00000000E+00
  0.00000000E+00  0.00000000E+00  0.00000000E+00
  0.00000000E+00  0.00000000E+00  0.00000000E+00
  0.00000000E+00  0.00000000E+00  0.00000000E+00
  0.00000000E+00  0.00000000E+00  0.00000000E+00
