Na2 Mn2 O4 F2                           
   1.00000000000000     
     3.9048824379489910    0.0049511722439817    0.0064713829457325
     0.0106814447982460    3.8397391293163703    0.0038632313996016
     0.0066584238066807    0.0062950375298385    7.3484427599137900
   Na   Mn   O    F 
     2     2     4     2
Direct
  0.9810021455395844 -0.0077619465447016  0.0430698986889395
  0.9781751372797269 -0.0076436492589753  0.4721031787903360
  0.4735359400326078  0.4905754393271153  0.2510552840030598
  0.4987912217035601  0.5006678918244533  0.7516879572873009
  0.5286973279903350  0.5097576909004412  0.0012842862444799
  0.5309384544536234  0.5103182188167500  0.5045083445861005
  0.5045091323153800  0.0026579703309963  0.2560037211107323
  0.0128344754802979  0.4988402858027117  0.2559412069910657
  0.4877096190640652  0.0023087906467268  0.7536384667433133
  0.0038065461408121  0.5002793081544895  0.7537076555546645
 
  0.00000000E+00  0.00000000E+00  0.00000000E+00
  0.00000000E+00  0.00000000E+00  0.00000000E+00
  0.00000000E+00  0.00000000E+00  0.00000000E+00
  0.00000000E+00  0.00000000E+00  0.00000000E+00
  0.00000000E+00  0.00000000E+00  0.00000000E+00
  0.00000000E+00  0.00000000E+00  0.00000000E+00
  0.00000000E+00  0.00000000E+00  0.00000000E+00
  0.00000000E+00  0.00000000E+00  0.00000000E+00
  0.00000000E+00  0.00000000E+00  0.00000000E+00
  0.00000000E+00  0.00000000E+00  0.00000000E+00
