Fe2 O2 F4                               
   1.00000000000000     
    -2.5095327804765151   -4.3863838153818531   -0.0785427779886749
    -5.0581934558637629   -0.0179320447672830   -0.0039939035951048
    -2.5316098032977550   -1.5275809970834091   -4.5465711794675023
   Fe   O    F 
     2     2     4
Direct
  0.0000938909217183  0.9998423894065311  0.9999510787842993
  0.5000682329363997  0.5001907350740566  0.4998977881222899
  0.2466617098795751  0.6450713090042868  0.2533779626200570
  0.7526385062100971  0.3548827012717695  0.7471298335791445
  0.6178610107117493  0.8780300408371247  0.2540411664658606
  0.3821847551443298  0.1222930852083977  0.7459877683405480
  0.1208328015856068  0.7467020860876659  0.7570110998229254
  0.8796590926105381  0.2529876531101678  0.2426033022648753
 
  0.00000000E+00  0.00000000E+00  0.00000000E+00
  0.00000000E+00  0.00000000E+00  0.00000000E+00
  0.00000000E+00  0.00000000E+00  0.00000000E+00
  0.00000000E+00  0.00000000E+00  0.00000000E+00
  0.00000000E+00  0.00000000E+00  0.00000000E+00
  0.00000000E+00  0.00000000E+00  0.00000000E+00
  0.00000000E+00  0.00000000E+00  0.00000000E+00
  0.00000000E+00  0.00000000E+00  0.00000000E+00
