Na4 Co4 O8 F4                           
    1.000000000000000     
     5.4493692452632931   -0.0000154809661883   -0.0910788050632427
    -0.0000301685517859    5.5061280602360805   -0.0001337340561307
    -0.0172702301085231   -0.0001418570776222    7.1333479949505776
   Na   Co   O    F 
     4     4     8     4
Direct
  0.9990192748677301  0.0499912621862532  0.2512862455291150
  0.0009743099918498  0.9637656823807440  0.7442041669686521
  0.4990339795197314  0.4499845524335765  0.7512957616509203
  0.5009648296730532  0.5362643893571148  0.2442012190613786
  0.4890840690333479  0.9959151085661108  0.0021921428871492
  0.0100697003019627  0.4817083294507737  0.9983326073566987
  0.5100660615523043  0.0182919506443477  0.4983329059496572
  0.9890558663780497  0.5040774893471262  0.5022102504576220
  0.1866253587465810  0.2257387075014741  0.9659354375581248
  0.8177636357113305  0.7565251159144588  0.0310861311768847
  0.3177225201568851  0.7434752559333810  0.5310974842613622
  0.6866139452872839  0.2742470455717603  0.4659257141568766
  0.0666715145813864  0.4920524388267805  0.2569492157035635
  0.9243860202424007  0.5258890111358032  0.7482412780620515
  0.5666848578138801  0.0079843262343261  0.7569492530615021
  0.4243931817547482  0.9740855840281071  0.2482358619607407
  0.6959518218194585  0.2850497259855330  0.0494199765743285
  0.3095030279618989  0.6928517164196613  0.9523358335964021
  0.8094717072560441  0.8071430781502644  0.4523734696130736
  0.1959443173500738  0.2149592299324032  0.5493950444138892
 
  0.00000000E+00  0.00000000E+00  0.00000000E+00
  0.00000000E+00  0.00000000E+00  0.00000000E+00
  0.00000000E+00  0.00000000E+00  0.00000000E+00
  0.00000000E+00  0.00000000E+00  0.00000000E+00
  0.00000000E+00  0.00000000E+00  0.00000000E+00
  0.00000000E+00  0.00000000E+00  0.00000000E+00
  0.00000000E+00  0.00000000E+00  0.00000000E+00
  0.00000000E+00  0.00000000E+00  0.00000000E+00
  0.00000000E+00  0.00000000E+00  0.00000000E+00
  0.00000000E+00  0.00000000E+00  0.00000000E+00
  0.00000000E+00  0.00000000E+00  0.00000000E+00
  0.00000000E+00  0.00000000E+00  0.00000000E+00
  0.00000000E+00  0.00000000E+00  0.00000000E+00
  0.00000000E+00  0.00000000E+00  0.00000000E+00
  0.00000000E+00  0.00000000E+00  0.00000000E+00
  0.00000000E+00  0.00000000E+00  0.00000000E+00
  0.00000000E+00  0.00000000E+00  0.00000000E+00
  0.00000000E+00  0.00000000E+00  0.00000000E+00
  0.00000000E+00  0.00000000E+00  0.00000000E+00
  0.00000000E+00  0.00000000E+00  0.00000000E+00
