Na2 Ni2 O4 F2                           
   1.00000000000000     
     3.6877061746516833   -0.0001461320028425    0.0001790392942243
    -0.0001493219934241    3.6245579166965394   -0.0001263082607104
     0.0001216566661764   -0.0009226478944067    8.1376855837560811
   Na   Ni   O    F 
     2     2     4     2
Direct
  0.9999105329599730  0.9999580830865307  0.0042010101071592
  0.9999007845350741  0.0000218944679135  0.5046135029929965
  0.4999067093727731  0.5000529524873686  0.2569754139035877
  0.5000548951787692  0.5000714382533469  0.7569770658620802
  0.5001584840822869 -0.0000831296668191  0.2528166490308099
  0.5001846853703011 -0.0000595772781854  0.7528123792563687
 -0.0000696503514873  0.5000178522164009  0.2527826508233694
  0.0000839899795987  0.5000262911304892  0.7527468675932665
  0.4999368153586174  0.5000016305419289  0.0045344301104276
  0.4999327535141005  0.4999925647610186  0.5045400303199262
 
  0.00000000E+00  0.00000000E+00  0.00000000E+00
  0.00000000E+00  0.00000000E+00  0.00000000E+00
  0.00000000E+00  0.00000000E+00  0.00000000E+00
  0.00000000E+00  0.00000000E+00  0.00000000E+00
  0.00000000E+00  0.00000000E+00  0.00000000E+00
  0.00000000E+00  0.00000000E+00  0.00000000E+00
  0.00000000E+00  0.00000000E+00  0.00000000E+00
  0.00000000E+00  0.00000000E+00  0.00000000E+00
  0.00000000E+00  0.00000000E+00  0.00000000E+00
  0.00000000E+00  0.00000000E+00  0.00000000E+00
