Mn4 O4 F8                               
   1.00000000000000     
     4.8440314061139489   -0.0616415816765271    0.0002704576629361
    -0.0515720094795544    5.0990218881476057    0.0022526729207691
     0.0002527692879195   -0.0052988952055014    6.9840043280411299
   Mn   O    F 
     4     4     8
Direct
  0.5129705934357607  0.0103275002833143  0.0142823002164878
  0.9877863128957635  0.4861552146116451  0.9889796231127381
  0.5129546653890290  0.0104567495334226  0.4858431017644528
  0.9878203048178518  0.4862103702863139  0.5110146093117581
  0.8677954083423116  0.5265417871099092  0.7500244710955556
  0.3790492882330511  0.9672669412850183  0.2500477640829054
  0.6858514345950536  0.3102465949046710  0.0667741320596244
  0.6861783480392486  0.3100703551064892  0.4330550762896175
  0.1190355699670354  0.4761112972431713  0.2499926749435777
  0.6209187817539242  0.0272523196992622  0.7500250339787841
  0.3118325371522830  0.6953574114031152  0.9400337090688489
  0.1870243125032260  0.1893983294306300  0.9373081168707487
  0.8211788722696974  0.8098490023950046  0.0593252972041352
  0.3117552056046258  0.6955952526508307  0.5599030362353032
  0.8207288720729427  0.8095097064025492  0.4406367303345775
  0.1871194929281966  0.1896511676546392  0.5627543234308846
 
  0.00000000E+00  0.00000000E+00  0.00000000E+00
  0.00000000E+00  0.00000000E+00  0.00000000E+00
  0.00000000E+00  0.00000000E+00  0.00000000E+00
  0.00000000E+00  0.00000000E+00  0.00000000E+00
  0.00000000E+00  0.00000000E+00  0.00000000E+00
  0.00000000E+00  0.00000000E+00  0.00000000E+00
  0.00000000E+00  0.00000000E+00  0.00000000E+00
  0.00000000E+00  0.00000000E+00  0.00000000E+00
  0.00000000E+00  0.00000000E+00  0.00000000E+00
  0.00000000E+00  0.00000000E+00  0.00000000E+00
  0.00000000E+00  0.00000000E+00  0.00000000E+00
  0.00000000E+00  0.00000000E+00  0.00000000E+00
  0.00000000E+00  0.00000000E+00  0.00000000E+00
  0.00000000E+00  0.00000000E+00  0.00000000E+00
  0.00000000E+00  0.00000000E+00  0.00000000E+00
  0.00000000E+00  0.00000000E+00  0.00000000E+00
