Cr2 O2 F4                               
   1.00000000000000     
     3.8063342372664692    0.0002538351703139    0.0001824980513791
    -0.0001224278018985    3.8063911800226489    0.0000092782613945
     0.0001398662150505   -0.0000412677897255    7.0756417225782657
   Cr   O    F 
     2     2     4
Direct
  0.5001163545674625  0.4999901179664950  0.2589890091989680
  0.4999247162490719  0.5000045706031465  0.7580058344004619
  0.4998334508064335  0.5000047839425981  0.0008682054205788
  0.4998999765632051  0.5000030591986387  0.5116786816653988
  0.5001450514252220 -0.0000144608102170  0.2529988767789930
  0.5002491854216228  0.0000050200877681  0.7537379425106697
 -0.0001682902790557  0.4999986148166529  0.2529272537523993
 -0.0000004447539621  0.5000082941949249  0.7537941962725223
 
  0.00000000E+00  0.00000000E+00  0.00000000E+00
  0.00000000E+00  0.00000000E+00  0.00000000E+00
  0.00000000E+00  0.00000000E+00  0.00000000E+00
  0.00000000E+00  0.00000000E+00  0.00000000E+00
  0.00000000E+00  0.00000000E+00  0.00000000E+00
  0.00000000E+00  0.00000000E+00  0.00000000E+00
  0.00000000E+00  0.00000000E+00  0.00000000E+00
  0.00000000E+00  0.00000000E+00  0.00000000E+00
