Na4 Fe4 O8 F4                           
   1.00000000000000     
     5.4172922707685842    0.0090847791108544   -0.0000001184032397
    -2.7007780118730937    4.6960512527608333   -0.0000116823158403
    -0.0000002350410253   -0.0000226828168451    9.1646136573053170
   Na   Fe   O    F 
     4     4     8     4
Direct
  0.0124349886903445  0.0124355195354937  0.9999993830841447
  0.0124351730797230  0.0124354366951565  0.5000006251579308
  0.3299950933983098  0.6664593833583865  0.2499998831246799
  0.6664554073613900  0.3299945075566271  0.7500005288722207
  0.3274357372618368  0.6880119922920755  0.6095663336761845
  0.6880138312619550  0.3274336916652700  0.3904349259903910
  0.6880099819052887  0.3274351191618479  0.1095669047872931
  0.3274316692026957  0.6880105290182925  0.8904351135616935
  0.5392962155199683  0.0408975288251554  0.9841815187421403
  0.0408954690025638  0.5392961847463980  0.0158180412739668
  0.5392976219441081  0.0408965453122292  0.5158185162227795
  0.0409000437181177  0.5392976485674694  0.4841810899652756
  0.7919186705496912  0.6022743039249789  0.2500015795512951
  0.6022739083766311  0.7919181627375451  0.7500006530170253
  0.7697830681903071  0.1334742959666144  0.2500003585036694
  0.1334737255469918  0.7697819416418596  0.7499998561997714
  0.5085665912944890  0.5085687118434521  0.0000002478045431
  0.5085677092485312  0.5085654279098577  0.5000005345002450
  0.1616750237429301  0.3111379472623597  0.7499977570461311
  0.3111400707041341  0.1616751219789379  0.2499961489186191
 
  0.00000000E+00  0.00000000E+00  0.00000000E+00
  0.00000000E+00  0.00000000E+00  0.00000000E+00
  0.00000000E+00  0.00000000E+00  0.00000000E+00
  0.00000000E+00  0.00000000E+00  0.00000000E+00
  0.00000000E+00  0.00000000E+00  0.00000000E+00
  0.00000000E+00  0.00000000E+00  0.00000000E+00
  0.00000000E+00  0.00000000E+00  0.00000000E+00
  0.00000000E+00  0.00000000E+00  0.00000000E+00
  0.00000000E+00  0.00000000E+00  0.00000000E+00
  0.00000000E+00  0.00000000E+00  0.00000000E+00
  0.00000000E+00  0.00000000E+00  0.00000000E+00
  0.00000000E+00  0.00000000E+00  0.00000000E+00
  0.00000000E+00  0.00000000E+00  0.00000000E+00
  0.00000000E+00  0.00000000E+00  0.00000000E+00
  0.00000000E+00  0.00000000E+00  0.00000000E+00
  0.00000000E+00  0.00000000E+00  0.00000000E+00
  0.00000000E+00  0.00000000E+00  0.00000000E+00
  0.00000000E+00  0.00000000E+00  0.00000000E+00
  0.00000000E+00  0.00000000E+00  0.00000000E+00
  0.00000000E+00  0.00000000E+00  0.00000000E+00
