Na4 V4 O8 F4                            
   1.00000000000000     
     5.3985538539649500    0.0136730675444342    0.0070468100083751
    -2.6946497192703935    4.6844489499308821   -0.0141861488788530
    -0.1076372199026042   -0.0700126359987138    9.2907111201258079
   Na   V    O    F 
     4     4     8     4
Direct
  0.9933251969143897  0.9826346093093569  0.9222024293921315
  0.0001309460310779  0.0116399384107255  0.5662031721284650
  0.3281321305712321  0.6611080140114565  0.2579676501241626
  0.6763181462782467  0.3393949704567432  0.7532015083666255
  0.3117566001655701  0.6808082011368570  0.6142679145246436
  0.6763633780886801  0.3055729329398543  0.3942634026589847
  0.6481314350914238  0.3109746060340623  0.0990751809643974
  0.3097686409756796  0.6362870496810346  0.9078499473368874
  0.4105174707726853  0.9703207226579629 -0.0022405936982444
  0.0007650437494660  0.3993228263213469  0.9906617531128179
  0.5729530876840111  0.5735722973090979  0.9917371873657961
  0.4285594966311725  0.0020445383019689  0.5082548574322323
  0.9907494131549228  0.4329330588085415  0.5066286848429616
  0.2998269045316319  0.4129706803494185  0.7442651752114102
  0.7185752875348982  0.1102402019450339  0.2569556774743426
  0.1303058170307241  0.7572851468246786  0.7586136523658763
  0.5776582035016417  0.5869716518057175  0.4879576481294687
  0.8909297989509393  0.6263867062481485  0.2458936110235583
  0.3580137246884149  0.2692049465702223  0.2541192237153674
  0.6772192776531930  0.9303269008777881  0.7421219175281302
 
  0.00000000E+00  0.00000000E+00  0.00000000E+00
  0.00000000E+00  0.00000000E+00  0.00000000E+00
  0.00000000E+00  0.00000000E+00  0.00000000E+00
  0.00000000E+00  0.00000000E+00  0.00000000E+00
  0.00000000E+00  0.00000000E+00  0.00000000E+00
  0.00000000E+00  0.00000000E+00  0.00000000E+00
  0.00000000E+00  0.00000000E+00  0.00000000E+00
  0.00000000E+00  0.00000000E+00  0.00000000E+00
  0.00000000E+00  0.00000000E+00  0.00000000E+00
  0.00000000E+00  0.00000000E+00  0.00000000E+00
  0.00000000E+00  0.00000000E+00  0.00000000E+00
  0.00000000E+00  0.00000000E+00  0.00000000E+00
  0.00000000E+00  0.00000000E+00  0.00000000E+00
  0.00000000E+00  0.00000000E+00  0.00000000E+00
  0.00000000E+00  0.00000000E+00  0.00000000E+00
  0.00000000E+00  0.00000000E+00  0.00000000E+00
  0.00000000E+00  0.00000000E+00  0.00000000E+00
  0.00000000E+00  0.00000000E+00  0.00000000E+00
  0.00000000E+00  0.00000000E+00  0.00000000E+00
  0.00000000E+00  0.00000000E+00  0.00000000E+00
