Na4 Ni4 O8 F4                           
   1.00000000000000     
     5.3842362891975135   -0.0995094030822671   -0.0000100113360194
    -2.7545775892982154    4.5163871006172096   -0.0000057652563064
    -0.0000262096536017    0.0000231663594806    9.2237279695590253
   Na   Ni   O    F 
     4     4     8     4
Direct
  0.9999871114222003  0.9999123170518729  0.0000081819147724
  0.9999884903453804  0.9999116511251458  0.4999896350463402
  0.3086940806123479  0.6391640703993389  0.2500003042597285
  0.6912234280982474  0.3608495143107504  0.7499984286242025
  0.3317832347108975  0.6689074065458698  0.6180000223347051
  0.6681174507160534  0.3310378361882442  0.3820149479260664
  0.6681107764070333  0.3310369167556999  0.1179853719930151
  0.3317790463285348  0.6689100557525691  0.8819984975767099
  0.4998556566397454  0.0002667413105826  0.9998156775440989
  0.0001854700855191  0.5000483484296154  0.0001076802052253
  0.4998723049792915  0.0002696238882862  0.5001938402981594
  0.0002118300681673  0.5000844865749201  0.4998845408636257
  0.8195984596269525  0.6331481287595793  0.2499968411045685
  0.1807869255217867  0.3665022833439764  0.7499978009896324
  0.7971315131172361  0.1710053905025433  0.2499990397877312
  0.2021524154949077  0.8280724226597513  0.7499974778606315
  0.5002586613741258  0.5004700404383939  0.0001238795736782
  0.5002794638907275  0.5004840280390752  0.4998793541020987
  0.3185535963019674  0.1644122293287822  0.2500045501907167
  0.6814300842588707  0.8355065085950102  0.7500039278042934
 
  0.00000000E+00  0.00000000E+00  0.00000000E+00
  0.00000000E+00  0.00000000E+00  0.00000000E+00
  0.00000000E+00  0.00000000E+00  0.00000000E+00
  0.00000000E+00  0.00000000E+00  0.00000000E+00
  0.00000000E+00  0.00000000E+00  0.00000000E+00
  0.00000000E+00  0.00000000E+00  0.00000000E+00
  0.00000000E+00  0.00000000E+00  0.00000000E+00
  0.00000000E+00  0.00000000E+00  0.00000000E+00
  0.00000000E+00  0.00000000E+00  0.00000000E+00
  0.00000000E+00  0.00000000E+00  0.00000000E+00
  0.00000000E+00  0.00000000E+00  0.00000000E+00
  0.00000000E+00  0.00000000E+00  0.00000000E+00
  0.00000000E+00  0.00000000E+00  0.00000000E+00
  0.00000000E+00  0.00000000E+00  0.00000000E+00
  0.00000000E+00  0.00000000E+00  0.00000000E+00
  0.00000000E+00  0.00000000E+00  0.00000000E+00
  0.00000000E+00  0.00000000E+00  0.00000000E+00
  0.00000000E+00  0.00000000E+00  0.00000000E+00
  0.00000000E+00  0.00000000E+00  0.00000000E+00
  0.00000000E+00  0.00000000E+00  0.00000000E+00
