Ti4 O4 F8                               
   1.00000000000000     
     5.4813594262010934    0.0463720557580654   -0.0280769368221708
     0.0606217454068800    5.6149346330575174    0.0005457857115481
    -0.0061024716464299    0.0281555758910928    7.7884969966362050
   Na   Ti   O    F 
     4     4     4     8
Direct
  0.0012548091792699  0.0418795465465717  0.2461459967214986
  0.0085378938769387  0.9636644648582205  0.7423054083658337
  0.4857253615211588  0.4384655953382245  0.7479891175728043
  0.4908522357519780  0.5380011990523342  0.2415112562776223
  0.4807753857945419  0.0055986782958727  0.0070335230151446
  0.0009352913511783  0.4883197916130178  0.9790085672785150
  0.4842813773324109  0.0060144535922210  0.4848698032143173
  0.0056197655351204  0.4870782637516466  0.5165875887325694
  0.2069534191024773  0.1935844666351582  0.9569323646398089
  0.1966473916901334  0.2119568138233701  0.5401728843571831
  0.8946891532632104  0.5414359778847665  0.7558036170576250
  0.4224490213445305  0.9477793609830647  0.2553087345221440
  0.7039124663475956  0.2941010362256359  0.0626713987387222
  0.3246770827993296  0.6786918153354048  0.9557431763572638
  0.8052738548657614  0.8092743441297532  0.0447903664316890
  0.3021257716861739  0.7072016095098843  0.5698481360718634
  0.6849682465266819  0.3165209202955324  0.4488616323382951
  0.8216639362479896  0.8061252889090240  0.4568767890540619
  0.0774023511318521  0.4878636075937018  0.2443204940283471
  0.6012551946516398  0.0364427726266063  0.7432191452246839
 
  0.00000000E+00  0.00000000E+00  0.00000000E+00
  0.00000000E+00  0.00000000E+00  0.00000000E+00
  0.00000000E+00  0.00000000E+00  0.00000000E+00
  0.00000000E+00  0.00000000E+00  0.00000000E+00
  0.00000000E+00  0.00000000E+00  0.00000000E+00
  0.00000000E+00  0.00000000E+00  0.00000000E+00
  0.00000000E+00  0.00000000E+00  0.00000000E+00
  0.00000000E+00  0.00000000E+00  0.00000000E+00
  0.00000000E+00  0.00000000E+00  0.00000000E+00
  0.00000000E+00  0.00000000E+00  0.00000000E+00
  0.00000000E+00  0.00000000E+00  0.00000000E+00
  0.00000000E+00  0.00000000E+00  0.00000000E+00
  0.00000000E+00  0.00000000E+00  0.00000000E+00
  0.00000000E+00  0.00000000E+00  0.00000000E+00
  0.00000000E+00  0.00000000E+00  0.00000000E+00
  0.00000000E+00  0.00000000E+00  0.00000000E+00
  0.00000000E+00  0.00000000E+00  0.00000000E+00
  0.00000000E+00  0.00000000E+00  0.00000000E+00
  0.00000000E+00  0.00000000E+00  0.00000000E+00
  0.00000000E+00  0.00000000E+00  0.00000000E+00
