Co4 O4 F8                               
    1.000000000000000     
     4.9250178692300715   -0.0057147441946303   -0.0140078461411296
     0.0045905237199735    5.2155567480555067    0.0229577672775601
    -0.0055131928056678   -0.0434333309881550    7.2089334770276343
   Co   O    F 
     4     4     8
Direct
  0.4990358126283471 -0.0001864576377533  0.0010088656861530
  0.9990916822373304  0.4997112776351970 -0.0001535142930137
  0.5005054988162196  0.0003479906874163  0.5009571968984957
  0.0008431849427602  0.5002197716569994  0.4990058546154654
  0.6711078472751324  0.3198248753118295  0.0564158199738736
  0.3278535569034576  0.6796663373001608  0.9440603049155278
  0.8284721809016086  0.8197966293709092  0.4436044589163993
  0.1722652918282662  0.1807060839146076  0.5560196747517751
  0.1293750693976696  0.4669541053329462  0.2519850189170165
  0.8723926774336627  0.5328107507862493  0.7465677991432471
  0.6280223335312699  0.0323685527177441  0.7536037948317936
  0.3708948849242471  0.9675748542779729  0.2480870697280402
  0.1717749810123032  0.1852046955008651  0.9344622427255196
  0.8271594920740152  0.8147727384897161  0.0652486991513819
  0.3282938921668428  0.6853048128633461  0.5649726627677149
  0.6729116139268686  0.3149229817918012  0.4341540512705964
 
  0.00000000E+00  0.00000000E+00  0.00000000E+00
  0.00000000E+00  0.00000000E+00  0.00000000E+00
  0.00000000E+00  0.00000000E+00  0.00000000E+00
  0.00000000E+00  0.00000000E+00  0.00000000E+00
  0.00000000E+00  0.00000000E+00  0.00000000E+00
  0.00000000E+00  0.00000000E+00  0.00000000E+00
  0.00000000E+00  0.00000000E+00  0.00000000E+00
  0.00000000E+00  0.00000000E+00  0.00000000E+00
  0.00000000E+00  0.00000000E+00  0.00000000E+00
  0.00000000E+00  0.00000000E+00  0.00000000E+00
  0.00000000E+00  0.00000000E+00  0.00000000E+00
  0.00000000E+00  0.00000000E+00  0.00000000E+00
  0.00000000E+00  0.00000000E+00  0.00000000E+00
  0.00000000E+00  0.00000000E+00  0.00000000E+00
  0.00000000E+00  0.00000000E+00  0.00000000E+00
  0.00000000E+00  0.00000000E+00  0.00000000E+00
