V4 O4 F8                                
   1.00000000000000     
     5.1456554663928546    0.0309429447658792    0.0224579413529528
     0.0282249482850043    5.2898187619037387   -0.0269547183513349
     0.0073515259295771   -0.0626175437372424    7.3023308095293453
   V    O    F 
     4     4     8
Direct
  0.4972730255299220  0.9967035908104989  0.0159092851774647
  0.0136328269038245  0.4978168138660064  0.0241905291978777
  0.4686909509934018  0.0159999388509366  0.4993477087743201
  0.9862990697156855  0.4989726835720404  0.5283660364551948
  0.2115972399078268  0.2049697317286494  0.5336955382944402
  0.0746166730020920  0.4875921959104473  0.2450208164955633
  0.9218701681180342  0.5099954160047238  0.7491617075398157
  0.4296300160810275  0.9812166668991968  0.2391865376533780
  0.6894737802615077  0.3104254163418062  0.0354160713570344
  0.3160611324746819  0.6888380265351974  0.9483049388625472
  0.1938232355235190  0.1895061773602459  0.9471508538811966
  0.8222060009324772  0.8151018161345799  0.0317111939602355
  0.2995570663639877  0.6998877344722497  0.5410387228839350
  0.7019918134410120  0.2928687320234026  0.4497863452719963
  0.7881163742741590  0.7976333955400008  0.4598173885549518
  0.5851606264768333  0.0124716639500248  0.7518963256400418
 
  0.00000000E+00  0.00000000E+00  0.00000000E+00
  0.00000000E+00  0.00000000E+00  0.00000000E+00
  0.00000000E+00  0.00000000E+00  0.00000000E+00
  0.00000000E+00  0.00000000E+00  0.00000000E+00
  0.00000000E+00  0.00000000E+00  0.00000000E+00
  0.00000000E+00  0.00000000E+00  0.00000000E+00
  0.00000000E+00  0.00000000E+00  0.00000000E+00
  0.00000000E+00  0.00000000E+00  0.00000000E+00
  0.00000000E+00  0.00000000E+00  0.00000000E+00
  0.00000000E+00  0.00000000E+00  0.00000000E+00
  0.00000000E+00  0.00000000E+00  0.00000000E+00
  0.00000000E+00  0.00000000E+00  0.00000000E+00
  0.00000000E+00  0.00000000E+00  0.00000000E+00
  0.00000000E+00  0.00000000E+00  0.00000000E+00
  0.00000000E+00  0.00000000E+00  0.00000000E+00
  0.00000000E+00  0.00000000E+00  0.00000000E+00
