Na4 Cr4 O8 F4                           
   1.00000000000000     
     5.2841581169786354    0.1983974243648588    0.0022110031347142
     0.2112039022127881    5.2976694507319824    0.0060904328039155
    -0.0092687639404484   -0.0016263535826783    7.3806147199643464
   Na   Cr   O    F 
     4     4     8     4
Direct
  0.9970656091375707  0.0196681477641912  0.2491771762451208
  0.0134486373211847  0.9728266381757446  0.7464653191801344
  0.4818005513793974  0.4646405165536990  0.7474700854057073
  0.4935963046028112  0.5394124548309259  0.2581461201873437
  0.5006857036139302  0.0008907204156567  0.0018790937020581
  0.9907676064450793  0.4985941343107433  0.9851875317595892
  0.5124408541601315  0.0139267321325673  0.5011865494595431
  0.9648561050874676  0.4765459960741546  0.5131910759072393
  0.2076119244256746  0.2200211339468652  0.9671376153206930
  0.7931623382005663  0.7764888906269533  0.0367621611058679
  0.7273288421984757  0.2810462564384232  0.4528205516646615
  0.8062617813765738  0.7698342196936612  0.4657187872242083
  0.2205546721911975  0.2465603503215557  0.5322400485375656
  0.9121199347292755  0.5055451570564212  0.7507853371433922
  0.5738224448790422  0.0192632000107484  0.7568464365525051
  0.4355142086628114  0.9824296138529880  0.2456982418026351
  0.7078433113680040  0.2920013391464815  0.0448817657491224
  0.2862003490120128  0.7082654466842411  0.9573257093620535
  0.2950975975258946  0.7297001802464040  0.5409992821300380
  0.0798212236829066  0.4823388717175747  0.2460811115605067
 
  0.00000000E+00  0.00000000E+00  0.00000000E+00
  0.00000000E+00  0.00000000E+00  0.00000000E+00
  0.00000000E+00  0.00000000E+00  0.00000000E+00
  0.00000000E+00  0.00000000E+00  0.00000000E+00
  0.00000000E+00  0.00000000E+00  0.00000000E+00
  0.00000000E+00  0.00000000E+00  0.00000000E+00
  0.00000000E+00  0.00000000E+00  0.00000000E+00
  0.00000000E+00  0.00000000E+00  0.00000000E+00
  0.00000000E+00  0.00000000E+00  0.00000000E+00
  0.00000000E+00  0.00000000E+00  0.00000000E+00
  0.00000000E+00  0.00000000E+00  0.00000000E+00
  0.00000000E+00  0.00000000E+00  0.00000000E+00
  0.00000000E+00  0.00000000E+00  0.00000000E+00
  0.00000000E+00  0.00000000E+00  0.00000000E+00
  0.00000000E+00  0.00000000E+00  0.00000000E+00
  0.00000000E+00  0.00000000E+00  0.00000000E+00
  0.00000000E+00  0.00000000E+00  0.00000000E+00
  0.00000000E+00  0.00000000E+00  0.00000000E+00
  0.00000000E+00  0.00000000E+00  0.00000000E+00
  0.00000000E+00  0.00000000E+00  0.00000000E+00
