V4 O4 F8                                
   1.00000000000000     
     5.0878211256751626    0.0053440811763934    0.0188148998194029
    -0.0053671370497044    5.3116659689019023    0.0037341033442356
    -0.0068106882118941    0.0005668191950310    7.3733414798179533
   V    O    F 
     4     4     8
Direct
  0.4616027797475195  0.0220528428126469  0.9919149021804575
  0.9708443954333198  0.5307395780768227  0.0081289091023908
  0.5291069678160486  0.0306552859428504  0.4918486871579632
  0.0387066686102583  0.5220041778134400  0.5081614326755763
  0.2121636743524326  0.2101469418864653  0.9538186462304667
  0.7876960467315443  0.7795191778892356  0.0440401983601864
  0.2885789071699014  0.7091201032913107  0.5469557613706305
  0.7110316770013111  0.2801911349435134  0.4556791584125237
  0.1054205095371744  0.4736869019319974  0.2506783125083023
  0.8932793179960765  0.5038563971128738  0.7508609148257728
  0.6070583806722293  0.0047669456134587  0.7492575236574182
  0.3947983102110728  0.9727440819674293  0.2494092974325889
  0.7098308335826881  0.2781610796672064  0.0603680562337256
  0.2935910095944186  0.7023595573772594  0.9444528789904829
  0.7910634008195965  0.7789662637225037  0.4396946474102295
  0.2052271207244087  0.2010295299509934  0.5547306734512776
 
  0.00000000E+00  0.00000000E+00  0.00000000E+00
  0.00000000E+00  0.00000000E+00  0.00000000E+00
  0.00000000E+00  0.00000000E+00  0.00000000E+00
  0.00000000E+00  0.00000000E+00  0.00000000E+00
  0.00000000E+00  0.00000000E+00  0.00000000E+00
  0.00000000E+00  0.00000000E+00  0.00000000E+00
  0.00000000E+00  0.00000000E+00  0.00000000E+00
  0.00000000E+00  0.00000000E+00  0.00000000E+00
  0.00000000E+00  0.00000000E+00  0.00000000E+00
  0.00000000E+00  0.00000000E+00  0.00000000E+00
  0.00000000E+00  0.00000000E+00  0.00000000E+00
  0.00000000E+00  0.00000000E+00  0.00000000E+00
  0.00000000E+00  0.00000000E+00  0.00000000E+00
  0.00000000E+00  0.00000000E+00  0.00000000E+00
  0.00000000E+00  0.00000000E+00  0.00000000E+00
  0.00000000E+00  0.00000000E+00  0.00000000E+00
