Na8 Co8 O16 F8                          
   1.00000000000000     
     7.5261377683852251   -0.0176225474042826   -0.0406628043596918
    -0.0201126753612371    7.4521887534607787    0.0296068878536472
     0.0277911317459197    0.0155132999722553    7.5314595843061864
   Na   Co   O    F 
     8     8    16     8
Direct
  0.2573642743452993  0.2537460023252365  0.2575415607331166
  0.2439149273089924  0.2329625869551251  0.7592646017542535
  0.2645968554694846  0.7526863720182533  0.2551885961902371
  0.2407134721547166  0.7393376959639895  0.7473778974098053
  0.7605116776274130  0.2637338890855361  0.2442136405652278
  0.7483745676986118  0.2479569109487443  0.7465325999454535
  0.7469599327253533  0.7611983124948694  0.2456346873663691
  0.7362816875739142  0.7497553445881735  0.7375948252700368
  0.0035567578526070  0.9920209106294209  0.0176165488301692
  0.0006487919106064  0.9961975875007525  0.4918756065095096
  0.0171608657592088  0.5061615271220816  0.0046204980860267
  0.0009392579261558  0.4993912081801284  0.4991949255374237
  0.4988217619447113  0.9988307639939080  0.0009500811235057
  0.4997041554829877  0.0043879651816852  0.5000566701994842
  0.4928165234363675  0.4999730696131337  0.9980815343070191
  0.5002154538053318  0.5036676302188283  0.5002524922691549
  0.2716295504053221  0.9701047364217246  0.9562839428523944
  0.2638404075797141  0.9964496393281124  0.5422767889688558
  0.2407112469660646  0.5466579048784155  0.0287535049159402
  0.7241255086915004  0.0247558653639928  0.0455604769036455
  0.7348444251941544  0.0060894883851503  0.4597836200471122
  0.0077530658038469  0.2287439557112378  0.4644453538186255
  0.9908121343731580  0.7685940329984362  0.5387487000681332
  0.4641614516627897  0.2684748127404362  0.0005610166707939
  0.4920903386293745  0.2536682021685337  0.4979686745733574
  0.5380490534518643  0.7294241225033389  0.9985751289356841
  0.5066647563002746  0.7533706988653464  0.4998503735404398
  0.0274582447437339  0.9480948850091053  0.2406538763240462
  0.9541743526983524  0.5262966417192345  0.2723453668025613
  0.0463489459840289  0.4729199080175874  0.7240384504415687
  0.5416755222560425  0.4975466965019635  0.2639890314381361
  0.4598398189574766  0.5028889671639476  0.7346434284770709
  0.2468865206620237  0.5125406012303344  0.4347334393622404
  0.7675897913612388  0.4479390579347395  0.9680505454888078
  0.7539967432874448  0.4891604212947342  0.5635733306427113
  0.0433570088254669  0.2487767306451190  0.0461526460673696
  0.9446025825694520  0.7489315988053278  0.9437842121572473
  0.9699155642462429  0.0497000727981671  0.7680195835529204
  0.4342261676837325  0.0002581552070779  0.2472650743860356
  0.5626658346449389  0.0066050274880851  0.7539466674675097
 
  0.00000000E+00  0.00000000E+00  0.00000000E+00
  0.00000000E+00  0.00000000E+00  0.00000000E+00
  0.00000000E+00  0.00000000E+00  0.00000000E+00
  0.00000000E+00  0.00000000E+00  0.00000000E+00
  0.00000000E+00  0.00000000E+00  0.00000000E+00
  0.00000000E+00  0.00000000E+00  0.00000000E+00
  0.00000000E+00  0.00000000E+00  0.00000000E+00
  0.00000000E+00  0.00000000E+00  0.00000000E+00
  0.00000000E+00  0.00000000E+00  0.00000000E+00
  0.00000000E+00  0.00000000E+00  0.00000000E+00
  0.00000000E+00  0.00000000E+00  0.00000000E+00
  0.00000000E+00  0.00000000E+00  0.00000000E+00
  0.00000000E+00  0.00000000E+00  0.00000000E+00
  0.00000000E+00  0.00000000E+00  0.00000000E+00
  0.00000000E+00  0.00000000E+00  0.00000000E+00
  0.00000000E+00  0.00000000E+00  0.00000000E+00
  0.00000000E+00  0.00000000E+00  0.00000000E+00
  0.00000000E+00  0.00000000E+00  0.00000000E+00
  0.00000000E+00  0.00000000E+00  0.00000000E+00
  0.00000000E+00  0.00000000E+00  0.00000000E+00
  0.00000000E+00  0.00000000E+00  0.00000000E+00
  0.00000000E+00  0.00000000E+00  0.00000000E+00
  0.00000000E+00  0.00000000E+00  0.00000000E+00
  0.00000000E+00  0.00000000E+00  0.00000000E+00
  0.00000000E+00  0.00000000E+00  0.00000000E+00
  0.00000000E+00  0.00000000E+00  0.00000000E+00
  0.00000000E+00  0.00000000E+00  0.00000000E+00
  0.00000000E+00  0.00000000E+00  0.00000000E+00
  0.00000000E+00  0.00000000E+00  0.00000000E+00
  0.00000000E+00  0.00000000E+00  0.00000000E+00
  0.00000000E+00  0.00000000E+00  0.00000000E+00
  0.00000000E+00  0.00000000E+00  0.00000000E+00
  0.00000000E+00  0.00000000E+00  0.00000000E+00
  0.00000000E+00  0.00000000E+00  0.00000000E+00
  0.00000000E+00  0.00000000E+00  0.00000000E+00
  0.00000000E+00  0.00000000E+00  0.00000000E+00
  0.00000000E+00  0.00000000E+00  0.00000000E+00
  0.00000000E+00  0.00000000E+00  0.00000000E+00
  0.00000000E+00  0.00000000E+00  0.00000000E+00
  0.00000000E+00  0.00000000E+00  0.00000000E+00
