Mn4 O4 F8                               
   1.00000000000000     
     5.1013474872566498    0.1371538207157584   -0.0562292266406800
    -2.4317092151906685    4.4866398893958905   -0.0560413929546363
     0.0752659834977469    0.1310481513377405    8.6207071386034517
   Mn   O    F 
     4     4     8
Direct
  0.2791730590719118  0.7152963741542108  0.6081446712577440
  0.6594746402557338  0.4064499960455586  0.3905646128530009
  0.7153120516212356  0.2791903032826360  0.1081701328046449
  0.4064799652693632  0.6595265696168728  0.8905881571980040
  0.5736534013377904  0.8997057231182547  0.0417007396656868
  0.8996993390632489  0.5736203874176188  0.5417377061871292
  0.8387497876185788  0.6166961920929263  0.2259124126698528
  0.6167274653849415  0.8387814711670475  0.7258964481427196
  0.0754442281555482  0.3855453340223073  0.0208749203158372
  0.5972287344034328  0.4191577644575953  0.9375517261233715
  0.3855296037918897  0.0754316762399539  0.5208296108239583
  0.4190995864667725  0.5971673759791802  0.4375412250399918
  0.1870258893746485  0.3733202368040633  0.7192950121573620
  0.3733241764880519  0.1870713472744426  0.2192823180346531
  0.8113198967066906  0.1617431204640229  0.3059447987793571
  0.1617581749901680  0.8112961278633014  0.8059655079466801
 
  0.00000000E+00  0.00000000E+00  0.00000000E+00
  0.00000000E+00  0.00000000E+00  0.00000000E+00
  0.00000000E+00  0.00000000E+00  0.00000000E+00
  0.00000000E+00  0.00000000E+00  0.00000000E+00
  0.00000000E+00  0.00000000E+00  0.00000000E+00
  0.00000000E+00  0.00000000E+00  0.00000000E+00
  0.00000000E+00  0.00000000E+00  0.00000000E+00
  0.00000000E+00  0.00000000E+00  0.00000000E+00
  0.00000000E+00  0.00000000E+00  0.00000000E+00
  0.00000000E+00  0.00000000E+00  0.00000000E+00
  0.00000000E+00  0.00000000E+00  0.00000000E+00
  0.00000000E+00  0.00000000E+00  0.00000000E+00
  0.00000000E+00  0.00000000E+00  0.00000000E+00
  0.00000000E+00  0.00000000E+00  0.00000000E+00
  0.00000000E+00  0.00000000E+00  0.00000000E+00
  0.00000000E+00  0.00000000E+00  0.00000000E+00
