V4 O4 F8                                
   1.00000000000000     
     5.1634685008410628    0.0000000023647109    0.0536901633914309
     0.0000001222784452    5.2664118495206651   -0.0000000036468405
    -0.0175638253780591    0.0000004878572115    7.3140639250984529
   V    O    F 
     4     4     8
Direct
  0.5126390339978915  0.0106626112771264  0.9815548247877863
  0.9874271110226257  0.5341200253044505  0.0079701140707498
  0.4874268417675108  0.9658796782427621  0.5079696254804064
  0.0126384740592120  0.4893376028241346  0.4815549103768271
  0.8041046702023501  0.7929269017322363  0.0359455826305836
  0.3041045528767777  0.7070730223166071  0.5359454745356491
  0.0730983121783343  0.4807349246392969  0.2562892868889913
  0.5730986429817018  0.0192647753417214  0.7562894496969701
  0.6971578113466695  0.3068235378336926  0.0490505044207200
  0.3079641910739945  0.7035176232565010  0.9582454454303674
  0.1949502200388452  0.2154619300362381  0.9654755525018670
  0.6949500560855277  0.2845381194062271  0.4654756975053057
  0.8079636749749015  0.7964823874774266  0.4582449986472251
  0.1971574437348045  0.1931761601638101  0.5490511220104252
  0.9226594664893613  0.5115574525990598  0.7454687686610589
  0.4226594971694989  0.9884432475487168  0.2454686423550741
 
  0.00000000E+00  0.00000000E+00  0.00000000E+00
  0.00000000E+00  0.00000000E+00  0.00000000E+00
  0.00000000E+00  0.00000000E+00  0.00000000E+00
  0.00000000E+00  0.00000000E+00  0.00000000E+00
  0.00000000E+00  0.00000000E+00  0.00000000E+00
  0.00000000E+00  0.00000000E+00  0.00000000E+00
  0.00000000E+00  0.00000000E+00  0.00000000E+00
  0.00000000E+00  0.00000000E+00  0.00000000E+00
  0.00000000E+00  0.00000000E+00  0.00000000E+00
  0.00000000E+00  0.00000000E+00  0.00000000E+00
  0.00000000E+00  0.00000000E+00  0.00000000E+00
  0.00000000E+00  0.00000000E+00  0.00000000E+00
  0.00000000E+00  0.00000000E+00  0.00000000E+00
  0.00000000E+00  0.00000000E+00  0.00000000E+00
  0.00000000E+00  0.00000000E+00  0.00000000E+00
  0.00000000E+00  0.00000000E+00  0.00000000E+00
