Na4 V4 O8 F4                            
   1.00000000000000     
     5.4345005927480852   -0.0241228303211624   -0.0462557805346652
    -2.7166416524326449    4.7501362267301896    0.0794871487939672
    -0.0779111284959568    0.1402705031781515    9.1560671322607661
   Na   V    O    F 
     4     4     8     4
Direct
  0.9822620671578683  0.0186257793471875  0.9104029919447576
  0.0186874154282188  0.0673645728361989  0.4942684305591269
  0.3422599125956941  0.6576496228897714  0.2547985329566437
  0.6693125920310116  0.3471229654803338  0.7503505071611097
  0.3417566377164483  0.7108081896426647  0.6006672233802252
  0.6857885215409500  0.3926006838613803  0.4104038114729518
  0.6840527186912938  0.2964386648255815  0.1149543445191700
  0.3304895194791512  0.6833499104593990  0.8979214610101015
  0.5327409283099432  0.9177114701668003  0.0289435397119462
  0.9953182739440817  0.4612495002974156  0.9857242806772499
  0.5803155451935733  0.0786824728459823  0.5285191323237641
  0.0196472431720680  0.6417817904337051  0.5093138429991364
  0.4572603654876398  0.5166891151930271  0.4860119599243912
  0.7491062551301541  0.5912300351887799  0.2384081928221274
  0.5849733995492109  0.7146166120194649  0.7628195001466497
  0.2358633994783918  0.8739848224876186  0.7785019303526363
  0.4230088799197007  0.3604279826812637  0.9791520176230512
  0.0840381237737838  0.3350608631963881  0.7180000116566494
  0.3718370644042321  0.0901218727864157  0.2669894440021696
  0.9112811369965768  0.2444830733606212  0.2838488447561203
 
  0.00000000E+00  0.00000000E+00  0.00000000E+00
  0.00000000E+00  0.00000000E+00  0.00000000E+00
  0.00000000E+00  0.00000000E+00  0.00000000E+00
  0.00000000E+00  0.00000000E+00  0.00000000E+00
  0.00000000E+00  0.00000000E+00  0.00000000E+00
  0.00000000E+00  0.00000000E+00  0.00000000E+00
  0.00000000E+00  0.00000000E+00  0.00000000E+00
  0.00000000E+00  0.00000000E+00  0.00000000E+00
  0.00000000E+00  0.00000000E+00  0.00000000E+00
  0.00000000E+00  0.00000000E+00  0.00000000E+00
  0.00000000E+00  0.00000000E+00  0.00000000E+00
  0.00000000E+00  0.00000000E+00  0.00000000E+00
  0.00000000E+00  0.00000000E+00  0.00000000E+00
  0.00000000E+00  0.00000000E+00  0.00000000E+00
  0.00000000E+00  0.00000000E+00  0.00000000E+00
  0.00000000E+00  0.00000000E+00  0.00000000E+00
  0.00000000E+00  0.00000000E+00  0.00000000E+00
  0.00000000E+00  0.00000000E+00  0.00000000E+00
  0.00000000E+00  0.00000000E+00  0.00000000E+00
  0.00000000E+00  0.00000000E+00  0.00000000E+00
