Cr4 O4 F8                               
   1.00000000000000     
     4.7906608926336398    0.0022944599057187   -0.0006843384205195
    -0.0025046647016749    5.1151890457750468    0.0025317349087823
     0.0007272473404054   -0.0030343436772097    7.2079980067024403
   Cr   O    F 
     4     4     8
Direct
  0.5235966192834556  0.0021257319546211  0.0013346513821382
  0.9688040230276791  0.5062761355168121  0.0035701649146485
  0.4764137517970207  0.9979044640195720  0.5013319019773901
  0.0312717966683020  0.4937031507871201  0.5036051097734433
  0.6916963718275900  0.3002423938629223  0.0516647997544903
  0.8106557163152702  0.7969001144091156  0.0679585165376946
  0.3083728916280697  0.6996853471389647  0.5515772957083295
  0.1892808496886876  0.2030306615266644  0.5679960302965892
  0.1270892564274118  0.4654019406104589  0.2487258392597000
  0.8729359085536401  0.5345425484566576  0.7487063463973680
  0.6286955575529137  0.0239299299246772  0.7474858805592298
  0.3712528166891748  0.9761271822019689  0.2475157407090608
  0.3084956373738367  0.6923355611463858  0.9379555826784626
  0.1894764324337164  0.1963361826170991  0.9413154018111917
  0.6913902493936188  0.3077522907953821  0.4378941458679183
  0.8105721213396060  0.8037063650315712  0.4413625923723446
 
  0.00000000E+00  0.00000000E+00  0.00000000E+00
  0.00000000E+00  0.00000000E+00  0.00000000E+00
  0.00000000E+00  0.00000000E+00  0.00000000E+00
  0.00000000E+00  0.00000000E+00  0.00000000E+00
  0.00000000E+00  0.00000000E+00  0.00000000E+00
  0.00000000E+00  0.00000000E+00  0.00000000E+00
  0.00000000E+00  0.00000000E+00  0.00000000E+00
  0.00000000E+00  0.00000000E+00  0.00000000E+00
  0.00000000E+00  0.00000000E+00  0.00000000E+00
  0.00000000E+00  0.00000000E+00  0.00000000E+00
  0.00000000E+00  0.00000000E+00  0.00000000E+00
  0.00000000E+00  0.00000000E+00  0.00000000E+00
  0.00000000E+00  0.00000000E+00  0.00000000E+00
  0.00000000E+00  0.00000000E+00  0.00000000E+00
  0.00000000E+00  0.00000000E+00  0.00000000E+00
  0.00000000E+00  0.00000000E+00  0.00000000E+00
