Mn4 O4 F8                               
   1.00000000000000     
     4.8578362543769282    0.0498230695380136   -0.0007994414351966
    -2.5474087777172683    4.1151827737642588    0.0002205136169500
    -0.0023326558979477   -0.0008242323583832    9.1720798798482708
   Mn   O    F 
     4     4     8
Direct
  0.3440270899201919  0.6762828936662725  0.6102516095540986
  0.6527469091282151  0.2992460478437191  0.3896015293790889
  0.6523852297681100  0.2989623827516320  0.1103325003106459
  0.3429498861996347  0.6757353679591660  0.8898741103652148
  0.3574027777642414  0.9976279800588974  0.9993916896766493
  0.3584686922214959  0.9981135015104670  0.5006490734339104
  0.3144208397904931  0.3967662364177683  0.7499698036295206
  0.6852620579916647  0.0578374012226449  0.2499796011208413
  0.0015785839856508  0.3514235207435968  0.9986351895453952
  0.6411254842669667  0.6446368560539747  0.9994526621241944
  0.0025562473778189  0.3524098331168496  0.5012116851205499
  0.6421376886081890  0.6452410729932727  0.5005851889922984
  0.9320068889243680  0.6310140061762910  0.2499307211097862
  0.3596973358866745  0.2961256948693523  0.2499650108951366
  0.6437540728999024  0.9675541042684050  0.7503491287206434
  0.0694802152663829  0.7110231003477054  0.7498204960220329
 
  0.00000000E+00  0.00000000E+00  0.00000000E+00
  0.00000000E+00  0.00000000E+00  0.00000000E+00
  0.00000000E+00  0.00000000E+00  0.00000000E+00
  0.00000000E+00  0.00000000E+00  0.00000000E+00
  0.00000000E+00  0.00000000E+00  0.00000000E+00
  0.00000000E+00  0.00000000E+00  0.00000000E+00
  0.00000000E+00  0.00000000E+00  0.00000000E+00
  0.00000000E+00  0.00000000E+00  0.00000000E+00
  0.00000000E+00  0.00000000E+00  0.00000000E+00
  0.00000000E+00  0.00000000E+00  0.00000000E+00
  0.00000000E+00  0.00000000E+00  0.00000000E+00
  0.00000000E+00  0.00000000E+00  0.00000000E+00
  0.00000000E+00  0.00000000E+00  0.00000000E+00
  0.00000000E+00  0.00000000E+00  0.00000000E+00
  0.00000000E+00  0.00000000E+00  0.00000000E+00
  0.00000000E+00  0.00000000E+00  0.00000000E+00
