Na4 V4 O8 F4                            
   1.00000000000000     
     5.2554870298931258    0.1119581620982419    0.0263389151347996
     0.1200380796287237    5.3285555608463957   -0.0002047975919233
     0.0089544671066250   -0.0151099265992619    7.6689056632900154
   Na   V    O    F 
     4     4     8     4
Direct
  0.9921397636824545  0.0198466689934361  0.2505984367544521
  0.0126126106877767  0.9748193924117303  0.7532626015785240
  0.4923361715323766  0.4732606539698871  0.7527235492817682
  0.5141842980853157  0.5440649384776696  0.2525408789313104
  0.5243952625066703  0.0255131164256373  0.9870643143625080
  0.9943508039500374  0.4889113061156830  0.0172363775287684
  0.4945269477782825  0.9890916204621483  0.5171897302924817
  0.0280178071081457  0.5174765025047617  0.4869380688575720
  0.0701397657035207  0.4927984282487123  0.2530058334661572
  0.5693836566624405  0.0164361705112444  0.7528937354102528
  0.7097145311182048  0.2737553225182212  0.0514262108631069
  0.2119662181020753  0.2281574518656227  0.9615792382171435
  0.7890777054659842  0.7708911782011547  0.0220590440530792
  0.2713694844697751  0.7125009901938710  0.5487877700018331
  0.7680063842458107  0.7877296602312375  0.4614350557021185
  0.2222732500608566  0.2101467785554906  0.5210699869856783
  0.9164807578776551  0.4980790413322906  0.7441168469581210
  0.4178260603642816  0.9671266233065660  0.2423563655460191
  0.2894769368560734  0.7180505189023589  0.9605034571033337
  0.7117215837422767  0.2913436367722620  0.4632124981057794
 
  0.00000000E+00  0.00000000E+00  0.00000000E+00
  0.00000000E+00  0.00000000E+00  0.00000000E+00
  0.00000000E+00  0.00000000E+00  0.00000000E+00
  0.00000000E+00  0.00000000E+00  0.00000000E+00
  0.00000000E+00  0.00000000E+00  0.00000000E+00
  0.00000000E+00  0.00000000E+00  0.00000000E+00
  0.00000000E+00  0.00000000E+00  0.00000000E+00
  0.00000000E+00  0.00000000E+00  0.00000000E+00
  0.00000000E+00  0.00000000E+00  0.00000000E+00
  0.00000000E+00  0.00000000E+00  0.00000000E+00
  0.00000000E+00  0.00000000E+00  0.00000000E+00
  0.00000000E+00  0.00000000E+00  0.00000000E+00
  0.00000000E+00  0.00000000E+00  0.00000000E+00
  0.00000000E+00  0.00000000E+00  0.00000000E+00
  0.00000000E+00  0.00000000E+00  0.00000000E+00
  0.00000000E+00  0.00000000E+00  0.00000000E+00
  0.00000000E+00  0.00000000E+00  0.00000000E+00
  0.00000000E+00  0.00000000E+00  0.00000000E+00
  0.00000000E+00  0.00000000E+00  0.00000000E+00
  0.00000000E+00  0.00000000E+00  0.00000000E+00
