Heptasodium cobalt cobalt(III) oxide    
   1.00000000000000     
    14.3436663225416901   -0.0007399584980994   -0.0427624403441231
    -0.0003221314945659    5.7289868876553429    0.0000570742639777
    -2.7169954668627345    0.0002575636040773   10.2045071526715603
   Co   Na   O 
     8    28    24
Direct
  0.6250092966556965  0.3840325957644052  0.0358473569426739
  0.3774218430716609  0.6155814207934623  0.9591343037998316
  0.3774126658486067  0.3844675855431692  0.4591341221280187
  0.6250089890618247  0.6159123830592597  0.5358103418156224
  0.1249870195464995  0.8840410075805630  0.0358503340035357
  0.8774209296249416  0.1155511335054948  0.9591317609117507
  0.8774117817078140  0.8844449163069024  0.4591271000571872
  0.1249730866065763  0.1160001605465478  0.5358645077349289
  0.5030001557884292  0.4317864846521430  0.2493424508078500
  0.5030414843528312  0.5682318614473146  0.7493469953850290
  0.0030065581362179  0.9318008086559187  0.2493488438450812
  0.0030113655599608  0.0682180471334077  0.7493501722698327
  0.7176652993050008  0.5381103956752820  0.3011649181067565
  0.2673935841825050  0.4700610367965138  0.6917689077650537
  0.2674305933417484  0.5298152856719917  0.1917852588014454
  0.7177809353886041  0.4619607012393333  0.8010406380944324
  0.2176355712094399  0.0380769712776374  0.3012268595642449
  0.7674314909767516  0.9701399242501116  0.6917840050863778
  0.7674218629425080  0.0298034610638421  0.1917924066748367
  0.2177454282197924  0.9619097809312498  0.8010752179307065
  0.4412542680933333  0.8613894657615596  0.3455134872761611
  0.5631199060932373  0.1303632072191578  0.6544898521604320
  0.5629182191140875  0.8693858521433364  0.1542111186577540
  0.4412496203714062  0.1390607509668978  0.8453226415566174
  0.9412363695149508  0.3613022980705675  0.3454787171536572
  0.0629542430905897  0.6304781547319837  0.6543163139492161
  0.0629547145259177  0.3694978576464842  0.1543008781356967
  0.9412902131836296  0.6386887944516891  0.8454405936716287
  0.6643291129900608  0.8989084236325979  0.9060272120773275
  0.3318679601684632  0.0958487954561377  0.0956194841208344
  0.3318936079852972  0.9041281304507035  0.5955838685011853
  0.6643569463171082  0.1009959518596066  0.4060465483727826
  0.1643768724521329  0.3989904411625443  0.9060763502626619
  0.8318780423520554  0.5958771095807521  0.0956560261416959
  0.8319125501389265  0.4040886947216934  0.5956267207297434
  0.1643061680091165  0.6010729969671070  0.4059968172867692
  0.5946119435440649  0.2637889576045377  0.8707452798768299
  0.4021357608002013  0.7286354876627451  0.1208392318332072
  0.4022144620243501  0.2713264873493800  0.6208777267874609
  0.5945241784227457  0.7361984057951303  0.3707215917716330
  0.0945797527614613  0.7638138520234834  0.8707351235013338
  0.9021517482965900  0.2286383794939849  0.1208298322613726
  0.9021870722998241  0.7713250329059220  0.6208674706700459
  0.0945115224641580  0.2362552348125444  0.3707529648985476
  0.6231110021640984  0.2324747332551201  0.1942439600911252
  0.3813647356811546  0.7741721221383822  0.8163373612834446
  0.3813137726206020  0.2258315288351885  0.3163496914246265
  0.6231339285539932  0.7674916585106734  0.6942215998617375
  0.1231090796746101  0.7325515210230396  0.1942462971069362
  0.8813430624719358  0.2741230423504978  0.8163140323668284
  0.8813298630025082  0.7258209155434909  0.3163499715376179
  0.1231096854518097  0.2674856453810562  0.6942613060982783
  0.6778789484163193  0.6804923190931783  0.0877599761306112
  0.3298866626381265  0.3328037264129847  0.9213643481297402
  0.3298945480205841  0.6671557775667928  0.4214327858186963
  0.6779426004892054  0.3195829555942776  0.5877749180539003
  0.1778741613193947  0.1805276097356091  0.0877964283078930
  0.8298971216829593  0.8327661535438108  0.9213682661303506
  0.8298942079622332  0.1671390517084805  0.4214224823693634
  0.1778914233093479  0.8195765449423371  0.5877542059090455
 
  0.00000000E+00  0.00000000E+00  0.00000000E+00
  0.00000000E+00  0.00000000E+00  0.00000000E+00
  0.00000000E+00  0.00000000E+00  0.00000000E+00
  0.00000000E+00  0.00000000E+00  0.00000000E+00
  0.00000000E+00  0.00000000E+00  0.00000000E+00
  0.00000000E+00  0.00000000E+00  0.00000000E+00
  0.00000000E+00  0.00000000E+00  0.00000000E+00
  0.00000000E+00  0.00000000E+00  0.00000000E+00
  0.00000000E+00  0.00000000E+00  0.00000000E+00
  0.00000000E+00  0.00000000E+00  0.00000000E+00
  0.00000000E+00  0.00000000E+00  0.00000000E+00
  0.00000000E+00  0.00000000E+00  0.00000000E+00
  0.00000000E+00  0.00000000E+00  0.00000000E+00
  0.00000000E+00  0.00000000E+00  0.00000000E+00
  0.00000000E+00  0.00000000E+00  0.00000000E+00
  0.00000000E+00  0.00000000E+00  0.00000000E+00
  0.00000000E+00  0.00000000E+00  0.00000000E+00
  0.00000000E+00  0.00000000E+00  0.00000000E+00
  0.00000000E+00  0.00000000E+00  0.00000000E+00
  0.00000000E+00  0.00000000E+00  0.00000000E+00
  0.00000000E+00  0.00000000E+00  0.00000000E+00
  0.00000000E+00  0.00000000E+00  0.00000000E+00
  0.00000000E+00  0.00000000E+00  0.00000000E+00
  0.00000000E+00  0.00000000E+00  0.00000000E+00
  0.00000000E+00  0.00000000E+00  0.00000000E+00
  0.00000000E+00  0.00000000E+00  0.00000000E+00
  0.00000000E+00  0.00000000E+00  0.00000000E+00
  0.00000000E+00  0.00000000E+00  0.00000000E+00
  0.00000000E+00  0.00000000E+00  0.00000000E+00
  0.00000000E+00  0.00000000E+00  0.00000000E+00
  0.00000000E+00  0.00000000E+00  0.00000000E+00
  0.00000000E+00  0.00000000E+00  0.00000000E+00
  0.00000000E+00  0.00000000E+00  0.00000000E+00
  0.00000000E+00  0.00000000E+00  0.00000000E+00
  0.00000000E+00  0.00000000E+00  0.00000000E+00
  0.00000000E+00  0.00000000E+00  0.00000000E+00
  0.00000000E+00  0.00000000E+00  0.00000000E+00
  0.00000000E+00  0.00000000E+00  0.00000000E+00
  0.00000000E+00  0.00000000E+00  0.00000000E+00
  0.00000000E+00  0.00000000E+00  0.00000000E+00
  0.00000000E+00  0.00000000E+00  0.00000000E+00
  0.00000000E+00  0.00000000E+00  0.00000000E+00
  0.00000000E+00  0.00000000E+00  0.00000000E+00
  0.00000000E+00  0.00000000E+00  0.00000000E+00
  0.00000000E+00  0.00000000E+00  0.00000000E+00
  0.00000000E+00  0.00000000E+00  0.00000000E+00
  0.00000000E+00  0.00000000E+00  0.00000000E+00
  0.00000000E+00  0.00000000E+00  0.00000000E+00
  0.00000000E+00  0.00000000E+00  0.00000000E+00
  0.00000000E+00  0.00000000E+00  0.00000000E+00
  0.00000000E+00  0.00000000E+00  0.00000000E+00
  0.00000000E+00  0.00000000E+00  0.00000000E+00
  0.00000000E+00  0.00000000E+00  0.00000000E+00
  0.00000000E+00  0.00000000E+00  0.00000000E+00
  0.00000000E+00  0.00000000E+00  0.00000000E+00
  0.00000000E+00  0.00000000E+00  0.00000000E+00
  0.00000000E+00  0.00000000E+00  0.00000000E+00
  0.00000000E+00  0.00000000E+00  0.00000000E+00
  0.00000000E+00  0.00000000E+00  0.00000000E+00
  0.00000000E+00  0.00000000E+00  0.00000000E+00
