Ni8 O8 F16                              
   1.00000000000000     
     7.4664604229758300   -0.0022494486065032   -0.0004453910422221
    -0.0041534741115242    7.5100736376391328    0.0101259724564230
    -0.0003496902535856    0.0121243870677624    7.5134231317377216
   Ni   O    F 
     8     8    16
Direct
  0.9999878764348296  0.0001213384830905  0.0000204379085105
  0.0017691278288865  0.0000142946790902  0.5000174910486237
  0.0027865226397452  0.5000825968031393  0.0001377029246825
  0.9996655568382593  0.5000005828880205  0.5001051934916276
  0.4999539577444665  0.9999628017729165  0.9993567781661525
  0.4972206206732110  0.9996862229363330  0.4997444491229572
  0.4982577718698309  0.4999926944180970  0.0000103045660467
  0.5002060912648574  0.4996648307179541  0.5000120356853444
  0.2545440240896397  0.9999050021176856  0.5001504722887802
  0.4997448747194611  0.5006281911995742  0.2513892482031466
  0.4995228875473217  0.4996215266699835  0.7486684794826530
  0.2501138041587865  0.0000943963075741  0.9997968211433488
  0.2457351473015947  0.4998136936561934  0.0000084375340137
  0.7499526809280894  0.9998864825046496  0.9998463270243150
  0.0004995262821694  0.2517319587196596  0.5005997773107822
  0.0001961243733746  0.7483368267869324  0.4996279218691555
  0.9972649173778052  0.0017991631371856  0.2485405571918591
  0.5010925684703693  0.9991207727360774  0.7430541292756274
  0.2500734522370607  0.5008043941095011  0.5000123838731980
  0.7563020372047049  0.4999362020150855  0.0002145610548325
  0.7496601495864184  0.4993166439518575  0.5003502355970681
  0.9991772412947100  0.7436407059310213  0.9991640467458751
  0.5032967906494790  0.2484657365401972  0.0017604159197191
  0.9971568805502500  0.9984062331918508  0.7515245138817690
  0.0083850510199071  0.5009312186719370  0.2424282447484529
  0.0082950254527177  0.4993395118005353  0.7578008935785618
  0.5010143914157155  0.0009892424617490  0.2563683729659587
  0.7433555902495286  0.0000591177783633  0.4999259915658527
  0.9988944868405625  0.2564793250444524  0.0011238558368518
  0.4918547029730505  0.2418351335428000  0.5007415868099017
  0.5024845564344815  0.7515406624892194  0.9981969465849687
  0.4915355635487231  0.7577924959372666  0.4993013865993632
 
  0.00000000E+00  0.00000000E+00  0.00000000E+00
  0.00000000E+00  0.00000000E+00  0.00000000E+00
  0.00000000E+00  0.00000000E+00  0.00000000E+00
  0.00000000E+00  0.00000000E+00  0.00000000E+00
  0.00000000E+00  0.00000000E+00  0.00000000E+00
  0.00000000E+00  0.00000000E+00  0.00000000E+00
  0.00000000E+00  0.00000000E+00  0.00000000E+00
  0.00000000E+00  0.00000000E+00  0.00000000E+00
  0.00000000E+00  0.00000000E+00  0.00000000E+00
  0.00000000E+00  0.00000000E+00  0.00000000E+00
  0.00000000E+00  0.00000000E+00  0.00000000E+00
  0.00000000E+00  0.00000000E+00  0.00000000E+00
  0.00000000E+00  0.00000000E+00  0.00000000E+00
  0.00000000E+00  0.00000000E+00  0.00000000E+00
  0.00000000E+00  0.00000000E+00  0.00000000E+00
  0.00000000E+00  0.00000000E+00  0.00000000E+00
  0.00000000E+00  0.00000000E+00  0.00000000E+00
  0.00000000E+00  0.00000000E+00  0.00000000E+00
  0.00000000E+00  0.00000000E+00  0.00000000E+00
  0.00000000E+00  0.00000000E+00  0.00000000E+00
  0.00000000E+00  0.00000000E+00  0.00000000E+00
  0.00000000E+00  0.00000000E+00  0.00000000E+00
  0.00000000E+00  0.00000000E+00  0.00000000E+00
  0.00000000E+00  0.00000000E+00  0.00000000E+00
  0.00000000E+00  0.00000000E+00  0.00000000E+00
  0.00000000E+00  0.00000000E+00  0.00000000E+00
  0.00000000E+00  0.00000000E+00  0.00000000E+00
  0.00000000E+00  0.00000000E+00  0.00000000E+00
  0.00000000E+00  0.00000000E+00  0.00000000E+00
  0.00000000E+00  0.00000000E+00  0.00000000E+00
  0.00000000E+00  0.00000000E+00  0.00000000E+00
  0.00000000E+00  0.00000000E+00  0.00000000E+00
