Na8 Ni8 O16 F8                          
   1.00000000000000     
     7.8534648795416917   -0.0000116866843373    0.0161867380966265
    -0.0000112823450626    7.2828658750641129    0.0000194988756135
     0.0205353294693350    0.0000199761099772    7.5091611197959098
   Na   Ni   O    F 
     8     8    16     8
Direct
  0.2578035164624279  0.2408071287083087  0.2538927610847480
  0.2421558675824414  0.2408014114069772  0.7461191380450389
  0.2578036121987384  0.7591917928088975  0.2538925805116612
  0.2421556400018008  0.7591985693610351  0.7461191841674224
  0.7421555475746531  0.2408012339640376  0.2461190971051284
  0.7578036396113920  0.2408074053807208  0.7538929705326577
  0.7421556863458495  0.7591988210919370  0.2461190938575060
  0.7578036005661095  0.7591916042708385  0.7538928868992752
  0.0040523856851747  0.9999987505368596  0.0006042890904923
  0.9960363618263270  0.9999993491856066  0.4993729532024547
  0.0055181192585769  0.4999947337437315  0.0035864980933268
  0.9943982876982145  0.5000000647310802  0.4964263169804725
  0.4960367705159733  0.0000023312730505  0.9993729109884557
  0.5040523672180532 -0.0000002674270757  0.5006040588165135
  0.4943984740120891  0.5000096388739561  0.9964266379318437
  0.5055182532264970  0.4999981606129609  0.5035866104797770
  0.2498700775485455  0.4999996596049616  0.0000718039654573
  0.7498712350161060  0.4999959610652843  0.5000719063755854
  0.0088658186087593  0.2516437764275148  0.0032910472712631
  0.9918700268936437  0.2514891798812030  0.4968717361090297
  0.0088669244473417  0.7483514897000004  0.0032886264213183
  0.9918521575088253  0.7485102154206204  0.4968743136608822
  0.4918685411592311  0.2514921609456919  0.9968746608660303
  0.5088597747839877  0.2516460845374805  0.5032914400192893
  0.4918679016224196  0.7485163335923445  0.9968751424236093
  0.5088690693833439  0.7483526053848734  0.5032909879565343
  0.9995490737014968  0.9999984525998671  0.2499456695861965
  0.0000313453668123  0.0000007192391456  0.7499990814758264
  0.9995416239201180  0.5000002468729156  0.2498771272759130
  0.5000306740464365  0.0000002790762667  0.2499995038649691
  0.4995483835760913  0.9999995234161049  0.7499453803105969
  0.4995418342048236  0.5000008267371019  0.7498737321039531
  0.2499420703073794  0.0000003318003416  0.0000747337801015
  0.2499072617988612  0.9999945236757812  0.4997661720702681
  0.2499297398953967  0.5000051122673628  0.4998430946559437
  0.7499072402679020  0.9999992740686563  0.9997642307305937
  0.7499413243528229  0.0000048953527895  0.5000734642702055
  0.7499320594375162  0.5000002189574583  0.9998405649709261
  0.9998427801007401  0.4999968943569030  0.7500822018481121
  0.4998449322670743  0.5000005064964022  0.2500853902005994
 
  0.00000000E+00  0.00000000E+00  0.00000000E+00
  0.00000000E+00  0.00000000E+00  0.00000000E+00
  0.00000000E+00  0.00000000E+00  0.00000000E+00
  0.00000000E+00  0.00000000E+00  0.00000000E+00
  0.00000000E+00  0.00000000E+00  0.00000000E+00
  0.00000000E+00  0.00000000E+00  0.00000000E+00
  0.00000000E+00  0.00000000E+00  0.00000000E+00
  0.00000000E+00  0.00000000E+00  0.00000000E+00
  0.00000000E+00  0.00000000E+00  0.00000000E+00
  0.00000000E+00  0.00000000E+00  0.00000000E+00
  0.00000000E+00  0.00000000E+00  0.00000000E+00
  0.00000000E+00  0.00000000E+00  0.00000000E+00
  0.00000000E+00  0.00000000E+00  0.00000000E+00
  0.00000000E+00  0.00000000E+00  0.00000000E+00
  0.00000000E+00  0.00000000E+00  0.00000000E+00
  0.00000000E+00  0.00000000E+00  0.00000000E+00
  0.00000000E+00  0.00000000E+00  0.00000000E+00
  0.00000000E+00  0.00000000E+00  0.00000000E+00
  0.00000000E+00  0.00000000E+00  0.00000000E+00
  0.00000000E+00  0.00000000E+00  0.00000000E+00
  0.00000000E+00  0.00000000E+00  0.00000000E+00
  0.00000000E+00  0.00000000E+00  0.00000000E+00
  0.00000000E+00  0.00000000E+00  0.00000000E+00
  0.00000000E+00  0.00000000E+00  0.00000000E+00
  0.00000000E+00  0.00000000E+00  0.00000000E+00
  0.00000000E+00  0.00000000E+00  0.00000000E+00
  0.00000000E+00  0.00000000E+00  0.00000000E+00
  0.00000000E+00  0.00000000E+00  0.00000000E+00
  0.00000000E+00  0.00000000E+00  0.00000000E+00
  0.00000000E+00  0.00000000E+00  0.00000000E+00
  0.00000000E+00  0.00000000E+00  0.00000000E+00
  0.00000000E+00  0.00000000E+00  0.00000000E+00
  0.00000000E+00  0.00000000E+00  0.00000000E+00
  0.00000000E+00  0.00000000E+00  0.00000000E+00
  0.00000000E+00  0.00000000E+00  0.00000000E+00
  0.00000000E+00  0.00000000E+00  0.00000000E+00
  0.00000000E+00  0.00000000E+00  0.00000000E+00
  0.00000000E+00  0.00000000E+00  0.00000000E+00
  0.00000000E+00  0.00000000E+00  0.00000000E+00
  0.00000000E+00  0.00000000E+00  0.00000000E+00
