Mn4 O4 F8                               
   1.00000000000000     
     4.8371769805943305   -0.0002845811509744    0.0147441519108919
     0.0001712096542995    5.0866404686039299    0.0014332079001246
     0.0211206146974527   -0.0046173281986975    6.9768057434499458
   Mn   O    F 
     4     4     8
Direct
  0.5128972044885712  0.0132434908308400  0.0122477123677500
  0.9866590009687933  0.4882425718951156  0.9872096056226853
  0.4867590899866241  0.0116852083062458  0.4871318167591868
  0.0130272562689098  0.4866852407987616  0.5122278709756206
  0.8727799470127314  0.5299996660784272  0.7478440082330224
  0.3725325649931255  0.9698897555962949  0.2478202740561759
  0.6855116953628677  0.3125990923526230  0.0659249191283521
  0.1856810104601715  0.1874904126512354  0.5659690928426422
  0.1216793492693960  0.4736626649995901  0.2497186303118375
  0.6216895399325122  0.0263428614318057  0.7497144297956706
  0.3111670697561332  0.6975171811497206  0.9405886155910756
  0.1868706424885429  0.1902242634946836  0.9361597578626381
  0.8222645411943916  0.8127437309374410  0.0604121083674339
  0.3223260665223738  0.6874494210349245  0.5604103459785433
  0.6868992953661557  0.3096710524683228  0.4360677354080731
  0.8112557259287141  0.8025533859739754  0.4405530766992852
 
  0.00000000E+00  0.00000000E+00  0.00000000E+00
  0.00000000E+00  0.00000000E+00  0.00000000E+00
  0.00000000E+00  0.00000000E+00  0.00000000E+00
  0.00000000E+00  0.00000000E+00  0.00000000E+00
  0.00000000E+00  0.00000000E+00  0.00000000E+00
  0.00000000E+00  0.00000000E+00  0.00000000E+00
  0.00000000E+00  0.00000000E+00  0.00000000E+00
  0.00000000E+00  0.00000000E+00  0.00000000E+00
  0.00000000E+00  0.00000000E+00  0.00000000E+00
  0.00000000E+00  0.00000000E+00  0.00000000E+00
  0.00000000E+00  0.00000000E+00  0.00000000E+00
  0.00000000E+00  0.00000000E+00  0.00000000E+00
  0.00000000E+00  0.00000000E+00  0.00000000E+00
  0.00000000E+00  0.00000000E+00  0.00000000E+00
  0.00000000E+00  0.00000000E+00  0.00000000E+00
  0.00000000E+00  0.00000000E+00  0.00000000E+00
