Co4 O4 F8                               
    1.000000000000000     
     5.0550564334182448    0.0046341057090305   -0.0028417903282706
     0.0013840034226067    5.1438467762688331    0.0040928893274650
     0.0122936368700230   -0.0154087976852805    7.2970464410193703
   Co   O    F 
     4     4     8
Direct
  0.5018895322122930 -0.0003336566287554  0.9985084887833674
  0.0016651851742724  0.5005773729097920  0.0014526550931034
  0.4982153157121513 -0.0000612701157590  0.4986818217161266
 -0.0016807845583849  0.4997702158391638  0.5012628823438238
  0.1160271034299650  0.4605720774409791  0.2508963422484866
  0.8853524818238356  0.5430733589936947  0.7511222516221722
  0.6162960998609840  0.0374130593148692  0.7489243434176659
  0.3842826847462141  0.9598553702079067  0.2490279225972560
  0.6835257780403227  0.3080277866345202  0.0608550944188977
  0.3182367448096656  0.6917539496542542  0.9377919976699534
  0.1839830750848785  0.1923655126198998  0.9385531766906720
  0.8182421057500938  0.8086582549964261  0.0631017356395887
  0.3158941707129504  0.6922309821886975  0.5615394658380174
  0.6815585330504891  0.3077405511742934  0.4387869443788580
  0.8155971832257152  0.8067910139101603  0.4377806746051836
  0.1809147909245603  0.1915654208598506  0.5617142029368410
 
  0.00000000E+00  0.00000000E+00  0.00000000E+00
  0.00000000E+00  0.00000000E+00  0.00000000E+00
  0.00000000E+00  0.00000000E+00  0.00000000E+00
  0.00000000E+00  0.00000000E+00  0.00000000E+00
  0.00000000E+00  0.00000000E+00  0.00000000E+00
  0.00000000E+00  0.00000000E+00  0.00000000E+00
  0.00000000E+00  0.00000000E+00  0.00000000E+00
  0.00000000E+00  0.00000000E+00  0.00000000E+00
  0.00000000E+00  0.00000000E+00  0.00000000E+00
  0.00000000E+00  0.00000000E+00  0.00000000E+00
  0.00000000E+00  0.00000000E+00  0.00000000E+00
  0.00000000E+00  0.00000000E+00  0.00000000E+00
  0.00000000E+00  0.00000000E+00  0.00000000E+00
  0.00000000E+00  0.00000000E+00  0.00000000E+00
  0.00000000E+00  0.00000000E+00  0.00000000E+00
  0.00000000E+00  0.00000000E+00  0.00000000E+00
