Na4 Ni4 O8 F4                           
   1.00000000000000     
     5.4463382024439024    0.0684930147118870   -0.0495130227436466
     0.0318706238364125    5.4829405732413372    0.0175021632417075
    -0.1310779903266030    0.0169648214684104    7.0704304641962086
   Na   Ni   O    F 
     4     4     8     4
Direct
  0.9835898040957040  0.0385064469382514  0.2428073562180272
  0.0229213535131049  0.9495964468741299  0.7407236317685509
  0.4874650980610118  0.4650415373192190  0.7522727173892286
  0.5038393342966251  0.5480302443115197  0.2419389210732804
  0.4903124255982945  0.9966327994832037  0.9962569086928108
  0.0114647968844728  0.5020364692704504  0.9953471296741485
  0.5123880212836111  0.0040484570582481  0.4910821976616167
  0.9973183823152438  0.4959878868177020  0.4957788589073740
  0.0984115320198358  0.4828442592311016  0.2548792523023680
  0.8964351669877159  0.5224218762002563  0.7397919602709915
  0.6050897666778395  0.0084917702731001  0.7542362632446008
  0.3876193504460499  0.9870650604452326  0.2374830245876041
  0.2789200967061837  0.7217277034100505  0.9497417426890002
  0.2231491298998878  0.2117297601445851  0.9669746381198405
  0.7103439147582619  0.2875387323254127  0.4585761113394009
  0.7950023088933077  0.7823280403554956  0.4609116295832987
  0.7187431074697714  0.2822675662902022  0.0532816843472484
  0.7686996028215362  0.7816035441119427  0.0619913373368087
  0.2914608758809193  0.7138993192643108  0.5442159929164379
  0.2168259313906228  0.2182020798756001  0.5617086418773639
 
  0.00000000E+00  0.00000000E+00  0.00000000E+00
  0.00000000E+00  0.00000000E+00  0.00000000E+00
  0.00000000E+00  0.00000000E+00  0.00000000E+00
  0.00000000E+00  0.00000000E+00  0.00000000E+00
  0.00000000E+00  0.00000000E+00  0.00000000E+00
  0.00000000E+00  0.00000000E+00  0.00000000E+00
  0.00000000E+00  0.00000000E+00  0.00000000E+00
  0.00000000E+00  0.00000000E+00  0.00000000E+00
  0.00000000E+00  0.00000000E+00  0.00000000E+00
  0.00000000E+00  0.00000000E+00  0.00000000E+00
  0.00000000E+00  0.00000000E+00  0.00000000E+00
  0.00000000E+00  0.00000000E+00  0.00000000E+00
  0.00000000E+00  0.00000000E+00  0.00000000E+00
  0.00000000E+00  0.00000000E+00  0.00000000E+00
  0.00000000E+00  0.00000000E+00  0.00000000E+00
  0.00000000E+00  0.00000000E+00  0.00000000E+00
  0.00000000E+00  0.00000000E+00  0.00000000E+00
  0.00000000E+00  0.00000000E+00  0.00000000E+00
  0.00000000E+00  0.00000000E+00  0.00000000E+00
  0.00000000E+00  0.00000000E+00  0.00000000E+00
