Na4 V4 O8 F4                            
   1.00000000000000     
     5.4009674492731303   -0.0000564114072090   -0.0085041003801613
    -0.0000396868164102    5.4210726851139643   -0.0004670874327220
    -0.0287546336078211   -0.0005639754272277    7.3226746846109245
   Na   V    O    F 
     4     4     8     4
Direct
  0.0003053061533783  0.0383629356369084  0.2479431422455467
  0.9912720927375419  0.9800623336519290  0.7495035085739055
  0.5002940271038475  0.4616877146037923  0.7479627206494297
  0.4912147181591761  0.5199856044067922  0.2498073847410663
  0.4644007027604220  0.9779204793370224  0.9947821067678724
  0.0257599887353354  0.4835852967629405  0.9960205439081649
  0.5257530222817117  0.0163987906745622  0.4960200274869708
  0.9644050066383324  0.5220746914850249  0.4947838623251338
  0.3110409338373981  0.6977987696415813  0.9735108512192416
  0.2106384791694282  0.1993110666050574  0.9720562269069879
  0.7106571057794175  0.3006613339531099  0.4720700247184108
  0.8110195904687818  0.8021743046467258  0.4734894511075899
  0.0465538741214595  0.4883979438322810  0.2455099018088127
  0.9446229376875501  0.5150109378482547  0.7576556582848528
  0.5465607626491137  0.0115883612483713  0.7454982791850177
  0.4446147648972706  0.9849831136151768  0.2576666331808574
  0.7039506114802063  0.2841596110386183  0.0319751029035375
  0.8014956690300042  0.8044210403971820  0.0308715502499212
  0.3014868647255683  0.6955779423144887  0.5308846866965548
  0.2039535415840705  0.2158377283001667  0.5319883370401187
 
  0.00000000E+00  0.00000000E+00  0.00000000E+00
  0.00000000E+00  0.00000000E+00  0.00000000E+00
  0.00000000E+00  0.00000000E+00  0.00000000E+00
  0.00000000E+00  0.00000000E+00  0.00000000E+00
  0.00000000E+00  0.00000000E+00  0.00000000E+00
  0.00000000E+00  0.00000000E+00  0.00000000E+00
  0.00000000E+00  0.00000000E+00  0.00000000E+00
  0.00000000E+00  0.00000000E+00  0.00000000E+00
  0.00000000E+00  0.00000000E+00  0.00000000E+00
  0.00000000E+00  0.00000000E+00  0.00000000E+00
  0.00000000E+00  0.00000000E+00  0.00000000E+00
  0.00000000E+00  0.00000000E+00  0.00000000E+00
  0.00000000E+00  0.00000000E+00  0.00000000E+00
  0.00000000E+00  0.00000000E+00  0.00000000E+00
  0.00000000E+00  0.00000000E+00  0.00000000E+00
  0.00000000E+00  0.00000000E+00  0.00000000E+00
  0.00000000E+00  0.00000000E+00  0.00000000E+00
  0.00000000E+00  0.00000000E+00  0.00000000E+00
  0.00000000E+00  0.00000000E+00  0.00000000E+00
  0.00000000E+00  0.00000000E+00  0.00000000E+00
