Cr4 O4 F8                               
   1.00000000000000     
     4.8748182654087335    0.0145847202540168    0.0140920623083676
    -2.4246604804485639    4.2228936808430779    0.0172097008261643
     0.0027021649945596    0.0048295330438127    9.2864862795908252
   Cr   O    F 
     4     4     8
Direct
  0.3015768787778741  0.6770088641053481  0.6106808120167789
  0.6854544491829521  0.3533014155004358  0.3892300297820619
  0.6767855608675779  0.3011240141635287  0.1107483713476143
  0.3520273492681022  0.6844711950426260  0.8890998985615879
  0.6244810966424353  0.0015877952839364  0.0034766604826911
  0.0020784734922537  0.6249107891340510  0.5033828249047184
  0.9365874140950282  0.3315433366883251  0.2420367150708201
  0.3313062476747138  0.9366704217413598  0.7420244952351537
  0.9931605079371744  0.6329049863448216  0.9968621316348528
  0.3708556085102632  0.3711056514814331  0.0076198397143106
  0.6331532494054051  0.9933576161472307  0.4967177642561598
  0.3714981308399240  0.3710902712301890  0.5073711160480594
  0.6698337271533343  0.6273327277920377  0.2472113082061254
  0.0586933572270871  0.3653153040898553  0.7530655316284003
  0.3659578195220226  0.0587700855146750  0.2532820589772418
  0.6265501294038600  0.6695055257401389  0.7471904421334240
 
  0.00000000E+00  0.00000000E+00  0.00000000E+00
  0.00000000E+00  0.00000000E+00  0.00000000E+00
  0.00000000E+00  0.00000000E+00  0.00000000E+00
  0.00000000E+00  0.00000000E+00  0.00000000E+00
  0.00000000E+00  0.00000000E+00  0.00000000E+00
  0.00000000E+00  0.00000000E+00  0.00000000E+00
  0.00000000E+00  0.00000000E+00  0.00000000E+00
  0.00000000E+00  0.00000000E+00  0.00000000E+00
  0.00000000E+00  0.00000000E+00  0.00000000E+00
  0.00000000E+00  0.00000000E+00  0.00000000E+00
  0.00000000E+00  0.00000000E+00  0.00000000E+00
  0.00000000E+00  0.00000000E+00  0.00000000E+00
  0.00000000E+00  0.00000000E+00  0.00000000E+00
  0.00000000E+00  0.00000000E+00  0.00000000E+00
  0.00000000E+00  0.00000000E+00  0.00000000E+00
  0.00000000E+00  0.00000000E+00  0.00000000E+00
