Na1 V16 O16 F32                         
   1.00000000000000     
    10.4642769999999992   -0.0089760000000000   -0.0114270000000000
    -0.0093710000000000   10.5904240000000005    0.0001920000000000
     0.0019120000000000    0.0002260000000000    7.6567860000000003
   Na   V    O    F 
     1    16    16    32
Direct
  0.5088180849506635  0.5005365854138701  0.9148039916304134
  0.2571260622060454 -0.0012034752982209  0.0072742005139883
  0.2571574297276790  0.5029112767999581  0.0122437649796476
  0.7630800329166136  0.0041563687787575  0.0065749043191319
  0.7779431495887379  0.5004773142656461  0.0088810899042228
  0.4798807106175236  0.2423813310512326  0.0125329133499721
  0.4846397455277848  0.7598135197062448  0.0088065217023337
  0.9893608044022093  0.2482907946706900  0.0070036111062351
  0.9855515886937702  0.7563058197485117  0.0079642636758304
  0.2348741495394020  0.4967838859267903  0.5087343277007317
  0.2354737702464012  0.9961678016035939  0.5079679588160446
  0.7367216041192624  0.4962218264480686  0.5035201921439434
  0.7353342198173842  0.9966624864062771  0.5065258637987705
  0.0139220428648756  0.2458908625179772  0.5072847654754195
  0.0132354591732279  0.7472360304445412  0.5082592894461793
  0.5141160687509955  0.2455920025794622  0.5076514012886509
  0.5145173403448546  0.7464339506451080  0.5055190273993259
  0.3669877851397644  0.1251220807942171  0.0321066518501505
  0.3692406728241594  0.6294888939282243  0.0299424865980784
  0.8699707266377019  0.1314656049766566  0.0287423826287024
  0.8779372191315920  0.6297728758524542  0.0341016159595308
  0.3741325799204852  0.3729033962963242  0.0337646175647555
  0.3732649282018137  0.8784612413631734  0.0305796321904754
  0.8886888935181668  0.3812924307637469  0.0318089847666475
  0.8772020157632705  0.8808964633151843  0.0274632299603609
  0.1293796593154058  0.3707767466169821  0.5303931709809340
  0.1292925299349013  0.8706479613322541  0.5324790695265389
  0.6310553569444480  0.3678089481859317  0.5269756674408408
  0.6310852067235428  0.8678778188913974  0.5270384631496597
  0.1195615418480887  0.1207458308276308  0.5306025714436559
  0.1188834830027461  0.6212623044169675  0.5307512767985110
  0.6183730490595545  0.1174268480817992  0.5281851701634944
  0.6185636042915263  0.6172541250206026  0.5268714529710637
  0.1316888396425563  0.3683775044457915  0.9638516161035514
  0.1277506353209383  0.8690989959027897  0.9568209782859095
  0.6412034344890363  0.3638162440072250  0.9704801015209115
  0.6234546240115145  0.8801281631787612  0.9693828289482604
  0.1175956372168749  0.1176236172925182  0.9609112975144469
  0.1186120385332142  0.6197687017847563  0.9650524304949752
  0.6175949662655170  0.1214254817520553  0.9699219733550323
  0.6378160640047854  0.6391442203971482  0.9665012950250358
  0.3673578498382497  0.1308948285522864  0.4682628793144070
  0.3673446546081095  0.6301527638586609  0.4690375923824088
  0.8677910187674209  0.1328330957074629  0.4673098597344453
  0.8677489493923485  0.6321683236787905  0.4619507077894052
  0.3812416433752553  0.3812701579433020  0.4690053044903563
  0.3806729911440362  0.8802812928586770  0.4667160315663659
  0.8823887611734289  0.3819672200703518  0.4635385408069372
  0.8821314556435526  0.8826870981522018  0.4694298721765112
  0.0384709950294552  0.2461358794437755  0.2506590593485051
  0.0374719424073019  0.7549362792781596  0.2507483941607416
  0.5332529865135307  0.2455928351776226  0.2508828718521835
  0.5333981662868706  0.7479131483528011  0.2495236377403092
  0.4663887655250384  0.2520025696323129  0.7546157395046704
  0.4660318077568825  0.7492758087642170  0.7518229009036085
  0.9639060699272188  0.2525920372581614  0.7492137548937892
  0.9606429737888308  0.7506683756451951  0.7495165486483359
  0.2857460515461273  0.0015395484484460  0.7498459661974185
  0.2890814955787845  0.5000946626210655  0.7526263426043841
  0.7831222684674933  0.0032317708495411  0.7509529406947545
  0.7868135890233617  0.5012534721576585  0.7507271674466296
  0.2097857004019206  0.4992891835161553  0.2532063040976484
  0.2086190757925205  0.9969252271620919  0.2512016602322293
  0.7136402537284652  0.4984502161633680  0.2444094426270135
  0.7163408729264924  0.9996241065429846  0.2501857523932469
 
             NaN             NaN             NaN
             NaN             NaN             NaN
             NaN             NaN             NaN
             NaN             NaN             NaN
             NaN             NaN             NaN
             NaN             NaN             NaN
             NaN             NaN             NaN
             NaN             NaN             NaN
             NaN             NaN             NaN
             NaN             NaN             NaN
             NaN             NaN             NaN
             NaN             NaN             NaN
             NaN             NaN             NaN
             NaN             NaN             NaN
             NaN             NaN             NaN
             NaN             NaN             NaN
             NaN             NaN             NaN
             NaN             NaN             NaN
             NaN             NaN             NaN
             NaN             NaN             NaN
             NaN             NaN             NaN
             NaN             NaN             NaN
             NaN             NaN             NaN
             NaN             NaN             NaN
             NaN             NaN             NaN
             NaN             NaN             NaN
             NaN             NaN             NaN
             NaN             NaN             NaN
             NaN             NaN             NaN
             NaN             NaN             NaN
             NaN             NaN             NaN
             NaN             NaN             NaN
             NaN             NaN             NaN
             NaN             NaN             NaN
             NaN             NaN             NaN
             NaN             NaN             NaN
             NaN             NaN             NaN
             NaN             NaN             NaN
             NaN             NaN             NaN
             NaN             NaN             NaN
             NaN             NaN             NaN
             NaN             NaN             NaN
             NaN             NaN             NaN
             NaN             NaN             NaN
             NaN             NaN             NaN
             NaN             NaN             NaN
             NaN             NaN             NaN
             NaN             NaN             NaN
             NaN             NaN             NaN
             NaN             NaN             NaN
             NaN             NaN             NaN
             NaN             NaN             NaN
             NaN             NaN             NaN
             NaN             NaN             NaN
             NaN             NaN             NaN
             NaN             NaN             NaN
             NaN             NaN             NaN
             NaN             NaN             NaN
             NaN             NaN             NaN
             NaN             NaN             NaN
             NaN             NaN             NaN
             NaN             NaN             NaN
             NaN             NaN             NaN
             NaN             NaN             NaN
             NaN             NaN             NaN
