Na1 V16 O16 F32
1.0
10.464277 -0.008976 -0.011427
-0.009371 10.590424 0.000192
0.001912 0.000226 7.656786
Na V O F
1 16 16 32
direct
0.501761 0.497058 -0.080060 Na
0.261764 0.001781 0.006213 V
0.261905 0.502106 0.008447 V
0.763953 0.001896 0.006877 V
0.767806 0.501525 0.007155 V
0.484191 0.249238 0.007468 V
0.484354 0.754682 0.007445 V
0.986210 0.250559 0.007103 V
0.985842 0.753269 0.007127 V
0.232287 0.498263 0.506478 V
0.236123 0.997750 0.506429 V
0.738397 0.497666 0.505408 V
0.738040 0.997749 0.506696 V
0.014322 0.246381 0.507248 V
0.013943 0.749152 0.506990 V
0.515744 0.245010 0.505517 V
0.515716 0.750115 0.506122 V
0.367341 0.131862 0.029084 O
0.367657 0.631691 0.029806 O
0.868435 0.131577 0.029088 O
0.868059 0.632155 0.029807 O
0.381648 0.382524 0.026838 O
0.381072 0.882231 0.027408 O
0.882115 0.381624 0.028289 O
0.881762 0.881901 0.027754 O
0.132335 0.367284 0.529796 O
0.132099 0.867889 0.528972 O
0.632877 0.367923 0.528913 O
0.632874 0.867709 0.529098 O
0.117990 0.117485 0.527839 O
0.117276 0.617821 0.527953 O
0.618537 0.117203 0.527103 O
0.618333 0.616927 0.526848 O
0.132423 0.367108 0.964792 F
0.132688 0.866511 0.963814 F
0.630779 0.369455 0.960241 F
0.632441 0.865786 0.964500 F
0.116717 0.116847 0.965534 F
0.116311 0.616484 0.967381 F
0.616712 0.117568 0.967027 F
0.614699 0.613507 0.965690 F
0.367137 0.134732 0.463531 F
0.368268 0.631509 0.464684 F
0.866961 0.133627 0.464110 F
0.867210 0.633148 0.463487 F
0.385914 0.387186 0.470948 F
0.383758 0.882839 0.466884 F
0.884205 0.383728 0.466151 F
0.883615 0.883316 0.465867 F
0.036523 0.248292 0.249782 F
0.036519 0.749227 0.249432 F
0.537142 0.251744 0.249171 F
0.537165 0.747125 0.249128 F
0.463717 0.254177 0.748893 F
0.463934 0.746620 0.749465 F
0.963740 0.250928 0.749457 F
0.963716 0.751219 0.749607 F
0.286102 0.003153 0.748786 F
0.287282 0.504224 0.749425 F
0.786173 0.002956 0.750093 F
0.786064 0.503442 0.749826 F
0.212890 0.496012 0.250959 F
0.213709 0.996958 0.249769 F
0.712391 0.495973 0.248082 F
0.714107 0.996722 0.249080 F
