Fe4 O4 F8                               
   1.00000000000000     
     4.9836829196240222    0.1670983935271331   -0.0011567692927738
     0.1229623833376134    5.2893775588729079   -0.0023854017122815
    -0.0004879383583221    0.0126090350144322    7.1876564262845513
   Fe   O    F 
     4     4     8
Direct
  0.4901052030257474  0.0125290840583397 -0.0030622841313978
  0.0054381042766827  0.4928765832806098 -0.0051891684491185
  0.4897425976178994  0.0113149424519098  0.5028329699263180
  0.0039977897241494  0.4909823796643224  0.5060745308415555
  0.1978913969514638  0.2154691314931522  0.8958658150275643
  0.1974824614691731  0.2137719980325118  0.6039018307653742
  0.8884138899663904  0.5310378855569626  0.7503309739028571
  0.3441321773750153  0.0146521428369020  0.2496857055331480
  0.6957168603484664  0.2985739221137668  0.0586524595148138
  0.3107330263484275  0.7039389166478368  0.9583118517283109
  0.8020728045672290  0.7926169335510057  0.0671584810102418
  0.3091841388580839  0.7033990238753811  0.5417803917589675
  0.6952394185483991  0.2977505994151193  0.4412759079434818
  0.8008615313690682  0.7909228457638183  0.4325402342628264
  0.1283756204846760  0.4391367712234661  0.2501542784292119
  0.6406129790691366 -0.0089731599651109  0.7496860219358460
 
  0.00000000E+00  0.00000000E+00  0.00000000E+00
  0.00000000E+00  0.00000000E+00  0.00000000E+00
  0.00000000E+00  0.00000000E+00  0.00000000E+00
  0.00000000E+00  0.00000000E+00  0.00000000E+00
  0.00000000E+00  0.00000000E+00  0.00000000E+00
  0.00000000E+00  0.00000000E+00  0.00000000E+00
  0.00000000E+00  0.00000000E+00  0.00000000E+00
  0.00000000E+00  0.00000000E+00  0.00000000E+00
  0.00000000E+00  0.00000000E+00  0.00000000E+00
  0.00000000E+00  0.00000000E+00  0.00000000E+00
  0.00000000E+00  0.00000000E+00  0.00000000E+00
  0.00000000E+00  0.00000000E+00  0.00000000E+00
  0.00000000E+00  0.00000000E+00  0.00000000E+00
  0.00000000E+00  0.00000000E+00  0.00000000E+00
  0.00000000E+00  0.00000000E+00  0.00000000E+00
  0.00000000E+00  0.00000000E+00  0.00000000E+00
