Na4 Fe4 O8 F4                           
   1.00000000000000     
     5.2013242363116277   -0.0028236738180626    0.0108898841153111
    -0.0039123880417282    5.2565679908564737    0.0226243500837212
     0.0164236440955140    0.0341642042462926    7.6449125820852935
   Na   Fe   O    F 
     4     4     8     4
Direct
  0.9949152102992112  0.0279212198063559  0.2469021884623482
  0.0118959265176900  0.9589225095955664  0.7538991590536188
  0.4907264430499293  0.4689103133689566  0.7463404441892542
  0.5145824650517732  0.5417129348251666  0.2539490520963278
  0.4979243840765978  0.9863667975623983  0.9860491523884855
  0.0179204070629429  0.5052457676606292  0.0109763405803118
  0.4900110843867505  0.0091113150124643  0.5143741353033195
  0.0124603611743575  0.4863158398139683  0.4886832163800698
  0.2913318533331694  0.7077229701060622  0.9644979632076968
  0.2054224863801774  0.2125609841086108  0.9692571419095229
  0.7878347741115848  0.7909097009068979  0.0316223575053244
  0.2862016964773110  0.7125122405880032  0.5314207017326786
  0.7117259549985364  0.2885254408347369  0.4689872087393230
  0.2050909754925072  0.2098755267587835  0.5358696098844975
  0.0668564741970502  0.4877077639241615  0.2497226039485926
  0.5684140889102652  0.0120857910034987  0.7502806671044153
  0.7003099969472925  0.2966325122360283  0.0396452978810411
  0.7917987412324502  0.7914516150107930  0.4579384169235702
  0.9210498665808923  0.5184871082217444  0.7498315743000034
  0.4335268097195255  0.9870216486551738  0.2497527684095842
 
  0.00000000E+00  0.00000000E+00  0.00000000E+00
  0.00000000E+00  0.00000000E+00  0.00000000E+00
  0.00000000E+00  0.00000000E+00  0.00000000E+00
  0.00000000E+00  0.00000000E+00  0.00000000E+00
  0.00000000E+00  0.00000000E+00  0.00000000E+00
  0.00000000E+00  0.00000000E+00  0.00000000E+00
  0.00000000E+00  0.00000000E+00  0.00000000E+00
  0.00000000E+00  0.00000000E+00  0.00000000E+00
  0.00000000E+00  0.00000000E+00  0.00000000E+00
  0.00000000E+00  0.00000000E+00  0.00000000E+00
  0.00000000E+00  0.00000000E+00  0.00000000E+00
  0.00000000E+00  0.00000000E+00  0.00000000E+00
  0.00000000E+00  0.00000000E+00  0.00000000E+00
  0.00000000E+00  0.00000000E+00  0.00000000E+00
  0.00000000E+00  0.00000000E+00  0.00000000E+00
  0.00000000E+00  0.00000000E+00  0.00000000E+00
  0.00000000E+00  0.00000000E+00  0.00000000E+00
  0.00000000E+00  0.00000000E+00  0.00000000E+00
  0.00000000E+00  0.00000000E+00  0.00000000E+00
  0.00000000E+00  0.00000000E+00  0.00000000E+00
