V4 O4 F8                                
   1.00000000000000     
     5.1080617364225089   -0.0482209911345216    0.0064067807482871
    -0.0472521138580110    5.2864238545576363    0.0117894743004956
     0.0119169955937187    0.0016612406086260    7.3808900853813109
   V    O    F 
     4     4     8
Direct
  0.5123121915307259  0.9990055574727453  0.9691597715232173
  0.0260651153496387  0.5152915136786905  0.0013792006139967
  0.4869967971300822  0.9963064796863046  0.4695676256286449
  0.0231251709567045  0.5133474491977189  0.5097324623940102
  0.5836313845523440  0.0058862740330229  0.7524441514097016
  0.4180196108208835  0.9961892012750904  0.2527161837107828
  0.2836470104207207  0.7059859773824918  0.9644944957160507
  0.2824804398868862  0.7047843465791774  0.5404353428861439
  0.0892437263355455  0.4576024571394745  0.2553413601255896
  0.8936367213428179  0.5181311863394276  0.7558335013431725
  0.7084446524176584  0.2991126370188787  0.0432266076980806
  0.1971637221784118  0.2005331934128510  0.9530037361395489
  0.7937410242453566  0.7915855924479295  0.0570910148789750
  0.7062942980371312  0.3013004250521982  0.4673587268718168
  0.7973023753143365  0.7945192071781741  0.4518630603650310
  0.1978957594807565  0.2004185021058172  0.5563527586952511
 
  0.00000000E+00  0.00000000E+00  0.00000000E+00
  0.00000000E+00  0.00000000E+00  0.00000000E+00
  0.00000000E+00  0.00000000E+00  0.00000000E+00
  0.00000000E+00  0.00000000E+00  0.00000000E+00
  0.00000000E+00  0.00000000E+00  0.00000000E+00
  0.00000000E+00  0.00000000E+00  0.00000000E+00
  0.00000000E+00  0.00000000E+00  0.00000000E+00
  0.00000000E+00  0.00000000E+00  0.00000000E+00
  0.00000000E+00  0.00000000E+00  0.00000000E+00
  0.00000000E+00  0.00000000E+00  0.00000000E+00
  0.00000000E+00  0.00000000E+00  0.00000000E+00
  0.00000000E+00  0.00000000E+00  0.00000000E+00
  0.00000000E+00  0.00000000E+00  0.00000000E+00
  0.00000000E+00  0.00000000E+00  0.00000000E+00
  0.00000000E+00  0.00000000E+00  0.00000000E+00
  0.00000000E+00  0.00000000E+00  0.00000000E+00
