Tetradecasodium hexaferrate(III)        
   1.00000000000000     
    11.3174189207821438   -0.0646531786417945    0.0192486491972325
    -3.0175766480323616    7.6849525883473646   -0.0185442371299939
     0.2566115143747058   -2.0050673777986234    5.5411345079841254
   Na   Fe   O 
    14     6    16
Direct
  0.2229931301037000  0.2889370195081543  0.5442725391115747
  0.7770039516481755  0.7110616386085984  0.4557333160046934
  0.9495938400219061  0.4951905933193422  0.2718720528719773
  0.0504232125456155  0.5048520871224811  0.7282029719243027
  0.9549951222973659  0.0909248087613065  0.3104269440941483
  0.0450004827836407  0.9090759824253725  0.6895832169033591
  0.5271776936206963  0.4597148473539694  0.7238503645754716
  0.4728182116345760  0.5402771169754090  0.2761393092851599
  0.4350313011810170  0.0771190247463474  0.3796698149591770
  0.5649670038480999  0.9228739620852926  0.6203238459009646
  0.3320187236604426  0.1130372812202033  0.8719136522115275
  0.6679811466227767  0.8869606765632481  0.1280864884554566
  0.7179768859809426  0.2786016842784738  0.4998919287312278
  0.2820246925599268  0.7213893037424043  0.5000991122857451
  0.1523880627137392  0.3092279400333022  0.0565448969347977
  0.8476005430338637  0.6907699801059880  0.9434524410857754
  0.6366795558210826  0.3241264172680385  0.0444595613251257
  0.3633195754008650  0.6758602743089472  0.9555339705585679
  0.8510878610018124  0.1112116647350224  0.8150307341813732
  0.1489193605258703  0.8887961643342631  0.1849721726726892
  0.7715200689269541  0.0198078794379337  0.5098031875047697
  0.2284770496213648  0.9801862635965330  0.4902045955690857
  0.5336676941124087  0.1885298524667468  0.7614661370799276
  0.4663322957027801  0.8114680366100790  0.2385201362503900
  0.1548993960283478  0.0905841553643929  0.0934884307630049
  0.8451007949546140  0.9094158167322934  0.9065096170053372
  0.0300771581298408  0.2361962141668888  0.7888793805403090
  0.9699243540407508  0.7637856136473300  0.2110729109344184
  0.5599106650421066  0.3427492864420034  0.3287095374761445
  0.4400772820356975  0.6572349207773714  0.6712714841826547
  0.1156876161112544  0.4294449368628328  0.3546592291306003
  0.8843111606668258  0.5705608962965308  0.6453499140794271
  0.3129642277322908  0.4185498632960195  0.9494927258899896
  0.6870267314962795  0.5814485718329563  0.0505109814147535
  0.7748282372359068  0.2430107544001008  0.0642785427149948
  0.2251950551564743  0.7570184985738468  0.9357239703910770
 
  0.00000000E+00  0.00000000E+00  0.00000000E+00
  0.00000000E+00  0.00000000E+00  0.00000000E+00
  0.00000000E+00  0.00000000E+00  0.00000000E+00
  0.00000000E+00  0.00000000E+00  0.00000000E+00
  0.00000000E+00  0.00000000E+00  0.00000000E+00
  0.00000000E+00  0.00000000E+00  0.00000000E+00
  0.00000000E+00  0.00000000E+00  0.00000000E+00
  0.00000000E+00  0.00000000E+00  0.00000000E+00
  0.00000000E+00  0.00000000E+00  0.00000000E+00
  0.00000000E+00  0.00000000E+00  0.00000000E+00
  0.00000000E+00  0.00000000E+00  0.00000000E+00
  0.00000000E+00  0.00000000E+00  0.00000000E+00
  0.00000000E+00  0.00000000E+00  0.00000000E+00
  0.00000000E+00  0.00000000E+00  0.00000000E+00
  0.00000000E+00  0.00000000E+00  0.00000000E+00
  0.00000000E+00  0.00000000E+00  0.00000000E+00
  0.00000000E+00  0.00000000E+00  0.00000000E+00
  0.00000000E+00  0.00000000E+00  0.00000000E+00
  0.00000000E+00  0.00000000E+00  0.00000000E+00
  0.00000000E+00  0.00000000E+00  0.00000000E+00
  0.00000000E+00  0.00000000E+00  0.00000000E+00
  0.00000000E+00  0.00000000E+00  0.00000000E+00
  0.00000000E+00  0.00000000E+00  0.00000000E+00
  0.00000000E+00  0.00000000E+00  0.00000000E+00
  0.00000000E+00  0.00000000E+00  0.00000000E+00
  0.00000000E+00  0.00000000E+00  0.00000000E+00
  0.00000000E+00  0.00000000E+00  0.00000000E+00
  0.00000000E+00  0.00000000E+00  0.00000000E+00
  0.00000000E+00  0.00000000E+00  0.00000000E+00
  0.00000000E+00  0.00000000E+00  0.00000000E+00
  0.00000000E+00  0.00000000E+00  0.00000000E+00
  0.00000000E+00  0.00000000E+00  0.00000000E+00
  0.00000000E+00  0.00000000E+00  0.00000000E+00
  0.00000000E+00  0.00000000E+00  0.00000000E+00
  0.00000000E+00  0.00000000E+00  0.00000000E+00
  0.00000000E+00  0.00000000E+00  0.00000000E+00
