Ti8 O8 F16                              
   1.00000000000000     
     7.6975647825531013   -0.0036897185819986   -0.0027376033437823
     0.0012760455333186    7.6972453180136915   -0.0027191028251322
    -0.0028675997893400   -0.0029415203820217    7.7566914585777686
   Ti   O    F 
     8     8    16
Direct
  0.0026067229901396  0.9717152098189956  0.9989827544397896
  0.9717276904246349  0.0026257997585487  0.4989817161190643
  0.0049510309808434  0.4756072781867656  0.0030244372629648
  0.0021588040404578  0.4805291186730828  0.5032283079626167
  0.4805782411290961  0.0021511781073932  0.0032300138336245
  0.4756078362865428  0.0049439241743577  0.5030185880433029
  0.5054425636491465  0.5024016550183233  0.9724533976064050
  0.5023990361346653  0.5054371228678619  0.4724590373157458
  0.5027185424899977  0.5037253171670595  0.2506522022018737
  0.5037113857603231  0.5027190805395367  0.7506530389574992
  0.2562568803348475  0.9965480514999978  0.0014883732163448
  0.2514993248099970  0.0035774107022204  0.5012215163275127
  0.7451938387239909 -0.0003260101254846  0.5003774985572309
  0.0036679750832215  0.2515062220732119  0.0012168115292787
  0.9966290154404740  0.2562805227991520  0.5014935819946201
 -0.0004137414978622  0.7452168218227911  0.0003841226219050
  0.9970767698818619  0.9971144022160167  0.2495992811968199
  0.9971053031387572  0.9970719694413838  0.7495988488132865
  0.0054685194802531  0.5046215583544309  0.2551075488925346
  0.0050079687913404  0.5044750991627822  0.7505068012318774
  0.5044762372218322  0.0050159580305939  0.2505087823261372
  0.5046368469489572  0.0054951166347161  0.7551102414682439
  0.2562618724215104  0.5025122856312253  0.0029707525270205
  0.2511628158287283  0.5062206208656157  0.5030148750579252
  0.7459209532621538  0.0020816327131886  0.0012812140244118
  0.7535915794198698  0.4983453469031517  0.0036795637917389
  0.7534673144822867  0.5119916481496379  0.5023939311237742
  0.0020024061920552  0.7458886497571167  0.5012746946648868
  0.5061397488397927  0.2511702410497234  0.0030277689505356
  0.5023972292651361  0.2562656705057073  0.5029658182360824
  0.5121145241414596  0.7534755846094215  0.0023946604513052
  0.4984347639035037  0.7535955128914816  0.5036998192536407
 
  0.00000000E+00  0.00000000E+00  0.00000000E+00
  0.00000000E+00  0.00000000E+00  0.00000000E+00
  0.00000000E+00  0.00000000E+00  0.00000000E+00
  0.00000000E+00  0.00000000E+00  0.00000000E+00
  0.00000000E+00  0.00000000E+00  0.00000000E+00
  0.00000000E+00  0.00000000E+00  0.00000000E+00
  0.00000000E+00  0.00000000E+00  0.00000000E+00
  0.00000000E+00  0.00000000E+00  0.00000000E+00
  0.00000000E+00  0.00000000E+00  0.00000000E+00
  0.00000000E+00  0.00000000E+00  0.00000000E+00
  0.00000000E+00  0.00000000E+00  0.00000000E+00
  0.00000000E+00  0.00000000E+00  0.00000000E+00
  0.00000000E+00  0.00000000E+00  0.00000000E+00
  0.00000000E+00  0.00000000E+00  0.00000000E+00
  0.00000000E+00  0.00000000E+00  0.00000000E+00
  0.00000000E+00  0.00000000E+00  0.00000000E+00
  0.00000000E+00  0.00000000E+00  0.00000000E+00
  0.00000000E+00  0.00000000E+00  0.00000000E+00
  0.00000000E+00  0.00000000E+00  0.00000000E+00
  0.00000000E+00  0.00000000E+00  0.00000000E+00
  0.00000000E+00  0.00000000E+00  0.00000000E+00
  0.00000000E+00  0.00000000E+00  0.00000000E+00
  0.00000000E+00  0.00000000E+00  0.00000000E+00
  0.00000000E+00  0.00000000E+00  0.00000000E+00
  0.00000000E+00  0.00000000E+00  0.00000000E+00
  0.00000000E+00  0.00000000E+00  0.00000000E+00
  0.00000000E+00  0.00000000E+00  0.00000000E+00
  0.00000000E+00  0.00000000E+00  0.00000000E+00
  0.00000000E+00  0.00000000E+00  0.00000000E+00
  0.00000000E+00  0.00000000E+00  0.00000000E+00
  0.00000000E+00  0.00000000E+00  0.00000000E+00
  0.00000000E+00  0.00000000E+00  0.00000000E+00
