Na8 Ni8 O16 F8                          
   1.00000000000000     
     8.6330296320171502    0.1138807673473814   -0.1001609830843566
    -0.0800626963831523    6.8249989113647356   -0.0710165900663596
    -0.0085546201077070    0.0731705018618984    6.9503676602327911
   Na   Ni   O    F 
     8     8    16     8
Direct
  0.2384953952917321  0.2550202591980323  0.2500315150717894
  0.2414532350723887  0.2424155621900270  0.7264570135758700
  0.2325575552629591  0.7624469244466247  0.2503129952987026
  0.2400038998551942  0.7570579566758925  0.7388963564818890
  0.7609281688996402  0.2416531303930303  0.2466160187556958
  0.7581205906068401  0.2467526172760837  0.7536451059052731
  0.7613568874532711  0.7411579144945000  0.2619028038901153
  0.7614804526750741  0.7471173295006793  0.7578695065926703
  0.9960540375371901  0.9996749101508818  0.9994640787768218
  0.9677605778797385  0.9983056042127262  0.4988017347497708
  0.0038320015195630  0.5003588292035107 -0.0000984644181013
  0.9901536549185543  0.5000902114999276  0.4998752045345897
  0.4989033794839913  0.0011342090849869  0.0037339899050026
  0.5174202538296663  0.9952491009642265  0.4946971278761086
  0.4993300618724661  0.4999374069743810  0.0038769145582628
  0.5009447692412533  0.5054756905959010  0.4943986791156035
  0.7445357605950162  0.9916432728535680  0.4938788864509439
  0.0220617641642782  0.2498246997599465  0.9054952823865355
  0.9920832844203489  0.2473767687265008  0.5972760242173376
  0.9755412907617079  0.7494372356107455  0.0918128404605336
  0.0078036600261129  0.7518501916107528  0.4054716889513129
  0.4587802837562532  0.2513690811953728  0.9073622800740891
  0.5190837766025199  0.7505269657788790  0.1404873268206656
  0.4896370950921614  0.7514976393927434  0.3481661437476488
  0.0064850355787267  0.0923855451350461  0.2531431464464551
  0.9980377353981897  0.9043946201054668  0.7464177132426054
  0.9891914629418828  0.4039753563290753  0.2498142084851586
  0.0079921641993932  0.5956876892801851  0.7490636294557296
  0.4977178791483312  0.1436982660264234  0.2516392602609228
  0.5070438189014932  0.8593966303658267  0.7514150522841806
  0.5096794732708526  0.3583919697881593  0.2512449867362461
  0.4963662612028177  0.6423061814198792  0.7507272635565245
  0.2564489488055804  0.9765508285009447  0.0060632105012868
  0.2866744707975639  0.0057349838034675  0.5032304587325230
  0.2548126251560507  0.5232016767927987  0.0209776525728579
  0.2652443056356310  0.4913483879522656  0.4979056441151998
  0.7408649855621442  0.0165531137985729  0.9948464842025899
  0.7376650539867504  0.4863404997354095  0.9866256015110804
  0.7425664381074930  0.5108060229945428  0.5026687038860369
  0.5248875044891796  0.2518547161820029  0.6137859302314707
 
  0.00000000E+00  0.00000000E+00  0.00000000E+00
  0.00000000E+00  0.00000000E+00  0.00000000E+00
  0.00000000E+00  0.00000000E+00  0.00000000E+00
  0.00000000E+00  0.00000000E+00  0.00000000E+00
  0.00000000E+00  0.00000000E+00  0.00000000E+00
  0.00000000E+00  0.00000000E+00  0.00000000E+00
  0.00000000E+00  0.00000000E+00  0.00000000E+00
  0.00000000E+00  0.00000000E+00  0.00000000E+00
  0.00000000E+00  0.00000000E+00  0.00000000E+00
  0.00000000E+00  0.00000000E+00  0.00000000E+00
  0.00000000E+00  0.00000000E+00  0.00000000E+00
  0.00000000E+00  0.00000000E+00  0.00000000E+00
  0.00000000E+00  0.00000000E+00  0.00000000E+00
  0.00000000E+00  0.00000000E+00  0.00000000E+00
  0.00000000E+00  0.00000000E+00  0.00000000E+00
  0.00000000E+00  0.00000000E+00  0.00000000E+00
  0.00000000E+00  0.00000000E+00  0.00000000E+00
  0.00000000E+00  0.00000000E+00  0.00000000E+00
  0.00000000E+00  0.00000000E+00  0.00000000E+00
  0.00000000E+00  0.00000000E+00  0.00000000E+00
  0.00000000E+00  0.00000000E+00  0.00000000E+00
  0.00000000E+00  0.00000000E+00  0.00000000E+00
  0.00000000E+00  0.00000000E+00  0.00000000E+00
  0.00000000E+00  0.00000000E+00  0.00000000E+00
  0.00000000E+00  0.00000000E+00  0.00000000E+00
  0.00000000E+00  0.00000000E+00  0.00000000E+00
  0.00000000E+00  0.00000000E+00  0.00000000E+00
  0.00000000E+00  0.00000000E+00  0.00000000E+00
  0.00000000E+00  0.00000000E+00  0.00000000E+00
  0.00000000E+00  0.00000000E+00  0.00000000E+00
  0.00000000E+00  0.00000000E+00  0.00000000E+00
  0.00000000E+00  0.00000000E+00  0.00000000E+00
  0.00000000E+00  0.00000000E+00  0.00000000E+00
  0.00000000E+00  0.00000000E+00  0.00000000E+00
  0.00000000E+00  0.00000000E+00  0.00000000E+00
  0.00000000E+00  0.00000000E+00  0.00000000E+00
  0.00000000E+00  0.00000000E+00  0.00000000E+00
  0.00000000E+00  0.00000000E+00  0.00000000E+00
  0.00000000E+00  0.00000000E+00  0.00000000E+00
  0.00000000E+00  0.00000000E+00  0.00000000E+00
