Ti8 O8 F16                              
   1.00000000000000     
     7.6520276319269751    0.0000084681748167    0.0008030586651735
     0.0000097507278636    7.7399046391702706    0.0000027861342849
     0.0008584617838923    0.0000023526452010    7.7609270017143661
   Ti   O    F 
     8     8    16
Direct
  0.0016462079767810  0.9764169641306654 -0.0034508225132295
  0.0016471205641241  0.0235769317423486  0.4965490786441740
  0.9791183083112284  0.4993810927398946  0.0008986562688732
  0.9791200381145543  0.5006143638874644  0.5008982127635324
  0.5016578624162973  0.0019589793265379  0.0279788806162569
  0.5016590447507698 -0.0019546173590128  0.5279775646747922
  0.4810967517915159  0.5010021968158378 -0.0032808954696023
  0.4810968523651267  0.4990007139185721  0.4967201016089888
  0.5012082268211444  0.0002525454540837  0.2494888461000451
  0.5012081762259010 -0.0002439363325388  0.7494870354768750
  0.2547481572687121  0.4993722891525398 -0.0011671232631235
  0.2547460947736661  0.5006269041410140  0.4988432578527013
  0.7511067484947730  0.4975940376152785 -0.0005076137816671
  0.7511078169467009  0.5024011117544461  0.4994800462460747
  0.0002337013584756  0.2455194795256458  0.4990353599356427
  0.0002348733747336  0.7544737531896893 -0.0009641345936219
  0.0022324920350859  0.0004254527211024  0.2469083573103537
  0.0022370777482085 -0.0004317741154998  0.7469088299448405
  0.0065982434002537  0.5000955206445019  0.2504734929672443
  0.0065845969045558  0.4999103429202478  0.7504745820197741
  0.5061089707741664  0.4998838803627578  0.2471171374842630
  0.5061214263001161  0.5001240636411145  0.7471184163654011
  0.2500968929888288  0.0060716891084664  0.9961714732455232
  0.2500987994315169  0.9939248756526886  0.4961695138229146
  0.7534932128748193  0.0077843296942371  0.9964832018359663
  0.7534947004509966  0.9922147039247262  0.4964835417598403
  0.0033550108817713  0.2421014937783583 -0.0005816938147880
  0.0033552493195374  0.7578962413741109  0.4994174846261029
  0.5029840956949760  0.2490552937164730  0.9969742800711862
  0.5043084019217382  0.2465771501715338  0.4974598138215612
  0.5043077027245427  0.7534259490390747  0.9974628076335108
  0.5029871449943962  0.7509479776636415  0.4969723103396007
 
  0.00000000E+00  0.00000000E+00  0.00000000E+00
  0.00000000E+00  0.00000000E+00  0.00000000E+00
  0.00000000E+00  0.00000000E+00  0.00000000E+00
  0.00000000E+00  0.00000000E+00  0.00000000E+00
  0.00000000E+00  0.00000000E+00  0.00000000E+00
  0.00000000E+00  0.00000000E+00  0.00000000E+00
  0.00000000E+00  0.00000000E+00  0.00000000E+00
  0.00000000E+00  0.00000000E+00  0.00000000E+00
  0.00000000E+00  0.00000000E+00  0.00000000E+00
  0.00000000E+00  0.00000000E+00  0.00000000E+00
  0.00000000E+00  0.00000000E+00  0.00000000E+00
  0.00000000E+00  0.00000000E+00  0.00000000E+00
  0.00000000E+00  0.00000000E+00  0.00000000E+00
  0.00000000E+00  0.00000000E+00  0.00000000E+00
  0.00000000E+00  0.00000000E+00  0.00000000E+00
  0.00000000E+00  0.00000000E+00  0.00000000E+00
  0.00000000E+00  0.00000000E+00  0.00000000E+00
  0.00000000E+00  0.00000000E+00  0.00000000E+00
  0.00000000E+00  0.00000000E+00  0.00000000E+00
  0.00000000E+00  0.00000000E+00  0.00000000E+00
  0.00000000E+00  0.00000000E+00  0.00000000E+00
  0.00000000E+00  0.00000000E+00  0.00000000E+00
  0.00000000E+00  0.00000000E+00  0.00000000E+00
  0.00000000E+00  0.00000000E+00  0.00000000E+00
  0.00000000E+00  0.00000000E+00  0.00000000E+00
  0.00000000E+00  0.00000000E+00  0.00000000E+00
  0.00000000E+00  0.00000000E+00  0.00000000E+00
  0.00000000E+00  0.00000000E+00  0.00000000E+00
  0.00000000E+00  0.00000000E+00  0.00000000E+00
  0.00000000E+00  0.00000000E+00  0.00000000E+00
  0.00000000E+00  0.00000000E+00  0.00000000E+00
  0.00000000E+00  0.00000000E+00  0.00000000E+00
