Chromium(II) fluoride                   
   1.00000000000000     
     4.6938584214022567    0.0000001073053160   -0.0438658307786834
     0.0000001073118969    4.6388769855795413    0.0000010595418665
    -0.4218436482323374    0.0000007686899809    3.5485291840988094
   Cr   F 
     2     4
Direct
  0.0000811274310593  0.9998444625300493  0.9999336530208751
  0.5000810618624172  0.5001554946511675  0.4999336557112315
  0.3005178554927426  0.3012872759043645  0.0472737591669059
  0.6994009477667404  0.6986713583235016  0.9527926729658489
  0.1994010051083990  0.8013286213329280  0.4527925272676043
  0.8005180023386416  0.1987127872579890  0.5472737318675414
 
  0.00000000E+00  0.00000000E+00  0.00000000E+00
  0.00000000E+00  0.00000000E+00  0.00000000E+00
  0.00000000E+00  0.00000000E+00  0.00000000E+00
  0.00000000E+00  0.00000000E+00  0.00000000E+00
  0.00000000E+00  0.00000000E+00  0.00000000E+00
  0.00000000E+00  0.00000000E+00  0.00000000E+00
