Na4 Co4 O8 F4                           
    1.000000000000000     
     5.2487793606523097   -0.0000496291730307   -0.0622607204995512
     0.0000334532645493    5.2658252112161339    0.0002253788457859
    -0.0758225309265640    0.0004539867312913    7.7676351152048735
   Na   Co   O    F 
     4     4     8     4
Direct
  0.9885176114376648  0.0294978740861467  0.2512446984785086
  0.0082315969640021  0.9727997454679524  0.7382114364550745
  0.4891279007896259  0.4704713605420920  0.7515617808286734
  0.5082319922739487  0.5272233826929593  0.2382120767479918
  0.4923514586616307  0.0017858308286947  0.0122579769828022
  0.0008007238076715  0.4916366744212155  0.9817968750731154
  0.5007833692492554  0.0083736414088165  0.4818357436848046
  0.9923535472786753  0.4982442613456612  0.5122646726249300
  0.6972466689884556  0.2604726317141299  0.0348221813804201
  0.2968496600847246  0.7420345551717276  0.9694720953610485
  0.2259953053397155  0.2191302558430124  0.9542439159229517
  0.7260316119619361  0.2808767861772594  0.4542522006427703
  0.7968421501443927  0.7579507261729930  0.4694560872531284
  0.1972663011082361  0.2395508825401578  0.5348542328122292
  0.9236457172860071  0.5254073715198047  0.7645563706719329
  0.4235510071666297  0.9746206318997039  0.2645318858322838
  0.7866610384837358  0.7800513970134162  0.0580668616496141
  0.2866944438997194  0.7199036339710787  0.5581360933992485
  0.0793951202614309  0.4776698053659061  0.2351036527129722
  0.5794227748125280  0.0222985518172791  0.7351191614855068
 
  0.00000000E+00  0.00000000E+00  0.00000000E+00
  0.00000000E+00  0.00000000E+00  0.00000000E+00
  0.00000000E+00  0.00000000E+00  0.00000000E+00
  0.00000000E+00  0.00000000E+00  0.00000000E+00
  0.00000000E+00  0.00000000E+00  0.00000000E+00
  0.00000000E+00  0.00000000E+00  0.00000000E+00
  0.00000000E+00  0.00000000E+00  0.00000000E+00
  0.00000000E+00  0.00000000E+00  0.00000000E+00
  0.00000000E+00  0.00000000E+00  0.00000000E+00
  0.00000000E+00  0.00000000E+00  0.00000000E+00
  0.00000000E+00  0.00000000E+00  0.00000000E+00
  0.00000000E+00  0.00000000E+00  0.00000000E+00
  0.00000000E+00  0.00000000E+00  0.00000000E+00
  0.00000000E+00  0.00000000E+00  0.00000000E+00
  0.00000000E+00  0.00000000E+00  0.00000000E+00
  0.00000000E+00  0.00000000E+00  0.00000000E+00
  0.00000000E+00  0.00000000E+00  0.00000000E+00
  0.00000000E+00  0.00000000E+00  0.00000000E+00
  0.00000000E+00  0.00000000E+00  0.00000000E+00
  0.00000000E+00  0.00000000E+00  0.00000000E+00
