Ti8 O8 F16                              
   1.00000000000000     
     7.7047648733071190    0.0000005630963759    0.0015928830495643
     0.0000006333336991    7.8150459883444627    0.0000010130021740
     0.0016992940073759    0.0000009329823150    7.6137950937068606
   Ti   O    F 
     8     8    16
Direct
  0.0019412795592757  0.0000007376824698  0.0177473468433149
  0.0027989263040382  0.0000004263319369  0.5196043364486798
  0.0035032787253257  0.5000007156162241  0.0175609196808963
  0.9742605269668445  0.5000006195520186  0.4957495041901439
  0.5026707352557480  0.9999991261737193  0.0180399219870822
  0.5027550104003780  0.9999995600952971  0.5191658743605885
  0.4805176394056190  0.4999989626059360  0.9976560779494505
  0.4800687891875270  0.4999995852528656  0.4983724949850412
  0.0019431870066668  0.0000001809950945  0.2454397613382255
  0.0021571892697523  0.0000003606304588  0.7476702079026651
  0.9975501685225794  0.5000004303361507  0.2460782518420856
  0.5009555004272173  0.0000002849704899  0.2452654388519946
  0.5010330377727286  0.9999993950397510  0.7475532413741135
  0.2548622436208845  0.4999989179055362  0.9981551198769054
  0.2559321683769440  0.4999999631652585  0.5008454819124495
  0.7475699750965106  0.5000000020869777  0.5021914979784299
  0.0012799431332695  0.5000002230446654  0.7534907765044210
  0.5131201099553593  0.4999991545005784  0.2448924721362999
  0.5104556064434860  0.5000005171177406  0.7509947285810270
  0.2527244652362910  0.0000009445501661  0.9919485279118092
  0.2527594899589545  0.9999998948781226  0.4919660635000866
  0.7513439552352494  0.9999994229235725  0.9917018163822107
  0.7517090699646971  0.9999999405431979  0.4920023620506413
  0.7476133062514236  0.5000009708103832  0.9930568226677252
  0.9972376488648464  0.2507512618755214  0.9931528462415926
  0.0008205307249938  0.2484414466601379  0.5007951027021917
  0.9972379414794830  0.7492498502468337  0.9931525825280119
  0.0008203648358673  0.7515592250613281  0.5007954635069112
  0.5048736124755990  0.2529016191199460  0.9972505226254995
  0.5013070282709080  0.2488483353534079  0.4952263954433462
  0.5048702257158908  0.7470969499865134  0.9972523458051796
  0.5013070455556559  0.7511509748877003  0.4952256938909798
 
  0.00000000E+00  0.00000000E+00  0.00000000E+00
  0.00000000E+00  0.00000000E+00  0.00000000E+00
  0.00000000E+00  0.00000000E+00  0.00000000E+00
  0.00000000E+00  0.00000000E+00  0.00000000E+00
  0.00000000E+00  0.00000000E+00  0.00000000E+00
  0.00000000E+00  0.00000000E+00  0.00000000E+00
  0.00000000E+00  0.00000000E+00  0.00000000E+00
  0.00000000E+00  0.00000000E+00  0.00000000E+00
  0.00000000E+00  0.00000000E+00  0.00000000E+00
  0.00000000E+00  0.00000000E+00  0.00000000E+00
  0.00000000E+00  0.00000000E+00  0.00000000E+00
  0.00000000E+00  0.00000000E+00  0.00000000E+00
  0.00000000E+00  0.00000000E+00  0.00000000E+00
  0.00000000E+00  0.00000000E+00  0.00000000E+00
  0.00000000E+00  0.00000000E+00  0.00000000E+00
  0.00000000E+00  0.00000000E+00  0.00000000E+00
  0.00000000E+00  0.00000000E+00  0.00000000E+00
  0.00000000E+00  0.00000000E+00  0.00000000E+00
  0.00000000E+00  0.00000000E+00  0.00000000E+00
  0.00000000E+00  0.00000000E+00  0.00000000E+00
  0.00000000E+00  0.00000000E+00  0.00000000E+00
  0.00000000E+00  0.00000000E+00  0.00000000E+00
  0.00000000E+00  0.00000000E+00  0.00000000E+00
  0.00000000E+00  0.00000000E+00  0.00000000E+00
  0.00000000E+00  0.00000000E+00  0.00000000E+00
  0.00000000E+00  0.00000000E+00  0.00000000E+00
  0.00000000E+00  0.00000000E+00  0.00000000E+00
  0.00000000E+00  0.00000000E+00  0.00000000E+00
  0.00000000E+00  0.00000000E+00  0.00000000E+00
  0.00000000E+00  0.00000000E+00  0.00000000E+00
  0.00000000E+00  0.00000000E+00  0.00000000E+00
  0.00000000E+00  0.00000000E+00  0.00000000E+00
