Na4 V4 O8 F4                            
   1.00000000000000     
     5.4623140221054598   -0.0263220343835132    0.0075778152633141
    -2.7537399227307371    4.7241473077935900   -0.0082436582939460
     0.0053159483524260   -0.0044339483758733    9.2494546358230796
   Na   V    O    F 
     4     4     8     4
Direct
  0.9932376226713460  0.9929411355030384  0.0027309532909764
  0.9828598723192866  0.9822977482208758  0.4976958078249106
  0.3465876115540466  0.6767696952287801  0.2493530668266367
  0.6749294206157664  0.3469883888310443  0.7500142094583019
  0.3389953856491315  0.6770408640154469  0.6089826168949238
  0.6768885147676387  0.3387359320619904  0.3910661467095952
  0.6861306898578564  0.3473530712133234  0.1100986470963655
  0.3480454752158522  0.6864277563091966  0.8898160254554420
  0.5533875952796685  0.9884807723965541  0.9976862068556304
  0.9889059630129680  0.5531150340810963  0.0029238120364983
  0.5373314716572832  0.9730141588425557  0.4968344499658769
  0.9733261141821221  0.5372945349548974  0.5028092798986439
  0.7436051555652291  0.6228383329871751  0.2529135329566796
  0.1098446148188340  0.4165665413819067  0.7524288856931277
  0.4151314651176494  0.1105137529699232  0.2475498903057495
  0.6228096223464992  0.7430632400975381  0.7471168171446945
  0.4125855163489015  0.4122472505792538 -0.0002186385511981
  0.3991805563290995  0.3989791590656778  0.5001365212425032
  0.9289960264152901  0.2660413957321424  0.2509622007036491
  0.2672213062755308  0.9292912355275911  0.7490995681909997
 
  0.00000000E+00  0.00000000E+00  0.00000000E+00
  0.00000000E+00  0.00000000E+00  0.00000000E+00
  0.00000000E+00  0.00000000E+00  0.00000000E+00
  0.00000000E+00  0.00000000E+00  0.00000000E+00
  0.00000000E+00  0.00000000E+00  0.00000000E+00
  0.00000000E+00  0.00000000E+00  0.00000000E+00
  0.00000000E+00  0.00000000E+00  0.00000000E+00
  0.00000000E+00  0.00000000E+00  0.00000000E+00
  0.00000000E+00  0.00000000E+00  0.00000000E+00
  0.00000000E+00  0.00000000E+00  0.00000000E+00
  0.00000000E+00  0.00000000E+00  0.00000000E+00
  0.00000000E+00  0.00000000E+00  0.00000000E+00
  0.00000000E+00  0.00000000E+00  0.00000000E+00
  0.00000000E+00  0.00000000E+00  0.00000000E+00
  0.00000000E+00  0.00000000E+00  0.00000000E+00
  0.00000000E+00  0.00000000E+00  0.00000000E+00
  0.00000000E+00  0.00000000E+00  0.00000000E+00
  0.00000000E+00  0.00000000E+00  0.00000000E+00
  0.00000000E+00  0.00000000E+00  0.00000000E+00
  0.00000000E+00  0.00000000E+00  0.00000000E+00
