Na4 Ti4 O8 F4                           
   1.00000000000000     
     5.4139800803695577    0.0001451217033262    0.0086734766626521
     0.0001388338932167    5.4649342981437457   -0.0002869168150784
     0.0164270079475522   -0.0003989251808979    7.5334997936723482
   Na   Ti   O    F 
     4     4     8     4
Direct
  0.0096866463508754  0.0263217056132585  0.2429402643797979
  0.9998750473060426  0.9631013696773483  0.7597082007115362
  0.5100323439972970  0.4736655259263133  0.7428593933286732
  0.4998543399616021  0.5368500425647759  0.2596926486430030
  0.5103629193381645  0.9924750706611859  0.0010714901324505
  0.0058952474694366  0.4873509874710855  0.9986084938097458
  0.5058483441849639  0.0126709957296877  0.4985716425720089
  0.0104173836619242  0.5075461764675698  0.5010480092571458
  0.1995942318038209  0.2074107692720033  0.9696013010205796
  0.7902999344269585  0.7962282389164945  0.0303526099803146
  0.2902856249583874  0.7037931447188540  0.5303445916047063
  0.6995285954491203  0.2925902658803619  0.4696231866074627
  0.0576279078113810  0.4842590336596730  0.2498600959514189
  0.9348893191339578  0.5170231668277387  0.7498581645506187
  0.5576724994517367  0.0156899660524180  0.7498497775729426
  0.4348531565051367  0.9830073792691459  0.2498551050579765
  0.6892221881554966  0.3069423413188180  0.0384090582675717
  0.3024307750593287  0.6965760344142203  0.9596737438111373
  0.8024294172247948  0.8034318418558971  0.4596561815462513
  0.1891940777495891  0.1930659437031434  0.5384160411946514
 
  0.00000000E+00  0.00000000E+00  0.00000000E+00
  0.00000000E+00  0.00000000E+00  0.00000000E+00
  0.00000000E+00  0.00000000E+00  0.00000000E+00
  0.00000000E+00  0.00000000E+00  0.00000000E+00
  0.00000000E+00  0.00000000E+00  0.00000000E+00
  0.00000000E+00  0.00000000E+00  0.00000000E+00
  0.00000000E+00  0.00000000E+00  0.00000000E+00
  0.00000000E+00  0.00000000E+00  0.00000000E+00
  0.00000000E+00  0.00000000E+00  0.00000000E+00
  0.00000000E+00  0.00000000E+00  0.00000000E+00
  0.00000000E+00  0.00000000E+00  0.00000000E+00
  0.00000000E+00  0.00000000E+00  0.00000000E+00
  0.00000000E+00  0.00000000E+00  0.00000000E+00
  0.00000000E+00  0.00000000E+00  0.00000000E+00
  0.00000000E+00  0.00000000E+00  0.00000000E+00
  0.00000000E+00  0.00000000E+00  0.00000000E+00
  0.00000000E+00  0.00000000E+00  0.00000000E+00
  0.00000000E+00  0.00000000E+00  0.00000000E+00
  0.00000000E+00  0.00000000E+00  0.00000000E+00
  0.00000000E+00  0.00000000E+00  0.00000000E+00
