Ni4 O4 F8                               
   1.00000000000000     
     4.7246533539592637    0.0008703367814170    0.2081009769681273
    -0.0009601791070891    4.9991521852346272   -0.0003082967109171
    -0.1480232364801273    0.0005049963936262    7.0761825473394886
   Ni   O    F 
     4     4     8
Direct
  0.4998405442704610 -0.0000838392036735  0.0003264295578150
 -0.0011760595360435  0.5001802699942796  0.9982647721653388
  0.5012412736897338  0.0002539539220211  0.5016917849070660
  0.0001087963938094  0.4999154918848718  0.4996227559224080
  0.1583260830024513  0.1535723245682240  0.9466808247347678
  0.8404653698531764  0.8459788574437599  0.0540104268040681
  0.3416802902028367  0.6535900227260022  0.5534128575591316
  0.6595303271328159  0.3460102071018866  0.4460383919176688
  0.6432093575580092  0.3132167204347180  0.0741031668714067
  0.3564258724571835  0.6865802050325555  0.9257045401418789
  0.8567882409474967  0.8131325660016488  0.4259191186886056
  0.1435636828220410  0.1864879397724518  0.5742608918050793
  0.1198439809711852  0.4351222309309084  0.2628116701559635
  0.8792311496163510  0.5654540653013848  0.7359866337262646
  0.6207980671137810  0.0654960751931262  0.7640056601568506
  0.3801230235047115  0.9350929088958345  0.2371600748856932
 
  0.00000000E+00  0.00000000E+00  0.00000000E+00
  0.00000000E+00  0.00000000E+00  0.00000000E+00
  0.00000000E+00  0.00000000E+00  0.00000000E+00
  0.00000000E+00  0.00000000E+00  0.00000000E+00
  0.00000000E+00  0.00000000E+00  0.00000000E+00
  0.00000000E+00  0.00000000E+00  0.00000000E+00
  0.00000000E+00  0.00000000E+00  0.00000000E+00
  0.00000000E+00  0.00000000E+00  0.00000000E+00
  0.00000000E+00  0.00000000E+00  0.00000000E+00
  0.00000000E+00  0.00000000E+00  0.00000000E+00
  0.00000000E+00  0.00000000E+00  0.00000000E+00
  0.00000000E+00  0.00000000E+00  0.00000000E+00
  0.00000000E+00  0.00000000E+00  0.00000000E+00
  0.00000000E+00  0.00000000E+00  0.00000000E+00
  0.00000000E+00  0.00000000E+00  0.00000000E+00
  0.00000000E+00  0.00000000E+00  0.00000000E+00
