Cr4 O4 F8                               
   1.00000000000000     
     5.3765338748544798   -0.0133770539340879    0.0350255737363251
    -2.6998537777243707    4.6495247344627462    0.0350579832361136
     0.0350539115779272    0.0607699700863333    9.2185180623060106
   Cr   O    F 
     4     4     8
Direct
  0.3225458605074179  0.6619009558649442  0.6106870959078298
  0.7135642126219240  0.3679069500173776  0.3913464402820757
  0.6619179275519184  0.3225653227066194  0.1106868923073196
  0.3679294855668649  0.7135813283158107  0.8913330449555411
  0.4888378444824504  0.9990661017238724  0.9947592395082848
  0.9990344946143707  0.4888146596748184  0.4947585304071789
  0.8004013437297903  0.6115045902203324  0.2518340898667307
  0.6114948916231219  0.8004035284245750  0.7518441816283580
  0.0043115813647363  0.4913138735633077  0.9950870589292976
  0.5024220295906595  0.5093248094602044  0.0006286888964570
  0.4912988671227773  0.0042920255333037  0.4950895232083201
  0.5093081535775489  0.5024104303465613  0.5006347222235128
  0.1591290993544891  0.3663274647572112  0.7550771660570906
  0.3663217751582589  0.1591110654182761  0.2550731040644934
  0.8241196439196403  0.1773649063877201  0.2505801951447986
  0.1773627892140173  0.8241119875850652  0.7505800266127040
 
  0.00000000E+00  0.00000000E+00  0.00000000E+00
  0.00000000E+00  0.00000000E+00  0.00000000E+00
  0.00000000E+00  0.00000000E+00  0.00000000E+00
  0.00000000E+00  0.00000000E+00  0.00000000E+00
  0.00000000E+00  0.00000000E+00  0.00000000E+00
  0.00000000E+00  0.00000000E+00  0.00000000E+00
  0.00000000E+00  0.00000000E+00  0.00000000E+00
  0.00000000E+00  0.00000000E+00  0.00000000E+00
  0.00000000E+00  0.00000000E+00  0.00000000E+00
  0.00000000E+00  0.00000000E+00  0.00000000E+00
  0.00000000E+00  0.00000000E+00  0.00000000E+00
  0.00000000E+00  0.00000000E+00  0.00000000E+00
  0.00000000E+00  0.00000000E+00  0.00000000E+00
  0.00000000E+00  0.00000000E+00  0.00000000E+00
  0.00000000E+00  0.00000000E+00  0.00000000E+00
  0.00000000E+00  0.00000000E+00  0.00000000E+00
