V4 O4 F8                                
   1.00000000000000     
     5.4912771109073946    0.0064016131171551   -0.0049955177901639
    -2.7400839222376967    4.7459389461088497    0.0099666686510952
    -0.0098958864444587    0.0170550663493369    9.2370126598427618
   V    O    F 
     4     4     8
Direct
  0.3434426820209214  0.6465400747591176  0.5980645542524773
  0.6991775425825294  0.3593495410742366  0.4022102886246804
  0.6565511862656987  0.3031025972490526  0.0980595766572861
  0.3007763615389430  0.6601444112877887  0.9022064992193003
  0.5042906096146554  0.0095826286907949  0.9983376117617149
  0.0055709781632019  0.5081356386798715 -0.0000451675987679
  0.9943974070682075  0.5025206544252061  0.4999756591967940
  0.4957489761653352  0.5053155345049809  0.4983521776314409
  0.5127890914415176  0.5168336348006425  0.0014755019379370
  0.4872283104903109  0.0040622464854043  0.5014862260452231
  0.8182311807068546  0.6257975816963474  0.2451558978529051
  0.1833189241031602  0.3664702975377291  0.7526088458317121
  0.3837633070631095  0.1925652178741509  0.2521723511650343
  0.6162382545610263  0.8088175783833176  0.7521850077075277
  0.8166900264741616  0.1831805933407935  0.2526070583213237
  0.1817851617403524  0.8075817692105589  0.7451479113934114
 
  0.00000000E+00  0.00000000E+00  0.00000000E+00
  0.00000000E+00  0.00000000E+00  0.00000000E+00
  0.00000000E+00  0.00000000E+00  0.00000000E+00
  0.00000000E+00  0.00000000E+00  0.00000000E+00
  0.00000000E+00  0.00000000E+00  0.00000000E+00
  0.00000000E+00  0.00000000E+00  0.00000000E+00
  0.00000000E+00  0.00000000E+00  0.00000000E+00
  0.00000000E+00  0.00000000E+00  0.00000000E+00
  0.00000000E+00  0.00000000E+00  0.00000000E+00
  0.00000000E+00  0.00000000E+00  0.00000000E+00
  0.00000000E+00  0.00000000E+00  0.00000000E+00
  0.00000000E+00  0.00000000E+00  0.00000000E+00
  0.00000000E+00  0.00000000E+00  0.00000000E+00
  0.00000000E+00  0.00000000E+00  0.00000000E+00
  0.00000000E+00  0.00000000E+00  0.00000000E+00
  0.00000000E+00  0.00000000E+00  0.00000000E+00
