Ti10 O10                                
   1.00000000000000     
     5.9772090710441219    0.0860190260572618   -0.0034446870434680
    -2.7376365733983419    9.0198324878288005    0.0036573228771042
    -0.0023777282207845    0.0009918103851727    4.2514774215629441
   Ti   O 
    10    10
Direct
  0.4999479885238713  0.0000062161269270  0.0000108566610422
  0.4999474371562869  0.5000060384645906  0.5000104475278278
  0.1672439989231407  0.3392309628908663  0.9999257990062915
  0.8326712563025112  0.6606713233483887  0.0000795536771108
  0.1672259334512418  0.8392406160187065  0.4999307195523599
  0.8326985362545045  0.1606640035503020  0.5000721908980452
  0.6648918512014745  0.3565765777592986  0.9999774708152174
  0.3353326394304617  0.6434912723385722  0.0000282526538271
  0.6649011333304031  0.8565795403871803  0.4999978381573982
  0.3353247386112983  0.1434883756663297  0.5000069269799781
  0.3468495278498551  0.1802833449761607  0.9999193638833859
  0.6531003377018223  0.8197422203051445  0.0001001473448241
  0.3468450868556090  0.6802780832124142  0.4999598210874865
  0.6531031783993555  0.3197456783719872  0.5000560431208285
  0.8294482084874772  0.1769633020099093  0.9999512489377622
  0.1704690062134304  0.8230289491587754  0.0000247564491289
  0.8294475713107730  0.6769552996086077  0.4999053646858158
  0.1704687439362473  0.3230344783215884  0.5000603523014320
  0.0000417216558759  0.5000062384661348  0.9999899862119221
  0.0000411044043744  0.0000074790181230  0.4999928600483159
 
  0.00000000E+00  0.00000000E+00  0.00000000E+00
  0.00000000E+00  0.00000000E+00  0.00000000E+00
  0.00000000E+00  0.00000000E+00  0.00000000E+00
  0.00000000E+00  0.00000000E+00  0.00000000E+00
  0.00000000E+00  0.00000000E+00  0.00000000E+00
  0.00000000E+00  0.00000000E+00  0.00000000E+00
  0.00000000E+00  0.00000000E+00  0.00000000E+00
  0.00000000E+00  0.00000000E+00  0.00000000E+00
  0.00000000E+00  0.00000000E+00  0.00000000E+00
  0.00000000E+00  0.00000000E+00  0.00000000E+00
  0.00000000E+00  0.00000000E+00  0.00000000E+00
  0.00000000E+00  0.00000000E+00  0.00000000E+00
  0.00000000E+00  0.00000000E+00  0.00000000E+00
  0.00000000E+00  0.00000000E+00  0.00000000E+00
  0.00000000E+00  0.00000000E+00  0.00000000E+00
  0.00000000E+00  0.00000000E+00  0.00000000E+00
  0.00000000E+00  0.00000000E+00  0.00000000E+00
  0.00000000E+00  0.00000000E+00  0.00000000E+00
  0.00000000E+00  0.00000000E+00  0.00000000E+00
  0.00000000E+00  0.00000000E+00  0.00000000E+00
