Disodium hexatitanate                   
   1.00000000000000     
    15.1431720354954678    0.0000005853818780    0.1604329484163682
     0.0000001453851190    3.7882841000847569   -0.0000001460442350
    -1.3960546569869261   -0.0000004076681943    9.1056776030100757
   Na   Ti   O 
     4    12    26
Direct
  0.4626414572186661  0.0000000544757768  0.2669597234048666
  0.5373626221729921  0.0000000393776887  0.7330191814983849
  0.9626414725171557  0.5000000553893642  0.2669597688518337
  0.0373626190920859  0.5000000426728306  0.7330191701457665
  0.1143143555862736  0.0000000638605044  0.0985694730246323
  0.8856885293603156  0.0000000289741067  0.9014301503884923
  0.6143143585267836  0.5000000498077739  0.0985694778108410
  0.3856885328509350  0.5000000458196681  0.9014301532045152
  0.1660931375251309  0.0000000557541497  0.4372285707580019
  0.8339162509892759  0.0000000391000086  0.5627745228862935
  0.6660931315567353  0.5000000368057869  0.4372285677947332
  0.3339162545497061  0.5000000584832165  0.5627745234922443
  0.2301308531491841  0.0000000613438758  0.7703477978484514
  0.7698763544523430  0.0000000436994725  0.2296632029473855
  0.7301308532196771  0.5000000069736572  0.7703477995314216
  0.2698763518639993  0.5000000921425283  0.2296632016865274
  0.9999883967081047  0.0000000531575637  0.0000231811215770
  0.4999883953688524  0.5000000548429213  0.0000231842249789
  0.2388008342500072  0.0000000783287817  0.2475466032139053
  0.7611923096351276  0.9999979676807058  0.7524311076309402
  0.7388008322547535  0.5000000435022258  0.2475466035598259
  0.2611924088276254  0.5000000574749919  0.7524309358792820
  0.0684868681457402  0.0000000491588423  0.2952460042506075
  0.9315188815315736  0.0000000502930320  0.7047732761768160
  0.5684868660497813  0.5000000378706417  0.2952459976275961
  0.4315188834651664  0.5000000587092259  0.7047732803305635
  0.2968093547970199  0.0000000593531482  0.5696501796517381
  0.7032089522400042  0.0000000369087516  0.4303401245873317
  0.7968093510905661  0.5000000354205554  0.5696501790436486
  0.2032089544606350  0.5000000600106702  0.4303401261346593
  0.1266694063328515  0.0000000519707086  0.6189047096573006
  0.8733467503860695  0.0000000395892883  0.3810990173356714
  0.6266694045336152  0.5000000292778566  0.6189047078010432
  0.3733467479139705  0.5000000642030287  0.3810990152067006
  0.3576284218308459  0.0000000512776452  0.8780641042450767
  0.6423506908193346  0.0000000452213413  0.1219445843738711
  0.8576284220414720  0.5000000282524582  0.8780641004984489
  0.1423506836023520  0.5000000661852226  0.1219445880518037
  0.1657398877401306  0.0000000512971070  0.9181739571734369
  0.8342356488585239  0.0000000561260549  0.0818106030542154
  0.6657398845637132  0.5000000299203364  0.9181739547058854
  0.3342356499209131  0.5000000692864788  0.0818106051886787
 
  0.00000000E+00  0.00000000E+00  0.00000000E+00
  0.00000000E+00  0.00000000E+00  0.00000000E+00
  0.00000000E+00  0.00000000E+00  0.00000000E+00
  0.00000000E+00  0.00000000E+00  0.00000000E+00
  0.00000000E+00  0.00000000E+00  0.00000000E+00
  0.00000000E+00  0.00000000E+00  0.00000000E+00
  0.00000000E+00  0.00000000E+00  0.00000000E+00
  0.00000000E+00  0.00000000E+00  0.00000000E+00
  0.00000000E+00  0.00000000E+00  0.00000000E+00
  0.00000000E+00  0.00000000E+00  0.00000000E+00
  0.00000000E+00  0.00000000E+00  0.00000000E+00
  0.00000000E+00  0.00000000E+00  0.00000000E+00
  0.00000000E+00  0.00000000E+00  0.00000000E+00
  0.00000000E+00  0.00000000E+00  0.00000000E+00
  0.00000000E+00  0.00000000E+00  0.00000000E+00
  0.00000000E+00  0.00000000E+00  0.00000000E+00
  0.00000000E+00  0.00000000E+00  0.00000000E+00
  0.00000000E+00  0.00000000E+00  0.00000000E+00
  0.00000000E+00  0.00000000E+00  0.00000000E+00
  0.00000000E+00  0.00000000E+00  0.00000000E+00
  0.00000000E+00  0.00000000E+00  0.00000000E+00
  0.00000000E+00  0.00000000E+00  0.00000000E+00
  0.00000000E+00  0.00000000E+00  0.00000000E+00
  0.00000000E+00  0.00000000E+00  0.00000000E+00
  0.00000000E+00  0.00000000E+00  0.00000000E+00
  0.00000000E+00  0.00000000E+00  0.00000000E+00
  0.00000000E+00  0.00000000E+00  0.00000000E+00
  0.00000000E+00  0.00000000E+00  0.00000000E+00
  0.00000000E+00  0.00000000E+00  0.00000000E+00
  0.00000000E+00  0.00000000E+00  0.00000000E+00
  0.00000000E+00  0.00000000E+00  0.00000000E+00
  0.00000000E+00  0.00000000E+00  0.00000000E+00
  0.00000000E+00  0.00000000E+00  0.00000000E+00
  0.00000000E+00  0.00000000E+00  0.00000000E+00
  0.00000000E+00  0.00000000E+00  0.00000000E+00
  0.00000000E+00  0.00000000E+00  0.00000000E+00
  0.00000000E+00  0.00000000E+00  0.00000000E+00
  0.00000000E+00  0.00000000E+00  0.00000000E+00
  0.00000000E+00  0.00000000E+00  0.00000000E+00
  0.00000000E+00  0.00000000E+00  0.00000000E+00
  0.00000000E+00  0.00000000E+00  0.00000000E+00
  0.00000000E+00  0.00000000E+00  0.00000000E+00
