Ni4 O4 F8                               
   1.00000000000000     
     4.9472591593438828   -0.0931554993905480   -0.1123451255678345
    -0.1196135240199832    5.1254426609114097    0.0825966177464619
    -0.0735581298345017    0.0624963576100949    7.3490810007730882
   Ni   O    F 
     4     4     8
Direct
  0.5046522555990502  0.0064834917095097  0.0058667047755874
  0.0132054103405395  0.4996791781043177  0.0019871131010552
  0.5134644893192615  0.9956710114662232  0.4988128603868525
  0.0009322925384410  0.5030710561069351  0.5099273008870310
  0.8168654371273923  0.8147852831994032  0.0292414752552270
  0.1940904181575032  0.1966783719732300  0.5288393358193141
  0.0878485511554918  0.5029092547626688  0.2521839599856178
  0.5764647038858147  0.0479860506295974  0.7474828586803450
  0.6730883800616784  0.3290898454131174  0.0722648413955321
  0.3346888308214646  0.6786335190225371  0.9304187897258959
  0.1537838086801397  0.1596778508979418  0.9578733039086398
  0.3431490844684811  0.6709988129291565  0.5752195802030009
  0.6712494788687354  0.3290056455927458  0.4262232974070016
  0.8573550777789487  0.8459877270803762  0.4596537278604423
  0.8697261626421084  0.4940611500841554  0.7518935979377461
  0.3894356185549494  0.9252817510280850  0.2521112526707253
 
  0.00000000E+00  0.00000000E+00  0.00000000E+00
  0.00000000E+00  0.00000000E+00  0.00000000E+00
  0.00000000E+00  0.00000000E+00  0.00000000E+00
  0.00000000E+00  0.00000000E+00  0.00000000E+00
  0.00000000E+00  0.00000000E+00  0.00000000E+00
  0.00000000E+00  0.00000000E+00  0.00000000E+00
  0.00000000E+00  0.00000000E+00  0.00000000E+00
  0.00000000E+00  0.00000000E+00  0.00000000E+00
  0.00000000E+00  0.00000000E+00  0.00000000E+00
  0.00000000E+00  0.00000000E+00  0.00000000E+00
  0.00000000E+00  0.00000000E+00  0.00000000E+00
  0.00000000E+00  0.00000000E+00  0.00000000E+00
  0.00000000E+00  0.00000000E+00  0.00000000E+00
  0.00000000E+00  0.00000000E+00  0.00000000E+00
  0.00000000E+00  0.00000000E+00  0.00000000E+00
  0.00000000E+00  0.00000000E+00  0.00000000E+00
