Na8 Ti8 O16 F8                          
   1.00000000000000     
     7.8128459847499760    0.0000000196349372    0.0000000135252411
     0.0000000198691779    7.6387270810185841    0.0000000685637425
     0.0000000126768372    0.0000000693515395    7.8128163614389674
   Na   Ti   O    F 
     8     8    16     8
Direct
  0.2500009999147487  0.2499991593742115  0.2500000032475132
  0.2500010153463207  0.2499992777596735  0.7499999945559370
  0.2500009610152124  0.7500008167022627  0.2499999498771645
  0.2500009608364322  0.7500006945953929  0.7500000595435906
  0.7500010001439463  0.2499991909146605  0.2500000290530495
  0.7500009530655306  0.2499993227356205  0.7499999686941459
  0.7500010112857222  0.7500008807631134  0.2499999893374306
  0.7500009695642289  0.7500007144814498  0.7500000312775731
  0.0000294735778315  0.9999999341304988  0.9999999909308849
  0.0000293245448243  0.0000001132664245  0.5000000175797468
  0.0000010452475740  0.5000000488078945  0.0000000368268842
  0.0000010842528737  0.4999998938276285  0.4999999444724433
  0.5000291658336908  0.0000000791606393  0.0000000718960826
  0.5000293032853504 -0.0000005990754982  0.4999999378140230
  0.5000010444509112  0.4999999302933634  0.0000003514386906
  0.5000010021092185  0.5000005896557085  0.4999996499602787
  0.2499779093401651  0.9999999901381915  0.0000000000559030
  0.2499779538065380 -0.0000000074058080  0.4999999853835870
  0.7499779995943073  0.0000000035813164 -0.0000000111153104
  0.7499779481170987  0.0000000054487901  0.5000000209230052
  0.9999981666400203  0.2500036551149468  0.0000000406300655
  0.9999982003134393  0.2500037583302413  0.4999999629978270
  0.9999981663477471  0.7499963359633112  0.0000000289269107
  0.9999982078540656  0.7499962377445739  0.4999999676491602
  0.4999982123146207  0.2500037386998435  0.0000000211794233
  0.4999981865474724  0.2500037782117120  0.4999999703547184
  0.4999982073056047  0.7499962657068637  0.0000000098780098
  0.4999981905041976  0.7499962318385950  0.4999999929793081
  0.0000003578301795  0.4999999692551632  0.2500000065363412
  0.0000003596015072  0.4999999836441416  0.7499999856971168
  0.5000003537849812  0.5000000123753551  0.2499999921640279
  0.5000003637903656  0.5000000239956016  0.7500000016402931
  0.2499979185811682  0.5000000185258123  0.0000000349463453
  0.2499979028463405  0.4999999797116254  0.4999999557420989
  0.7499978995426496  0.4999999884642465  0.0000000138123396
  0.7499979346344827  0.4999999771044781  0.4999999715731588
  0.9999950539556401  0.0000000332019056  0.2499999523593114
  0.9999950518210242  0.0000000168745352  0.7500000561707647
  0.4999950653149550  0.9999999855192582  0.2499999776536117
  0.4999950751370128  0.9999999705622488  0.7500000353565301
 
  0.00000000E+00  0.00000000E+00  0.00000000E+00
  0.00000000E+00  0.00000000E+00  0.00000000E+00
  0.00000000E+00  0.00000000E+00  0.00000000E+00
  0.00000000E+00  0.00000000E+00  0.00000000E+00
  0.00000000E+00  0.00000000E+00  0.00000000E+00
  0.00000000E+00  0.00000000E+00  0.00000000E+00
  0.00000000E+00  0.00000000E+00  0.00000000E+00
  0.00000000E+00  0.00000000E+00  0.00000000E+00
  0.00000000E+00  0.00000000E+00  0.00000000E+00
  0.00000000E+00  0.00000000E+00  0.00000000E+00
  0.00000000E+00  0.00000000E+00  0.00000000E+00
  0.00000000E+00  0.00000000E+00  0.00000000E+00
  0.00000000E+00  0.00000000E+00  0.00000000E+00
  0.00000000E+00  0.00000000E+00  0.00000000E+00
  0.00000000E+00  0.00000000E+00  0.00000000E+00
  0.00000000E+00  0.00000000E+00  0.00000000E+00
  0.00000000E+00  0.00000000E+00  0.00000000E+00
  0.00000000E+00  0.00000000E+00  0.00000000E+00
  0.00000000E+00  0.00000000E+00  0.00000000E+00
  0.00000000E+00  0.00000000E+00  0.00000000E+00
  0.00000000E+00  0.00000000E+00  0.00000000E+00
  0.00000000E+00  0.00000000E+00  0.00000000E+00
  0.00000000E+00  0.00000000E+00  0.00000000E+00
  0.00000000E+00  0.00000000E+00  0.00000000E+00
  0.00000000E+00  0.00000000E+00  0.00000000E+00
  0.00000000E+00  0.00000000E+00  0.00000000E+00
  0.00000000E+00  0.00000000E+00  0.00000000E+00
  0.00000000E+00  0.00000000E+00  0.00000000E+00
  0.00000000E+00  0.00000000E+00  0.00000000E+00
  0.00000000E+00  0.00000000E+00  0.00000000E+00
  0.00000000E+00  0.00000000E+00  0.00000000E+00
  0.00000000E+00  0.00000000E+00  0.00000000E+00
  0.00000000E+00  0.00000000E+00  0.00000000E+00
  0.00000000E+00  0.00000000E+00  0.00000000E+00
  0.00000000E+00  0.00000000E+00  0.00000000E+00
  0.00000000E+00  0.00000000E+00  0.00000000E+00
  0.00000000E+00  0.00000000E+00  0.00000000E+00
  0.00000000E+00  0.00000000E+00  0.00000000E+00
  0.00000000E+00  0.00000000E+00  0.00000000E+00
  0.00000000E+00  0.00000000E+00  0.00000000E+00
