V8 O8 F16                               
   1.00000000000000     
     7.4225586402105019   -0.0000000149633348    0.0000003081495736
    -0.0000000176683435    7.7269185404744158   -0.0000000487219141
     0.0000003330411588   -0.0000000452110782    7.4226642596375694
   V    O    F 
     8     8    16
Direct
  0.9999906996844743  0.9999999988205133  0.0000000018430768
  0.9999907141409849  0.0000000045479993  0.4999999964784223
  0.9999998016522795  0.4999999995873452  0.9999999740350205
  0.9999998788045588  0.4999999999052420  0.4999999736477676
  0.4999906589902139  0.0000000019376145  0.9999999969902333
  0.4999906966603191  0.9999999977784313  0.4999999972400744
  0.4999998021562675  0.5000000020844411  0.9999999905920518
  0.4999998354691257  0.4999999979506953  0.4999999895544960
  0.2500195177620128  0.0000001216805359  0.5000000437117222
  0.9999937234593830  0.4999993490579371  0.2500000711153163
  0.9999937114706725  0.5000006491595386  0.7499999605446916
  0.4999937474644653  0.5000006168350666  0.2500000240676528
  0.4999937020792586  0.4999993838695502  0.7499999889946025
  0.2500194944003837  0.9999998727555024  0.9999999843637895
  0.7500194817700603  0.0000001291222134  0.0000000183700308
  0.7500194414629107  0.9999998762813007  0.4999999617816400
  0.9999954073339481  0.9999999747040462  0.2499999975024565
  0.4999954243517806  0.9999999711260799  0.7500000149466075
  0.2500053558578585  0.4999999979082048  0.5000000204646682
  0.7500052308184522  0.4999999997766551  0.9999999997941345
  0.7500052906364587  0.4999999997051390  0.4999999741659096
  0.9999978061311907  0.7500305474353794  0.9999998316697756
  0.4999977950987216  0.2499692389023664  0.9999998361030933
  0.9999954611973223  0.0000000278549948  0.7500000008692851
  0.4999954392034525  0.0000000285577713  0.2499999779877413
  0.2500052485005426  0.4999999978569249  0.0000000190728073
  0.9999977469298926  0.2499694422841259  0.0000001846491671
  0.9999978132328451  0.2499693328328831  0.4999999381687772
  0.9999977494951153  0.7500306790131077  0.5000000582220636
  0.4999977730818301  0.2499691787050935  0.5000000405543403
  0.4999977625765908  0.7500307702006026  0.0000001723565504
  0.4999977881266489  0.7500308117626773  0.4999999601420342
 
  0.00000000E+00  0.00000000E+00  0.00000000E+00
  0.00000000E+00  0.00000000E+00  0.00000000E+00
  0.00000000E+00  0.00000000E+00  0.00000000E+00
  0.00000000E+00  0.00000000E+00  0.00000000E+00
  0.00000000E+00  0.00000000E+00  0.00000000E+00
  0.00000000E+00  0.00000000E+00  0.00000000E+00
  0.00000000E+00  0.00000000E+00  0.00000000E+00
  0.00000000E+00  0.00000000E+00  0.00000000E+00
  0.00000000E+00  0.00000000E+00  0.00000000E+00
  0.00000000E+00  0.00000000E+00  0.00000000E+00
  0.00000000E+00  0.00000000E+00  0.00000000E+00
  0.00000000E+00  0.00000000E+00  0.00000000E+00
  0.00000000E+00  0.00000000E+00  0.00000000E+00
  0.00000000E+00  0.00000000E+00  0.00000000E+00
  0.00000000E+00  0.00000000E+00  0.00000000E+00
  0.00000000E+00  0.00000000E+00  0.00000000E+00
  0.00000000E+00  0.00000000E+00  0.00000000E+00
  0.00000000E+00  0.00000000E+00  0.00000000E+00
  0.00000000E+00  0.00000000E+00  0.00000000E+00
  0.00000000E+00  0.00000000E+00  0.00000000E+00
  0.00000000E+00  0.00000000E+00  0.00000000E+00
  0.00000000E+00  0.00000000E+00  0.00000000E+00
  0.00000000E+00  0.00000000E+00  0.00000000E+00
  0.00000000E+00  0.00000000E+00  0.00000000E+00
  0.00000000E+00  0.00000000E+00  0.00000000E+00
  0.00000000E+00  0.00000000E+00  0.00000000E+00
  0.00000000E+00  0.00000000E+00  0.00000000E+00
  0.00000000E+00  0.00000000E+00  0.00000000E+00
  0.00000000E+00  0.00000000E+00  0.00000000E+00
  0.00000000E+00  0.00000000E+00  0.00000000E+00
  0.00000000E+00  0.00000000E+00  0.00000000E+00
  0.00000000E+00  0.00000000E+00  0.00000000E+00
