Cr4 O4 F8                               
   1.00000000000000     
     4.9033417119872897    0.1287656360743814    0.0275945447858927
     0.1155480513220880    5.1362018223063872    0.0003757579325507
    -0.0347045589596020   -0.0079216902444422    7.2669516545514172
   Cr   O    F 
     4     4     8
Direct
  0.5000723980646394  0.0001627469559613  0.0000619794662292
 -0.0000297056028557  0.5000921715758753  0.9999373515070485
  0.5000604679439886  0.9997909901946602  0.5000922662463612
 -0.0000385999889693  0.4999403610978893  0.4999866464969255
  0.2050893860185613  0.2227388477081160  0.9613893696008887
  0.7947778099699564  0.7773131123890665  0.0387208539283932
  0.7805295198172740  0.7908657468544354  0.4612391388837606
  0.2194195966190032  0.2089668326322486  0.5385412367766116
  0.1225594418271399  0.4979900013017173  0.2496994063591134
  0.8771753679219609  0.5019712254774891  0.7502772613262996
  0.6154981585853073  0.0356629942746505  0.7498417457374061
  0.3847555047489703  0.9645522033632358  0.2502208163526720
  0.7017571325639336  0.2944871432818694  0.0669281280209681
  0.2981716787171953  0.7057918978802189  0.9329967773323803
  0.2980798416972605  0.7063252174170582  0.5666774521816531
  0.7021220010966269  0.2933485075955014  0.4333895697832891
 
  0.00000000E+00  0.00000000E+00  0.00000000E+00
  0.00000000E+00  0.00000000E+00  0.00000000E+00
  0.00000000E+00  0.00000000E+00  0.00000000E+00
  0.00000000E+00  0.00000000E+00  0.00000000E+00
  0.00000000E+00  0.00000000E+00  0.00000000E+00
  0.00000000E+00  0.00000000E+00  0.00000000E+00
  0.00000000E+00  0.00000000E+00  0.00000000E+00
  0.00000000E+00  0.00000000E+00  0.00000000E+00
  0.00000000E+00  0.00000000E+00  0.00000000E+00
  0.00000000E+00  0.00000000E+00  0.00000000E+00
  0.00000000E+00  0.00000000E+00  0.00000000E+00
  0.00000000E+00  0.00000000E+00  0.00000000E+00
  0.00000000E+00  0.00000000E+00  0.00000000E+00
  0.00000000E+00  0.00000000E+00  0.00000000E+00
  0.00000000E+00  0.00000000E+00  0.00000000E+00
  0.00000000E+00  0.00000000E+00  0.00000000E+00
