Na8 Ti8 O16 F8                          
   1.00000000000000     
     7.7469656804799829   -0.0005406575210408    0.0188924548388423
    -0.0005171410423229    7.6350841961229712    0.0008622172647797
     0.0091162448812052    0.0008731989177316    7.6332954829498734
   Na   Ti   O    F 
     8     8    16     8
Direct
  0.2490245666774433  0.2485236244732124  0.2463125354675718
  0.2457739027005000  0.2487009369591950  0.7490854397337183
  0.2474412498259084  0.7522376062760118  0.2446190711766558
  0.2443446151432177  0.7516783138717505  0.7486392910947208
  0.7564847810978284  0.2551289212061090  0.2315085061173163
  0.7713329561420734  0.2452531008583284  0.7628025201876997
  0.7563454470332981  0.7450275881525609  0.2320862692166854
  0.7713450711888268  0.7547388270814209  0.7628327013224402
  0.0172922575821445  0.0001000810591191  0.0095485896474500
  0.9907498035802192  0.0000677475783513  0.4811885496627120
  0.0007734086969935  0.4999701283190888 -0.0033538673420550
 -0.0031616548958114  0.4999244693148878  0.4982034017264623
  0.5089279721798520 -0.0000168521884411  0.0021001792151647
  0.5171117645977307 -0.0000100844758750  0.4950213175814738
  0.4943453476814679  0.4999761040990975 -0.0108550462852128
  0.4997765761761389  0.4999944735569485  0.4917798460034994
  0.2507250987613431 -0.0000865374207308  0.9442598857763355
  0.7429685125931094 -0.0001016486778360  0.0459711138002473
  0.7466646583511036  0.0006545179576149  0.4377898988483289
  0.9933843600441535  0.2516242886017847 -0.0002119726306200
  0.0018619257676609  0.2486607543890003  0.5108201521665375
  0.9935154087159215  0.7483361261721919  0.0001930908840405
  0.0004613034676207  0.7512988769956395  0.5104588032868212
  0.4949265765826164  0.2509559346334284  0.0062104564246939
  0.4878910003917669  0.2456182205239974  0.5015645948268030
  0.4950708003867090  0.7488702062408220  0.0047066902439717
  0.4897952268881285  0.7542399204154895  0.5031681176063757
  0.0641245050529195  0.0002839008302459  0.2532194705364920
  0.9478939268927651  0.4998102259662024  0.2560457629789097
  0.0492100385837885  0.5001973187964033  0.7537343105530846
  0.5511238685135645  0.5004060070264902  0.2556491355468418
  0.4445061715176364  0.4992950215818969  0.7515278345579234
  0.2503614367545821  0.9993251319885803  0.5625394990553798
  0.2477010383877206  0.4999015149389481  0.0690847876705552
  0.2480201659900408  0.5008856633977314  0.4351030162278249
  0.7469554017124406  0.4997563999690209  0.9383123181138556
  0.7463707482300429  0.4989635069133710  0.5693375518692781
  0.9398976210865432 -0.0001583233160008  0.7485592768584201
  0.4283797152226831 -0.0010726929678278  0.2532653831215118
  0.5702824246973170  0.0010406789017841  0.7471715171501062
 
  0.00000000E+00  0.00000000E+00  0.00000000E+00
  0.00000000E+00  0.00000000E+00  0.00000000E+00
  0.00000000E+00  0.00000000E+00  0.00000000E+00
  0.00000000E+00  0.00000000E+00  0.00000000E+00
  0.00000000E+00  0.00000000E+00  0.00000000E+00
  0.00000000E+00  0.00000000E+00  0.00000000E+00
  0.00000000E+00  0.00000000E+00  0.00000000E+00
  0.00000000E+00  0.00000000E+00  0.00000000E+00
  0.00000000E+00  0.00000000E+00  0.00000000E+00
  0.00000000E+00  0.00000000E+00  0.00000000E+00
  0.00000000E+00  0.00000000E+00  0.00000000E+00
  0.00000000E+00  0.00000000E+00  0.00000000E+00
  0.00000000E+00  0.00000000E+00  0.00000000E+00
  0.00000000E+00  0.00000000E+00  0.00000000E+00
  0.00000000E+00  0.00000000E+00  0.00000000E+00
  0.00000000E+00  0.00000000E+00  0.00000000E+00
  0.00000000E+00  0.00000000E+00  0.00000000E+00
  0.00000000E+00  0.00000000E+00  0.00000000E+00
  0.00000000E+00  0.00000000E+00  0.00000000E+00
  0.00000000E+00  0.00000000E+00  0.00000000E+00
  0.00000000E+00  0.00000000E+00  0.00000000E+00
  0.00000000E+00  0.00000000E+00  0.00000000E+00
  0.00000000E+00  0.00000000E+00  0.00000000E+00
  0.00000000E+00  0.00000000E+00  0.00000000E+00
  0.00000000E+00  0.00000000E+00  0.00000000E+00
  0.00000000E+00  0.00000000E+00  0.00000000E+00
  0.00000000E+00  0.00000000E+00  0.00000000E+00
  0.00000000E+00  0.00000000E+00  0.00000000E+00
  0.00000000E+00  0.00000000E+00  0.00000000E+00
  0.00000000E+00  0.00000000E+00  0.00000000E+00
  0.00000000E+00  0.00000000E+00  0.00000000E+00
  0.00000000E+00  0.00000000E+00  0.00000000E+00
  0.00000000E+00  0.00000000E+00  0.00000000E+00
  0.00000000E+00  0.00000000E+00  0.00000000E+00
  0.00000000E+00  0.00000000E+00  0.00000000E+00
  0.00000000E+00  0.00000000E+00  0.00000000E+00
  0.00000000E+00  0.00000000E+00  0.00000000E+00
  0.00000000E+00  0.00000000E+00  0.00000000E+00
  0.00000000E+00  0.00000000E+00  0.00000000E+00
  0.00000000E+00  0.00000000E+00  0.00000000E+00
