Trisodium cobalt(I) oxide               
   1.00000000000000     
     9.2794541820086938    0.0000479435084861    0.0000128025849630
     0.0000257873985602    9.2784607333590046   -0.0000024503885555
     0.0000036940597574    0.0000127681001408    4.5821300157778904
   Co   Na   O 
     4    12     8
Direct
  0.3228229909011259  0.3228192348636989  0.0000003732669931
  0.6771916370523385  0.6771758759230928  0.0000001431866499
  0.1771851742349085  0.8228213775823029  0.5000000674225505
  0.8228242353464302  0.1771826946077051  0.4999994923897418
  0.3567310397810412  0.6432676246470006 -0.0000000472486979
  0.6432665452264308  0.3567334115889585 -0.0000000146556637
  0.8567322593300662  0.8567333153026677  0.4999998379456723
  0.1432669185872882  0.1432669204025327  0.5000001729190477
  0.0264755216835200  0.6563001396146499  0.0000002000494360
  0.9735123407181626  0.3436939737971542  0.9999992157989215
  0.8437143913676003  0.5264727523990596  0.4999993574882698
  0.1562886404323123  0.4735249698615619  0.4999985027371477
  0.4735136949829939  0.1563040102842959  0.5000009839730339
  0.5264747207773430  0.8436988343246213  0.5000010315379851
  0.6562884091199875  0.0264750378504799  0.0000009680206351
  0.3437133671347927  0.9735301396035891 -0.0000003609421219
  0.1938948771263528  0.4612014088961255  0.9999990732699522
  0.8060935886888516  0.5387742866471155  0.9999987431482467
  0.0387621263070122  0.6939258668045286  0.5000014113577385
  0.9612486636033147  0.3060712740392397  0.4999964398076061
  0.3060888496248766  0.9612249597947770  0.4999993501469985
  0.6938986814007223  0.0387984285498816  0.5000014145397209
  0.4612506173229080  0.1939273121453207  0.0000040313431187
  0.5387607222496172  0.8060761634696165 -0.0000003875029898
 
  0.00000000E+00  0.00000000E+00  0.00000000E+00
  0.00000000E+00  0.00000000E+00  0.00000000E+00
  0.00000000E+00  0.00000000E+00  0.00000000E+00
  0.00000000E+00  0.00000000E+00  0.00000000E+00
  0.00000000E+00  0.00000000E+00  0.00000000E+00
  0.00000000E+00  0.00000000E+00  0.00000000E+00
  0.00000000E+00  0.00000000E+00  0.00000000E+00
  0.00000000E+00  0.00000000E+00  0.00000000E+00
  0.00000000E+00  0.00000000E+00  0.00000000E+00
  0.00000000E+00  0.00000000E+00  0.00000000E+00
  0.00000000E+00  0.00000000E+00  0.00000000E+00
  0.00000000E+00  0.00000000E+00  0.00000000E+00
  0.00000000E+00  0.00000000E+00  0.00000000E+00
  0.00000000E+00  0.00000000E+00  0.00000000E+00
  0.00000000E+00  0.00000000E+00  0.00000000E+00
  0.00000000E+00  0.00000000E+00  0.00000000E+00
  0.00000000E+00  0.00000000E+00  0.00000000E+00
  0.00000000E+00  0.00000000E+00  0.00000000E+00
  0.00000000E+00  0.00000000E+00  0.00000000E+00
  0.00000000E+00  0.00000000E+00  0.00000000E+00
  0.00000000E+00  0.00000000E+00  0.00000000E+00
  0.00000000E+00  0.00000000E+00  0.00000000E+00
  0.00000000E+00  0.00000000E+00  0.00000000E+00
  0.00000000E+00  0.00000000E+00  0.00000000E+00
