V4 O4 F8                                
   1.00000000000000     
     5.1196786521209523   -0.0000145001944669    0.0000083746279430
     0.0000022703399438    5.2751299571219272    0.0073542160852373
    -0.0000258185003373   -0.0108965342414683    7.2798371947635463
   V    O    F 
     4     4     8
Direct
  0.4842850919601956  0.9976321923879861  0.0334880029593231
  0.9842819001878328  0.5023660711015165  0.9665025033823873
  0.5157241066977079  0.0023556681178543  0.5334951882887548
  0.0157256308966996  0.4976432203451083  0.4665146337789510
  0.0807890364433534  0.4803927344796779  0.2455836708653278
  0.9192340360619347  0.5196928385695818  0.7455882798540254
  0.5807820369761337  0.0196061699564565  0.7544107283859749
  0.4192425118517170  0.9803061322310719  0.2544193788803338
  0.6825116999800295  0.3110535987976740  0.0459393474821931
  0.3111701001728892  0.6896768529774716  0.9550678040997188
  0.1825212816979592  0.1889406404342505  0.9540663764659975
  0.8111639662460094  0.8103304060982420  0.0449272655488536
  0.3174293291271950  0.6889226021499403  0.5459731731560413
  0.6888575934348157  0.3103383907469336  0.4551105595115180
  0.8174235654150497  0.8110826361460574  0.4540295429455460
  0.1888581128504777  0.1896598454601701  0.5448835443950610
 
  0.00000000E+00  0.00000000E+00  0.00000000E+00
  0.00000000E+00  0.00000000E+00  0.00000000E+00
  0.00000000E+00  0.00000000E+00  0.00000000E+00
  0.00000000E+00  0.00000000E+00  0.00000000E+00
  0.00000000E+00  0.00000000E+00  0.00000000E+00
  0.00000000E+00  0.00000000E+00  0.00000000E+00
  0.00000000E+00  0.00000000E+00  0.00000000E+00
  0.00000000E+00  0.00000000E+00  0.00000000E+00
  0.00000000E+00  0.00000000E+00  0.00000000E+00
  0.00000000E+00  0.00000000E+00  0.00000000E+00
  0.00000000E+00  0.00000000E+00  0.00000000E+00
  0.00000000E+00  0.00000000E+00  0.00000000E+00
  0.00000000E+00  0.00000000E+00  0.00000000E+00
  0.00000000E+00  0.00000000E+00  0.00000000E+00
  0.00000000E+00  0.00000000E+00  0.00000000E+00
  0.00000000E+00  0.00000000E+00  0.00000000E+00
