Ti4 O4 F8                               
   1.00000000000000     
     5.2756700283851510   -0.0570648458258595   -0.0003499850749876
    -0.0502311103014528    5.4214413401142210    0.0047371628675979
    -0.0002438326021233   -0.0039661002691369    7.3644890075703469
   Ti   O    F 
     4     4     8
Direct
  0.5041370073822100  0.0053994206825425  0.0010369993173572
  0.9798676028075268  0.4861249739464160  0.0045979460726304
  0.5042949491680178  0.0055641341793924  0.4976774389629770
  0.9802850769419040  0.4863681390954463  0.4955372139587088
  0.5636574734629271  0.0016959001015503  0.7502492605392640
  0.4247017609037222  0.9856135978776029  0.2502419486411641
  0.7190803607088333  0.2916190826218084  0.0407721023881827
  0.7190058458107405  0.2924101016844335  0.4593461498434411
  0.1087893262577883  0.4902408736973478  0.2500454465203993
  0.9129663241667181  0.5333270822751018  0.7500296316992937
  0.2845173954943355  0.7053826555640936  0.9600103040544521
  0.2050976152528236  0.2178181069902575  0.9541594017389196
  0.8006587253971519  0.7876186496790351  0.0472713109993771
  0.2859375799120565  0.7046221452206948  0.5398702508765182
  0.8019794018362968  0.7886591345839465  0.4529886457627622
  0.2050235544969339  0.2175360018003306  0.5461659486245382
 
  0.00000000E+00  0.00000000E+00  0.00000000E+00
  0.00000000E+00  0.00000000E+00  0.00000000E+00
  0.00000000E+00  0.00000000E+00  0.00000000E+00
  0.00000000E+00  0.00000000E+00  0.00000000E+00
  0.00000000E+00  0.00000000E+00  0.00000000E+00
  0.00000000E+00  0.00000000E+00  0.00000000E+00
  0.00000000E+00  0.00000000E+00  0.00000000E+00
  0.00000000E+00  0.00000000E+00  0.00000000E+00
  0.00000000E+00  0.00000000E+00  0.00000000E+00
  0.00000000E+00  0.00000000E+00  0.00000000E+00
  0.00000000E+00  0.00000000E+00  0.00000000E+00
  0.00000000E+00  0.00000000E+00  0.00000000E+00
  0.00000000E+00  0.00000000E+00  0.00000000E+00
  0.00000000E+00  0.00000000E+00  0.00000000E+00
  0.00000000E+00  0.00000000E+00  0.00000000E+00
  0.00000000E+00  0.00000000E+00  0.00000000E+00
