Na4 V4 O8 F4                            
   1.00000000000000     
     5.3665516704658547    0.0000416383477150    0.0000794602855767
     0.0000082623197983    5.4754710901493979    0.0054467366615220
     0.0001030767125044   -0.0078835350992724    7.2771761381465128
   Na   V    O    F 
     4     4     8     4
Direct
  0.9996665244094366  0.0380341217060502  0.2558780018858589
  0.0004034339518252  0.9619734570494878  0.7557907652731867
  0.4995829516126020  0.4619805494945823  0.7441969627017411
  0.5003551885258625  0.5380195291190838  0.2441649178475982
  0.5000117673030580  0.0337331960313096  0.0100498550241804
 -0.0000995015042773  0.4662320185505494  0.9898777024683891
  0.5001646151853656  0.9662299067199136  0.5101168180376184
  0.0000670065864001  0.5337547909924797  0.4899488887305417
  0.0632563070443321  0.4818832951895454  0.2505496369870354
  0.9366575798395699  0.5181068615272090  0.7505771596014230
  0.5632426688588227  0.0180802073925013  0.7494126660000376
  0.4366696644290056  0.9818788897049506  0.2494522869212403
  0.7087046801304878  0.2907063277259780  0.0322116674730114
  0.2087546927206194  0.2093295598629853  0.9677946420332567
  0.2913229760132266  0.7092562587155916  0.5321721461479554
  0.7913698617044735  0.7907749267718944  0.4678001610268941
  0.3050507209148414  0.7036580691815800  0.9612305229137937
  0.8051235414223932  0.7963771803843146  0.0387769661053655
  0.6948320308007578  0.2963905100331571  0.4611824309556560
  0.1948632900512041  0.2036003438468360  0.5388158018652168
 
  0.00000000E+00  0.00000000E+00  0.00000000E+00
  0.00000000E+00  0.00000000E+00  0.00000000E+00
  0.00000000E+00  0.00000000E+00  0.00000000E+00
  0.00000000E+00  0.00000000E+00  0.00000000E+00
  0.00000000E+00  0.00000000E+00  0.00000000E+00
  0.00000000E+00  0.00000000E+00  0.00000000E+00
  0.00000000E+00  0.00000000E+00  0.00000000E+00
  0.00000000E+00  0.00000000E+00  0.00000000E+00
  0.00000000E+00  0.00000000E+00  0.00000000E+00
  0.00000000E+00  0.00000000E+00  0.00000000E+00
  0.00000000E+00  0.00000000E+00  0.00000000E+00
  0.00000000E+00  0.00000000E+00  0.00000000E+00
  0.00000000E+00  0.00000000E+00  0.00000000E+00
  0.00000000E+00  0.00000000E+00  0.00000000E+00
  0.00000000E+00  0.00000000E+00  0.00000000E+00
  0.00000000E+00  0.00000000E+00  0.00000000E+00
  0.00000000E+00  0.00000000E+00  0.00000000E+00
  0.00000000E+00  0.00000000E+00  0.00000000E+00
  0.00000000E+00  0.00000000E+00  0.00000000E+00
  0.00000000E+00  0.00000000E+00  0.00000000E+00
