Na4 Mn4 O8 F4                           
   1.00000000000000     
     5.1491877499624756    0.0023400862343676    0.0131875488319174
    -0.0006464469073414    5.2238007401543163    0.0144688906199256
     0.0261351181232907    0.0330511126383849    7.4604042924354141
   Na   Mn   O    F 
     4     4     8     4
Direct
  0.9880007701315352  0.0388938550218455  0.2491813980267935
  0.0088433056130368  0.9518012258329377  0.7572500052335938
  0.4915571598560894  0.4655369293359997  0.7420114968976033
  0.5192373249252757  0.5504743368871825  0.2502049180046398
  0.4842342555888730  0.9903397107795479  0.9831320400452205
  0.0133200699813370  0.5151020500908827  0.0141209988578331
  0.4845504641558093  0.0165506520246730  0.5135361612721902
  0.0123734968673300  0.4891104944925532  0.4880088561315267
  0.2991528416191430  0.7004819944912152  0.9565554188322051
  0.2060071699932560  0.2047801339115144  0.9624744636739815
  0.7929071238081843  0.7873216648083649  0.0422301087921337
  0.2858824620581943  0.7132371286318121  0.5357067270551814
  0.7043792858726324  0.2919272359485524  0.4597180419538421
  0.1956673809838627  0.2050700273604306  0.5476660599844141
  0.0912417419554852  0.4756411055249427  0.2504952279060561
  0.5821960821996118  0.0168599999327504  0.7486069671382732
  0.7070223672434979  0.2913307768470316  0.0401032122481883
  0.7887681426784479  0.7888129402962314  0.4578688636802613
  0.9200704144251258  0.5184550901581912  0.7519019137353328
  0.4245881400432579  0.9882726476233336  0.2492271205307297
 
  0.00000000E+00  0.00000000E+00  0.00000000E+00
  0.00000000E+00  0.00000000E+00  0.00000000E+00
  0.00000000E+00  0.00000000E+00  0.00000000E+00
  0.00000000E+00  0.00000000E+00  0.00000000E+00
  0.00000000E+00  0.00000000E+00  0.00000000E+00
  0.00000000E+00  0.00000000E+00  0.00000000E+00
  0.00000000E+00  0.00000000E+00  0.00000000E+00
  0.00000000E+00  0.00000000E+00  0.00000000E+00
  0.00000000E+00  0.00000000E+00  0.00000000E+00
  0.00000000E+00  0.00000000E+00  0.00000000E+00
  0.00000000E+00  0.00000000E+00  0.00000000E+00
  0.00000000E+00  0.00000000E+00  0.00000000E+00
  0.00000000E+00  0.00000000E+00  0.00000000E+00
  0.00000000E+00  0.00000000E+00  0.00000000E+00
  0.00000000E+00  0.00000000E+00  0.00000000E+00
  0.00000000E+00  0.00000000E+00  0.00000000E+00
  0.00000000E+00  0.00000000E+00  0.00000000E+00
  0.00000000E+00  0.00000000E+00  0.00000000E+00
  0.00000000E+00  0.00000000E+00  0.00000000E+00
  0.00000000E+00  0.00000000E+00  0.00000000E+00
