Na8 Ti8 O16 F8                          
   1.00000000000000     
     7.7040898433694069   -0.0000001657856082    0.0000013150571104
    -0.0000001943171636    7.7607196297895262   -0.0000112584645832
     0.0000013266065805   -0.0000112991318502    7.8043433022471271
   Na   Ti   O    F 
     8     8    16     8
Direct
  0.2451950435207438  0.2290097256725311  0.2506925835610130
  0.2452283445123898  0.2290146797060373  0.7493219020804466
  0.2547627708566957  0.7710972549325681  0.2507571332583327
  0.2547871280215853  0.7711035446989805  0.7492315239528806
  0.7547809887358732  0.2288988564029721  0.2507656330602512
  0.7547670846059903  0.2289013109824982  0.7492406845835523
  0.7452215517871764  0.7709867930815959  0.2506816186206713
  0.7452045468127555  0.7709877707036211  0.7493117207525094
  0.0000080702864291  0.9912216281414564 -0.0000013402214878
  0.9999547489578969  0.9988898168853929  0.5000027002868614
  0.0000011987217812  0.5167752501648234 -0.0000014937938133
  0.0003157391318561  0.4982684321235590  0.5000010671415909
  0.5000080400182831  0.0087783551897284  0.0000021231287949
  0.4999548255068515  0.0011101960295312  0.4999983225240758
  0.5000011638900975  0.4832247490391090  0.0000011596248368
  0.5003157214208531  0.5017315304167298  0.4999986586469892
  0.2500072920135217  0.9999724720874245  0.9999997935522417
  0.2499940703065471  0.5000255714895512  0.9999996021435668
  0.2499858177087093  0.4999744610115983  0.4999998094579037
  0.7500073065317280  0.0000275380761200  0.9999998369977826
  0.7499940834785677  0.4999744718411608  0.0000000185396227
  0.7499858432907257  0.5000255499784705  0.4999998107331733
  0.9999130833912434  0.2490175957418524  0.4999993249662343
  0.9999603552365245  0.7460002013929640  0.0000009550591403
  0.9999638730803285  0.7490172895683997  0.4999994465232887
  0.4999604015807251  0.2539997725839628  0.9999987268845268
  0.4999638771372379  0.2509827215862053  0.5000004937788670
  0.4999130498256714  0.7509823983261540  0.5000004813410999
  0.0000022702365490  0.0032169305903836  0.2525130927500671
  0.0000021935664017  0.0032169772057640  0.7474867335858542
  0.5000020968570378  0.9967829589583261  0.2525131397506599
  0.5000023221728578  0.9967831262938193  0.7474867959238773
  0.2499593275246506  0.0000510373672204  0.4999994897316605
  0.7499593353529490  0.9999490073537878  0.4999997568423287
  0.0000179840478386  0.2550061651197671  0.9999987040118712
  0.5000180614349790  0.7449938476271746  0.0000006739563240
  0.9999701021808248  0.4879310851746808  0.2468217663797002
  0.9999700207691841  0.4879317719446145  0.7531773946264682
  0.4999702513750404  0.5120683395117792  0.2468222526415091
  0.4999700141128914  0.5120688149976635  0.7531779026147341
 
  0.00000000E+00  0.00000000E+00  0.00000000E+00
  0.00000000E+00  0.00000000E+00  0.00000000E+00
  0.00000000E+00  0.00000000E+00  0.00000000E+00
  0.00000000E+00  0.00000000E+00  0.00000000E+00
  0.00000000E+00  0.00000000E+00  0.00000000E+00
  0.00000000E+00  0.00000000E+00  0.00000000E+00
  0.00000000E+00  0.00000000E+00  0.00000000E+00
  0.00000000E+00  0.00000000E+00  0.00000000E+00
  0.00000000E+00  0.00000000E+00  0.00000000E+00
  0.00000000E+00  0.00000000E+00  0.00000000E+00
  0.00000000E+00  0.00000000E+00  0.00000000E+00
  0.00000000E+00  0.00000000E+00  0.00000000E+00
  0.00000000E+00  0.00000000E+00  0.00000000E+00
  0.00000000E+00  0.00000000E+00  0.00000000E+00
  0.00000000E+00  0.00000000E+00  0.00000000E+00
  0.00000000E+00  0.00000000E+00  0.00000000E+00
  0.00000000E+00  0.00000000E+00  0.00000000E+00
  0.00000000E+00  0.00000000E+00  0.00000000E+00
  0.00000000E+00  0.00000000E+00  0.00000000E+00
  0.00000000E+00  0.00000000E+00  0.00000000E+00
  0.00000000E+00  0.00000000E+00  0.00000000E+00
  0.00000000E+00  0.00000000E+00  0.00000000E+00
  0.00000000E+00  0.00000000E+00  0.00000000E+00
  0.00000000E+00  0.00000000E+00  0.00000000E+00
  0.00000000E+00  0.00000000E+00  0.00000000E+00
  0.00000000E+00  0.00000000E+00  0.00000000E+00
  0.00000000E+00  0.00000000E+00  0.00000000E+00
  0.00000000E+00  0.00000000E+00  0.00000000E+00
  0.00000000E+00  0.00000000E+00  0.00000000E+00
  0.00000000E+00  0.00000000E+00  0.00000000E+00
  0.00000000E+00  0.00000000E+00  0.00000000E+00
  0.00000000E+00  0.00000000E+00  0.00000000E+00
  0.00000000E+00  0.00000000E+00  0.00000000E+00
  0.00000000E+00  0.00000000E+00  0.00000000E+00
  0.00000000E+00  0.00000000E+00  0.00000000E+00
  0.00000000E+00  0.00000000E+00  0.00000000E+00
  0.00000000E+00  0.00000000E+00  0.00000000E+00
  0.00000000E+00  0.00000000E+00  0.00000000E+00
  0.00000000E+00  0.00000000E+00  0.00000000E+00
  0.00000000E+00  0.00000000E+00  0.00000000E+00
