Ti4 O4 F8                               
   1.00000000000000     
     5.6503118789512241   -0.0000809751420766   -0.0000000383707910
    -2.8252243255565208    4.8413732429689409   -0.0000003523198831
    -0.0000000524704393   -0.0000007485264741    9.5240690750730348
   Ti   O    F 
     4     4     8
Direct
  0.3415140094405415  0.6830178423909823  0.6069125461125848
  0.6584981053367437  0.3169818616743397  0.3930872453245221
  0.6584976628017757  0.3169809505601545  0.1069127794370187
  0.3415135445096990  0.6830168380678868  0.8930874589091072
  0.4999532148302648  0.0000003437580552  0.9999998067972602
  0.4999531954442020  0.0000003323686275  0.5000000249817665
  0.7890133936713312  0.5779620590667652  0.2500000679249694
  0.2110244058047031  0.4220368942735432  0.7499999711747093
  0.9999966095166511  0.4999720010521796  0.9999961292215473
  0.5000263196448254  0.5000292536338022  0.0000042950190561
  0.9999967551526180  0.4999721308654610  0.5000039620939741
  0.5000262417375009  0.5000293577901630  0.4999957902608180
  0.3549641968294976  0.1463972407481866  0.2499999732686307
  0.6450437000882184  0.8536332629533123  0.7499999830901835
  0.7913957166230812  0.1463623651056032  0.2499999863006532
  0.2085829285683467  0.8536072656909377  0.7499999800832129
 
  0.00000000E+00  0.00000000E+00  0.00000000E+00
  0.00000000E+00  0.00000000E+00  0.00000000E+00
  0.00000000E+00  0.00000000E+00  0.00000000E+00
  0.00000000E+00  0.00000000E+00  0.00000000E+00
  0.00000000E+00  0.00000000E+00  0.00000000E+00
  0.00000000E+00  0.00000000E+00  0.00000000E+00
  0.00000000E+00  0.00000000E+00  0.00000000E+00
  0.00000000E+00  0.00000000E+00  0.00000000E+00
  0.00000000E+00  0.00000000E+00  0.00000000E+00
  0.00000000E+00  0.00000000E+00  0.00000000E+00
  0.00000000E+00  0.00000000E+00  0.00000000E+00
  0.00000000E+00  0.00000000E+00  0.00000000E+00
  0.00000000E+00  0.00000000E+00  0.00000000E+00
  0.00000000E+00  0.00000000E+00  0.00000000E+00
  0.00000000E+00  0.00000000E+00  0.00000000E+00
  0.00000000E+00  0.00000000E+00  0.00000000E+00
