Cr4 O4 F8                               
   1.00000000000000     
     4.9866577502751825   -0.0368522649538109   -0.0029174074026142
    -0.0406948300751506    5.1814011117059326   -0.0113246846254681
     0.0188583156467155   -0.0253336002022636    6.9953621872605583
   Cr   O    F 
     4     4     8
Direct
  0.5052440097679869  0.9966765171338064  0.0003516244497012
  0.0098984839521288  0.4968227216945342  0.0060828167754023
  0.5042431824905055  0.0069260883286513  0.5003290701770492
  0.9827349002277860  0.4810216387617404  0.4777656224187862
  0.1101787103968617  0.4901451482134005  0.2549992881499372
  0.5730467329924336  0.0221050041915892  0.7426450498423485
  0.4213780464316671  0.9815422874207049  0.2585587939737773
  0.6858803699411012  0.3190207929348428  0.4511449886792319
  0.8992945152270825  0.5227432285066723  0.7490147994708808
  0.6869609908346030  0.3134258944095847  0.0577799229576405
  0.3287055616405323  0.6790675660595882  0.9452224580096957
  0.1822620218459192  0.1831648035176558  0.9504961893972207
  0.8271394045862974  0.8129787551025304  0.0485656085846055
  0.2960105801918123  0.6948660313437260  0.5556961091692569
  0.8130405643531292  0.8088102212870066  0.4495055715271872
  0.1739819251201601  0.1906833010939735  0.5518420864172714
 
  0.00000000E+00  0.00000000E+00  0.00000000E+00
  0.00000000E+00  0.00000000E+00  0.00000000E+00
  0.00000000E+00  0.00000000E+00  0.00000000E+00
  0.00000000E+00  0.00000000E+00  0.00000000E+00
  0.00000000E+00  0.00000000E+00  0.00000000E+00
  0.00000000E+00  0.00000000E+00  0.00000000E+00
  0.00000000E+00  0.00000000E+00  0.00000000E+00
  0.00000000E+00  0.00000000E+00  0.00000000E+00
  0.00000000E+00  0.00000000E+00  0.00000000E+00
  0.00000000E+00  0.00000000E+00  0.00000000E+00
  0.00000000E+00  0.00000000E+00  0.00000000E+00
  0.00000000E+00  0.00000000E+00  0.00000000E+00
  0.00000000E+00  0.00000000E+00  0.00000000E+00
  0.00000000E+00  0.00000000E+00  0.00000000E+00
  0.00000000E+00  0.00000000E+00  0.00000000E+00
  0.00000000E+00  0.00000000E+00  0.00000000E+00
