Ti4 O4 F8                               
   1.00000000000000     
     5.2663330525546010   -0.0563540908424015   -0.0005488984136462
    -0.0504117512935458    5.4155146679724702    0.0034987232634842
     0.0005983262337563   -0.0055934343355965    7.4195219325772861
   Ti   O    F 
     4     4     8
Direct
  0.5075679063798566  0.9951724934073319  0.9844134808175897
  0.0292373177625977  0.5154259677202631  0.9983464194094693
  0.4924694548029948  0.0048166418922834  0.4844376750896267
  0.9707866104553605  0.4845232942518424  0.4983488553320092
  0.5728205936461925  0.0114663287406152  0.7510923799977808
  0.4271055718485554  0.9885969683198012  0.2511174347280474
  0.2912279125687953  0.7047098602368798  0.9595159715493812
  0.7087714475926279  0.2952785302986244  0.4595129564005616
  0.0983157746542687  0.4852030407491764  0.2541283757228886
  0.9017058104588729  0.5148277390501272  0.7541110209034122
  0.7235483342786211  0.2897237655409335  0.0452032292406496
  0.2035444156199638  0.2103179588835155  0.9590879888505057
  0.8006704086972639  0.7827901952542603  0.0481997963901411
  0.2763848644225672  0.7102726487843891  0.5452180420495873
  0.7964447285969581  0.7896226965222615  0.4590270928436694
  0.1993988482145034  0.2172518703476879  0.5482392806746802
 
  0.00000000E+00  0.00000000E+00  0.00000000E+00
  0.00000000E+00  0.00000000E+00  0.00000000E+00
  0.00000000E+00  0.00000000E+00  0.00000000E+00
  0.00000000E+00  0.00000000E+00  0.00000000E+00
  0.00000000E+00  0.00000000E+00  0.00000000E+00
  0.00000000E+00  0.00000000E+00  0.00000000E+00
  0.00000000E+00  0.00000000E+00  0.00000000E+00
  0.00000000E+00  0.00000000E+00  0.00000000E+00
  0.00000000E+00  0.00000000E+00  0.00000000E+00
  0.00000000E+00  0.00000000E+00  0.00000000E+00
  0.00000000E+00  0.00000000E+00  0.00000000E+00
  0.00000000E+00  0.00000000E+00  0.00000000E+00
  0.00000000E+00  0.00000000E+00  0.00000000E+00
  0.00000000E+00  0.00000000E+00  0.00000000E+00
  0.00000000E+00  0.00000000E+00  0.00000000E+00
  0.00000000E+00  0.00000000E+00  0.00000000E+00
