Ni8 O8 F16                              
   1.00000000000000     
     7.4993790240902163    0.0032602464388755   -0.0033948620834287
     0.0060940429713402    7.5202726782874505   -0.0114799778340750
    -0.0096131299359984   -0.0131722610158573    7.4998833336136093
   Ni   O    F 
     8     8    16
Direct
  0.0000415383152116  0.0002068351491699  0.9993901416635638
  0.9985209344683342 -0.0000285380420641  0.4993002415336245
  0.9989114982746266  0.5005191352593837  0.0022368933594610
  0.0001364460250800  0.4999186705084888  0.5015590096420718
  0.4999608020122275 -0.0000042841414570  0.9989776818351400
  0.5018647607136809  0.9994142242863607  0.4990230236347957
  0.4988985176190656  0.5000327637873202  0.0001386305252144
  0.5008043076277019  0.4998178658949582  0.5000159500822168
  0.0005474646097313  0.5042462649495046  0.2419009422867879
  0.5002772828987019  0.4998585966307467  0.2495793811795378
  0.4988741907833477  0.4998553142795706  0.7509959373855126
  0.2534171855121381  0.0001140958528143  0.9984664490782519
  0.7460624220197228 -0.0000128136037248  0.0007304822459236
  0.7443347588295157  0.9990277315065692  0.4988036651504690
 -0.0008178524479050  0.2520732480991851  0.4986948672724589
  0.9987328438886386  0.7478474015034601  0.4980472485993788
  0.0044010666327192 -0.0000707180073392  0.2497732437068045
  0.5000036548029613 -0.0000896684681154  0.7426765472971734
  0.2565198115386882  0.9999538347488092  0.5000401290931266
  0.2471699594437194  0.4988773065315502  0.4941243052523239
  0.7554982962586617  0.5002978669680287  0.0084145311529942
  0.7536249196777314  0.5003066287575784  0.4992902761630601
  0.9979514942041317  0.7540129090073457 -0.0035074997146625
  0.4989895079965908  0.2499085715413930  0.0005357238489115
  0.9987848241393951  0.0005543539766211  0.7490276268881353
  0.9982138270899427  0.4985702513162115  0.7587817640175452
  0.4981067331522605  0.9990654983101702  0.2557315403482668
  0.2423531249425144  0.4998793747699050  0.0079858990685678
  0.9985445458764064  0.2465768740286280  0.0002262631171477
  0.5065840036976947  0.2527023226932185  0.5008668180176412
  0.4980866159240683  0.7500037251475097  0.9989536641533359
  0.5046005134727181  0.7465643567581909  0.4992186221152271
 
  0.00000000E+00  0.00000000E+00  0.00000000E+00
  0.00000000E+00  0.00000000E+00  0.00000000E+00
  0.00000000E+00  0.00000000E+00  0.00000000E+00
  0.00000000E+00  0.00000000E+00  0.00000000E+00
  0.00000000E+00  0.00000000E+00  0.00000000E+00
  0.00000000E+00  0.00000000E+00  0.00000000E+00
  0.00000000E+00  0.00000000E+00  0.00000000E+00
  0.00000000E+00  0.00000000E+00  0.00000000E+00
  0.00000000E+00  0.00000000E+00  0.00000000E+00
  0.00000000E+00  0.00000000E+00  0.00000000E+00
  0.00000000E+00  0.00000000E+00  0.00000000E+00
  0.00000000E+00  0.00000000E+00  0.00000000E+00
  0.00000000E+00  0.00000000E+00  0.00000000E+00
  0.00000000E+00  0.00000000E+00  0.00000000E+00
  0.00000000E+00  0.00000000E+00  0.00000000E+00
  0.00000000E+00  0.00000000E+00  0.00000000E+00
  0.00000000E+00  0.00000000E+00  0.00000000E+00
  0.00000000E+00  0.00000000E+00  0.00000000E+00
  0.00000000E+00  0.00000000E+00  0.00000000E+00
  0.00000000E+00  0.00000000E+00  0.00000000E+00
  0.00000000E+00  0.00000000E+00  0.00000000E+00
  0.00000000E+00  0.00000000E+00  0.00000000E+00
  0.00000000E+00  0.00000000E+00  0.00000000E+00
  0.00000000E+00  0.00000000E+00  0.00000000E+00
  0.00000000E+00  0.00000000E+00  0.00000000E+00
  0.00000000E+00  0.00000000E+00  0.00000000E+00
  0.00000000E+00  0.00000000E+00  0.00000000E+00
  0.00000000E+00  0.00000000E+00  0.00000000E+00
  0.00000000E+00  0.00000000E+00  0.00000000E+00
  0.00000000E+00  0.00000000E+00  0.00000000E+00
  0.00000000E+00  0.00000000E+00  0.00000000E+00
  0.00000000E+00  0.00000000E+00  0.00000000E+00
