Na4 Ni4 O8 F4                           
   1.00000000000000     
     5.4486156553103209   -0.0428996056003891    0.0236959056210142
    -0.0225272252830451    5.4705470856179232   -0.0286421586750473
     0.0479932048070364   -0.0506855784515878    6.9290252674574395
   Na   Ni   O    F 
     4     4     8     4
Direct
  0.0027291833970468  0.0362065231961379  0.2516884743798175
  0.0242672586881479  0.9370375634887186  0.7514632242536231
  0.4704430231456227  0.4670817014983663  0.7477804535946188
  0.4969731375286440  0.5605737789369609  0.2539639111246815
  0.5202396559619055  0.0022738443196885  0.0081522530151261
  0.9857465173323933  0.4814892179218850  0.0084200615735370
  0.5070111971234141  0.0234638550505447  0.4976165828420946
  0.9843345451750621  0.4865177227570838  0.4988954800630879
  0.1026354521214753  0.4805038097427822  0.2527925801027046
  0.8795086980981467  0.5035813679228234  0.7562373713284501
  0.6185665304278886  0.0337421208751276  0.7510755035518183
  0.4056666113484863  0.9691428567534606  0.2523687370947313
  0.7026435916978119  0.2749338147543673  0.0709334217302046
  0.7993232825714922  0.7664285983298756  0.0302088334409969
  0.7031327015196402  0.2831750884448474  0.4252526576432080
  0.2028044023865652  0.2345233532712443  0.5459240178437830
  0.2969605494651343  0.7268421672937315  0.9485667953712569
  0.2075538837074688  0.2191727683682134  0.9431633481436638
  0.2942008107436390  0.7376611071381199  0.5570633061278951
  0.7952589675600078  0.7756487399360208  0.4484329867746871
 
  0.00000000E+00  0.00000000E+00  0.00000000E+00
  0.00000000E+00  0.00000000E+00  0.00000000E+00
  0.00000000E+00  0.00000000E+00  0.00000000E+00
  0.00000000E+00  0.00000000E+00  0.00000000E+00
  0.00000000E+00  0.00000000E+00  0.00000000E+00
  0.00000000E+00  0.00000000E+00  0.00000000E+00
  0.00000000E+00  0.00000000E+00  0.00000000E+00
  0.00000000E+00  0.00000000E+00  0.00000000E+00
  0.00000000E+00  0.00000000E+00  0.00000000E+00
  0.00000000E+00  0.00000000E+00  0.00000000E+00
  0.00000000E+00  0.00000000E+00  0.00000000E+00
  0.00000000E+00  0.00000000E+00  0.00000000E+00
  0.00000000E+00  0.00000000E+00  0.00000000E+00
  0.00000000E+00  0.00000000E+00  0.00000000E+00
  0.00000000E+00  0.00000000E+00  0.00000000E+00
  0.00000000E+00  0.00000000E+00  0.00000000E+00
  0.00000000E+00  0.00000000E+00  0.00000000E+00
  0.00000000E+00  0.00000000E+00  0.00000000E+00
  0.00000000E+00  0.00000000E+00  0.00000000E+00
  0.00000000E+00  0.00000000E+00  0.00000000E+00
