Na4 V4 O8 F4                            
   1.00000000000000     
     5.2329180634684072    0.0028209944666101    0.0148134570807285
    -0.0010056429077364    5.3017058244877635   -0.0053046819085429
     0.0186883466007542   -0.0174526476538462    7.7003223084397154
   Na   V    O    F 
     4     4     8     4
Direct
  0.9852876400974521  0.0372165715786572  0.2490138331038401
  0.0043371755814621  0.9707650167888506  0.7559330269918441
  0.4878627376783548  0.4672335973206727  0.7429209287529094
  0.5090938283692759  0.5303892361768395  0.2542896682958888
  0.5060311242184941  0.0230437876001586  0.0188619101767980
  0.9857215272472927  0.4976069872232799  0.9862490449153177
  0.4681370914149999  0.0061416667035710  0.4872306236058450
  0.9986718121481665  0.4852668149902252  0.5175729072760956
  0.9260238127036751  0.5188379822575013  0.7504484051900505
  0.4280282533293472  0.9830683545983598  0.2499234460950722
  0.7099976601666302  0.2766525842141258  0.0306287134647097
  0.2102224361722624  0.2241279804068853  0.9703697208197530
  0.7968951830446934  0.7710277325309575  0.0408931020560349
  0.2813905775220328  0.7066665500349570  0.5238282600139303
  0.7300993596138345  0.2909173677034517  0.4611423656217939
  0.2243090821772972  0.2094258437258328  0.5473950871030258
  0.0808927751115520  0.4804371080794591  0.2491446405573035
  0.5751496538214217  0.0047734094771367  0.7487341651523298
  0.3007488088633133  0.7182803648337939  0.9507868292506840
  0.7910994607184566  0.7981210437552773  0.4646333215567806
 
  0.00000000E+00  0.00000000E+00  0.00000000E+00
  0.00000000E+00  0.00000000E+00  0.00000000E+00
  0.00000000E+00  0.00000000E+00  0.00000000E+00
  0.00000000E+00  0.00000000E+00  0.00000000E+00
  0.00000000E+00  0.00000000E+00  0.00000000E+00
  0.00000000E+00  0.00000000E+00  0.00000000E+00
  0.00000000E+00  0.00000000E+00  0.00000000E+00
  0.00000000E+00  0.00000000E+00  0.00000000E+00
  0.00000000E+00  0.00000000E+00  0.00000000E+00
  0.00000000E+00  0.00000000E+00  0.00000000E+00
  0.00000000E+00  0.00000000E+00  0.00000000E+00
  0.00000000E+00  0.00000000E+00  0.00000000E+00
  0.00000000E+00  0.00000000E+00  0.00000000E+00
  0.00000000E+00  0.00000000E+00  0.00000000E+00
  0.00000000E+00  0.00000000E+00  0.00000000E+00
  0.00000000E+00  0.00000000E+00  0.00000000E+00
  0.00000000E+00  0.00000000E+00  0.00000000E+00
  0.00000000E+00  0.00000000E+00  0.00000000E+00
  0.00000000E+00  0.00000000E+00  0.00000000E+00
  0.00000000E+00  0.00000000E+00  0.00000000E+00
