Na4 V4 O8 F4                            
   1.00000000000000     
     5.3585503543656712   -0.1443637344328569    0.0076022500694513
    -0.1436829697888413    5.4572241783328357   -0.0044449426089072
    -0.0013534495124583    0.0033091359219141    7.4328565129264890
   Na   V    O    F 
     4     4     8     4
Direct
  0.9947929621043569  0.0463413637658141  0.2468706463279448
  0.9883374650096914  0.9677977559029741  0.7484625262077889
  0.4905931478330529  0.4870649642698553  0.7588570405757388
  0.5087099592992581  0.5480710752805825  0.2513622647425720
  0.4997642919668072  0.9969618426982038  0.0029275276930730
  0.9975184193689324  0.4960542989071544  0.9864132312330781
  0.4783690706584601  0.0515454019558506  0.5021046760860801
  0.9741599300820505  0.5182939054105689  0.5054211941047948
  0.7270202606809389  0.2835837053434417  0.0358336046650448
  0.2720924084348634  0.7065834995670698  0.9792217948180159
  0.7056545069294248  0.2863797585667556  0.4643576121880658
  0.8270482986447988  0.7712014174421996  0.4480443514558291
  0.2152047074383488  0.2094386618444103  0.5381648772735922
  0.9279222783913535  0.5181582808589560  0.7465507478958728
  0.5582090388366214  0.9935566030759961  0.7366587922374452
  0.4346557977715320  0.9786854893927698  0.2661995123826874
  0.2061412366694099  0.2078033657335510  0.9513577560123593
  0.7941533634436927  0.7829554163227719  0.0444138046695530
  0.3074833169943699  0.6939004596734892  0.5343044613718846
  0.0921695394420221  0.4556227339875862  0.2524735780585801
 
  0.00000000E+00  0.00000000E+00  0.00000000E+00
  0.00000000E+00  0.00000000E+00  0.00000000E+00
  0.00000000E+00  0.00000000E+00  0.00000000E+00
  0.00000000E+00  0.00000000E+00  0.00000000E+00
  0.00000000E+00  0.00000000E+00  0.00000000E+00
  0.00000000E+00  0.00000000E+00  0.00000000E+00
  0.00000000E+00  0.00000000E+00  0.00000000E+00
  0.00000000E+00  0.00000000E+00  0.00000000E+00
  0.00000000E+00  0.00000000E+00  0.00000000E+00
  0.00000000E+00  0.00000000E+00  0.00000000E+00
  0.00000000E+00  0.00000000E+00  0.00000000E+00
  0.00000000E+00  0.00000000E+00  0.00000000E+00
  0.00000000E+00  0.00000000E+00  0.00000000E+00
  0.00000000E+00  0.00000000E+00  0.00000000E+00
  0.00000000E+00  0.00000000E+00  0.00000000E+00
  0.00000000E+00  0.00000000E+00  0.00000000E+00
  0.00000000E+00  0.00000000E+00  0.00000000E+00
  0.00000000E+00  0.00000000E+00  0.00000000E+00
  0.00000000E+00  0.00000000E+00  0.00000000E+00
  0.00000000E+00  0.00000000E+00  0.00000000E+00
