Na4 Co4 O8 F4                           
   1.00000000000000     
     5.3388820588179904    0.0415747492467872   -0.0357906742472037
    -2.6244623691674458    4.6070200261742578   -0.0198546722252998
    -0.0984231119248625    0.1165452888090772    9.0776786093947308
   Na   Co   O    F 
     4     4     8     4
Direct
  0.9810142385860487  0.0046576213338909  0.0768864595671062
  0.0161679079064285  0.9924070723981302  0.5628180276657133
  0.3203658186384715  0.6823443113407421  0.2717090951308805
  0.6753249282652618  0.3244255441683492  0.7649899488515643
  0.3538280546605606  0.6665151905674094  0.5981664855983695
  0.6885316153195902  0.3297385280870202  0.4109738122093916
  0.6525064018684574  0.3488136341993453  0.0982035215151598
  0.2989155586299930  0.6578591324550800  0.9039751938154410
  0.3869124250867557  0.9836317178244229  0.9893885827562556
  0.9728408558574202  0.4022197726146857  0.9821175041471335
  0.5768721504200656  0.5726496858455477  0.9863557579140547
  0.4305348925215426  0.9859829042566375  0.4852246438098149
  0.0286866779426589  0.4169596096237171  0.4855548170109927
  0.5892300896182050  0.5705453259741446  0.4957770969789692
  0.7172958903702096  0.1432756119833769  0.2266343444396313
  0.1376784002507137  0.7218345368455559  0.7269903128546247
  0.8905294029576893  0.6672116021815739  0.2446656922561843
  0.2785906493731503  0.3518622620309628  0.7297944815348032
  0.3427925360021291  0.2874605003700594  0.2296597718812663
  0.6613815057246484  0.8896054358993624  0.7301144500626435
 
  0.00000000E+00  0.00000000E+00  0.00000000E+00
  0.00000000E+00  0.00000000E+00  0.00000000E+00
  0.00000000E+00  0.00000000E+00  0.00000000E+00
  0.00000000E+00  0.00000000E+00  0.00000000E+00
  0.00000000E+00  0.00000000E+00  0.00000000E+00
  0.00000000E+00  0.00000000E+00  0.00000000E+00
  0.00000000E+00  0.00000000E+00  0.00000000E+00
  0.00000000E+00  0.00000000E+00  0.00000000E+00
  0.00000000E+00  0.00000000E+00  0.00000000E+00
  0.00000000E+00  0.00000000E+00  0.00000000E+00
  0.00000000E+00  0.00000000E+00  0.00000000E+00
  0.00000000E+00  0.00000000E+00  0.00000000E+00
  0.00000000E+00  0.00000000E+00  0.00000000E+00
  0.00000000E+00  0.00000000E+00  0.00000000E+00
  0.00000000E+00  0.00000000E+00  0.00000000E+00
  0.00000000E+00  0.00000000E+00  0.00000000E+00
  0.00000000E+00  0.00000000E+00  0.00000000E+00
  0.00000000E+00  0.00000000E+00  0.00000000E+00
  0.00000000E+00  0.00000000E+00  0.00000000E+00
  0.00000000E+00  0.00000000E+00  0.00000000E+00
