Na4 Co4 O8 F4                           
   1.00000000000000     
     5.4034963312457966   -0.0070101807580799    0.1706488109555960
    -2.7135237414072844    4.6490683110118152    0.0395332020675598
     0.2226053382585453    0.2700064649913410    9.0095002647802840
   Na   Co   O    F 
     4     4     8     4
Direct
  0.0081559092379018  0.0020073445959083  0.0682229966693976
  0.0080754554498571  0.9796684147267262  0.4936814076845590
  0.3163273387531644  0.6510161256069148  0.2467927858986031
  0.6589036935054802  0.3565070255402782  0.7684339287847494
  0.3207592246229014  0.6479067699697817  0.6028668664245630
  0.6972905418886163  0.3321802305961019  0.4185233442367746
  0.6550158192172389  0.3022919898378334  0.1027583783936251
  0.3362586534653018  0.6856253502932472  0.8882173923218388
  0.4417550554185123  0.0212856741030547  0.9895442529036663
  0.0421831048176726  0.4632443437139158  0.0102323741186032
  0.4322207186199076  0.9563558776348472  0.4663419341459159
  0.0247909967331185  0.4069010589897035  0.4900964655526226
  0.5685637654786162  0.5318043134220742  0.5169612947001472
  0.2403710355856691  0.3943620536699549  0.7557157697755194
  0.5844045041168913  0.8884212000844258  0.7340706276033458
  0.7462443530364699  0.1155461170440065  0.2548202306236965
  0.6268353015136906  0.6134143988234598  0.9927420237007677
  0.8761227015163741  0.6405331690430056  0.2531690472256648
  0.3380178067865592  0.2532222809010254  0.2420364373665852
  0.0777040202360506  0.7577062614037419  0.7047724418693613
 
  0.00000000E+00  0.00000000E+00  0.00000000E+00
  0.00000000E+00  0.00000000E+00  0.00000000E+00
  0.00000000E+00  0.00000000E+00  0.00000000E+00
  0.00000000E+00  0.00000000E+00  0.00000000E+00
  0.00000000E+00  0.00000000E+00  0.00000000E+00
  0.00000000E+00  0.00000000E+00  0.00000000E+00
  0.00000000E+00  0.00000000E+00  0.00000000E+00
  0.00000000E+00  0.00000000E+00  0.00000000E+00
  0.00000000E+00  0.00000000E+00  0.00000000E+00
  0.00000000E+00  0.00000000E+00  0.00000000E+00
  0.00000000E+00  0.00000000E+00  0.00000000E+00
  0.00000000E+00  0.00000000E+00  0.00000000E+00
  0.00000000E+00  0.00000000E+00  0.00000000E+00
  0.00000000E+00  0.00000000E+00  0.00000000E+00
  0.00000000E+00  0.00000000E+00  0.00000000E+00
  0.00000000E+00  0.00000000E+00  0.00000000E+00
  0.00000000E+00  0.00000000E+00  0.00000000E+00
  0.00000000E+00  0.00000000E+00  0.00000000E+00
  0.00000000E+00  0.00000000E+00  0.00000000E+00
  0.00000000E+00  0.00000000E+00  0.00000000E+00
