Fe8 O8 F16                              
    1.000000000000000     
     7.6927212761814285    0.0068616489497108   -0.0258574730470559
     0.0088306115978862    7.6140608535197947   -0.0110183920510621
     0.0248604621925242   -0.0028513726955238    7.7348483382688480
   Fe   O    F 
     8     8    16
Direct
  0.0008116207101381  0.9955092677202657  0.0010004847148579
  0.9998775904148829  0.0134641975036232  0.5009144781910351
  0.0027887125233903  0.4960967483790100  0.0001882602747827
  0.9989375069027417  0.4877835634462215  0.5002661750598989
  0.4997949831091546  0.9951224587630421  0.9997565131915565
  0.5000863438434280  0.0001352583263952  0.4990371012843724
  0.4965806178673660  0.5018416852789898  0.9999757446639208
  0.5001828320567867  0.5002256227683120  0.4998224412667582
  0.7488340817418688  0.5073137698921144  0.0010732873281043
  0.2639820277523341  0.9895681634946456  0.9979178629229111
  0.7364310925191262  0.9912466145365642  0.9997150976674050
  0.0002674695895308  0.2572488064251885  0.5007259515892670
  0.0007285641472663  0.7417575381155572  0.5004324770750372
  0.4990457471507668  0.2526044099426699  0.5008186872615852
  0.4993216182896703  0.7641701050755856  0.0030983010096364
  0.4972597599872870  0.7489125294300294  0.4976674872158995
  0.9999080754244858  0.0012689178644791  0.2494573039939780
  0.5018963623864963  0.0250302707918237  0.7431892256820376
  0.2468720512292890  0.9760833911605147  0.5000808636032943
  0.2478639225063901  0.5183365542009568  0.4987376145758518
  0.7507169676182173  0.5222705740684077  0.5005211826907257
  0.0098126305775068  0.7493289653923156  0.0008800295781484
  0.4927970684612575  0.2451816103958251  0.9980776921149683
  0.9981254319078872  0.0020475450899440  0.7518480235504725
  0.9904215075758174  0.4938559601180614  0.2463857377557304
  0.9896349979125532  0.4958592741486640  0.7540814046236832
  0.4988626371819294  0.0282616649971459  0.2556590693668355
  0.5072747373968980  0.4849418557762277  0.2476823938567208
  0.5077026711799633  0.4895364775107325  0.7520774545705677
  0.2506060420884708  0.5049542865385916  0.9995721126762263
  0.7528385572960943  0.9763037486107820  0.4993654180861213
  0.0097357706510195  0.2437381642373211  0.9999741225576173
 
  0.00000000E+00  0.00000000E+00  0.00000000E+00
  0.00000000E+00  0.00000000E+00  0.00000000E+00
  0.00000000E+00  0.00000000E+00  0.00000000E+00
  0.00000000E+00  0.00000000E+00  0.00000000E+00
  0.00000000E+00  0.00000000E+00  0.00000000E+00
  0.00000000E+00  0.00000000E+00  0.00000000E+00
  0.00000000E+00  0.00000000E+00  0.00000000E+00
  0.00000000E+00  0.00000000E+00  0.00000000E+00
  0.00000000E+00  0.00000000E+00  0.00000000E+00
  0.00000000E+00  0.00000000E+00  0.00000000E+00
  0.00000000E+00  0.00000000E+00  0.00000000E+00
  0.00000000E+00  0.00000000E+00  0.00000000E+00
  0.00000000E+00  0.00000000E+00  0.00000000E+00
  0.00000000E+00  0.00000000E+00  0.00000000E+00
  0.00000000E+00  0.00000000E+00  0.00000000E+00
  0.00000000E+00  0.00000000E+00  0.00000000E+00
  0.00000000E+00  0.00000000E+00  0.00000000E+00
  0.00000000E+00  0.00000000E+00  0.00000000E+00
  0.00000000E+00  0.00000000E+00  0.00000000E+00
  0.00000000E+00  0.00000000E+00  0.00000000E+00
  0.00000000E+00  0.00000000E+00  0.00000000E+00
  0.00000000E+00  0.00000000E+00  0.00000000E+00
  0.00000000E+00  0.00000000E+00  0.00000000E+00
  0.00000000E+00  0.00000000E+00  0.00000000E+00
  0.00000000E+00  0.00000000E+00  0.00000000E+00
  0.00000000E+00  0.00000000E+00  0.00000000E+00
  0.00000000E+00  0.00000000E+00  0.00000000E+00
  0.00000000E+00  0.00000000E+00  0.00000000E+00
  0.00000000E+00  0.00000000E+00  0.00000000E+00
  0.00000000E+00  0.00000000E+00  0.00000000E+00
  0.00000000E+00  0.00000000E+00  0.00000000E+00
  0.00000000E+00  0.00000000E+00  0.00000000E+00
