Sodium tetraoxodititanate               
   1.00000000000000     
     9.2794462680185692   -0.0000025719884917    0.0000001977195613
    -0.0000031254182261   10.8175746690952437    0.0000002849803610
     0.0000000660729810    0.0000000566922408    2.9742737221618345
   Na   Ti   O 
     4     8    16
Direct
  0.2440421668667980  0.3477092188880491  0.7499999703295828
  0.7558721137667135  0.6525795067516356  0.2500000339052662
  0.2558717260946537  0.8474197459249524  0.2500002052954073
  0.7440420827909691  0.1522906759128304  0.7499998206947964
  0.0660032343495232  0.1106919067452452  0.7499999742067232
  0.9342219993039862  0.8887060579447308  0.2499999904989565
  0.4342207592434377  0.6112945194876787  0.2499999057329134
  0.5660025473680932  0.3893090912998289  0.7500000436865761
  0.0828249090683215  0.6048964327577409  0.7499999333267340
  0.9181729905746252  0.3955650198672842  0.2500002515583546
  0.4181741376511283  0.1044344910111050  0.2499999574403375
  0.5828262731945912  0.8951027577993216  0.7499999996006252
  0.2877861120151834  0.6540233370262385  0.7499999684270122
  0.7126665714939406  0.3459703793879640  0.2500000280976451
  0.2126676715005758  0.1540288109365306  0.2499999267302968
  0.7877869232036190  0.8459762568462210  0.7500000285683228
  0.3861482327435581  0.9802501548494149  0.7499999786314788
  0.6129105953581089  0.0214843558327402  0.2499999636985990
  0.1129113854260382  0.4785170278604340  0.2499999683372280
  0.8861489976319135  0.5197521974523980  0.7500000961079536
  0.4794448479053059  0.2168882614975374  0.7499999458895417
  0.5195031314921152  0.7824114412560803  0.2499999967008009
  0.0195049628757573  0.7175877946519122  0.2499999376581599
  0.9794466682791096  0.2831110789789193  0.7500001396624754
  0.0811115183822579  0.9296976520985041  0.7499999795252421
  0.9192878870291068  0.0705405264128771  0.2499999810401903
  0.4192880560551231  0.4294591958809306  0.2500000104059410
  0.5811115063354535  0.5703021046409020  0.7499999642428392
 
  0.00000000E+00  0.00000000E+00  0.00000000E+00
  0.00000000E+00  0.00000000E+00  0.00000000E+00
  0.00000000E+00  0.00000000E+00  0.00000000E+00
  0.00000000E+00  0.00000000E+00  0.00000000E+00
  0.00000000E+00  0.00000000E+00  0.00000000E+00
  0.00000000E+00  0.00000000E+00  0.00000000E+00
  0.00000000E+00  0.00000000E+00  0.00000000E+00
  0.00000000E+00  0.00000000E+00  0.00000000E+00
  0.00000000E+00  0.00000000E+00  0.00000000E+00
  0.00000000E+00  0.00000000E+00  0.00000000E+00
  0.00000000E+00  0.00000000E+00  0.00000000E+00
  0.00000000E+00  0.00000000E+00  0.00000000E+00
  0.00000000E+00  0.00000000E+00  0.00000000E+00
  0.00000000E+00  0.00000000E+00  0.00000000E+00
  0.00000000E+00  0.00000000E+00  0.00000000E+00
  0.00000000E+00  0.00000000E+00  0.00000000E+00
  0.00000000E+00  0.00000000E+00  0.00000000E+00
  0.00000000E+00  0.00000000E+00  0.00000000E+00
  0.00000000E+00  0.00000000E+00  0.00000000E+00
  0.00000000E+00  0.00000000E+00  0.00000000E+00
  0.00000000E+00  0.00000000E+00  0.00000000E+00
  0.00000000E+00  0.00000000E+00  0.00000000E+00
  0.00000000E+00  0.00000000E+00  0.00000000E+00
  0.00000000E+00  0.00000000E+00  0.00000000E+00
  0.00000000E+00  0.00000000E+00  0.00000000E+00
  0.00000000E+00  0.00000000E+00  0.00000000E+00
  0.00000000E+00  0.00000000E+00  0.00000000E+00
  0.00000000E+00  0.00000000E+00  0.00000000E+00
