Na4 Co4 O8 F4                           
    1.000000000000000     
     5.1004554321216009   -0.0000140495431597   -0.0000097089752968
    -0.0000139072634577    5.0636618264022948   -0.0000014090284454
    -0.0000093779913798   -0.0000003026382451    8.1987017284704002
   Na   Co   O    F 
     4     4     8     4
Direct
  0.9860692960094380  0.0229332212891076  0.2500039181101473
  0.0139226272965037  0.9770053745190660  0.7499970509616702
  0.4860692188828877  0.4770655835602470  0.7500034157953562
  0.5139230623059675  0.5229949917379033  0.2499966403206448
  0.4999582268522831  0.9999327143645691 -0.0000069178529929
 -0.0000428165264375  0.5000671470300810  0.0000061028430788
  0.4999573988625528  0.9999322255810835  0.5000074708854206
 -0.0000426454225292  0.5000682249319529  0.4999932900328284
  0.7165739072718900  0.2652775051771089  0.0371759676966347
  0.2834517258636646  0.7346856841237334  0.9628366580932747
  0.2165746472512549  0.2347164074745524  0.9628160719556966
  0.7834495723504871  0.7653183591154930  0.0371681875444014
  0.2834532214779142  0.7346865173509566  0.5371670467948259
  0.7165712214825070  0.2652787547242097  0.4628168158000430
  0.7834480165351239  0.7653181259910943  0.4628354526134217
  0.2165761164041906  0.2347182248692577  0.5371823823852794
  0.0803289890799610  0.4786643778267093  0.2499992419872926
  0.9197145546630869  0.5213469333389507  0.7500009937279770
  0.5803304448314771  0.0213323500718538  0.7499982196564153
  0.4197132145277838  0.9786572769220704  0.2500019906485912
 
  0.00000000E+00  0.00000000E+00  0.00000000E+00
  0.00000000E+00  0.00000000E+00  0.00000000E+00
  0.00000000E+00  0.00000000E+00  0.00000000E+00
  0.00000000E+00  0.00000000E+00  0.00000000E+00
  0.00000000E+00  0.00000000E+00  0.00000000E+00
  0.00000000E+00  0.00000000E+00  0.00000000E+00
  0.00000000E+00  0.00000000E+00  0.00000000E+00
  0.00000000E+00  0.00000000E+00  0.00000000E+00
  0.00000000E+00  0.00000000E+00  0.00000000E+00
  0.00000000E+00  0.00000000E+00  0.00000000E+00
  0.00000000E+00  0.00000000E+00  0.00000000E+00
  0.00000000E+00  0.00000000E+00  0.00000000E+00
  0.00000000E+00  0.00000000E+00  0.00000000E+00
  0.00000000E+00  0.00000000E+00  0.00000000E+00
  0.00000000E+00  0.00000000E+00  0.00000000E+00
  0.00000000E+00  0.00000000E+00  0.00000000E+00
  0.00000000E+00  0.00000000E+00  0.00000000E+00
  0.00000000E+00  0.00000000E+00  0.00000000E+00
  0.00000000E+00  0.00000000E+00  0.00000000E+00
  0.00000000E+00  0.00000000E+00  0.00000000E+00
