Sodium vanadate - beta phase            
   1.00000000000000     
    15.3475739599252883   -0.0000000308943497    0.2147900817362421
    -0.0000000073827766    3.5993261302820394   -0.0000000575483196
    -0.8992411545944053   -0.0000001336838956    9.4441407021571315
   V    O    Na
    12    30     2
Direct
  0.3157173962996686 -0.0000000105750357  0.0971543072642106
  0.8157640866261815  0.5000001729124139  0.0971763284413385
  0.6823151639209908  0.0000000180598165  0.8872323493082525
  0.1823231747275854  0.5000001160800207  0.8872681957202685
  0.1061004753675463 -0.0000000137440957  0.1236440725238936
  0.6061309930510373  0.4999999908084689  0.1235428021766098
  0.9120616880954955 -0.0000000560553786  0.8839445056652988
  0.4120856776078146  0.4999999635109593  0.8838614547777155
  0.3973052614869221 -0.0000000093307966  0.4157887088961492
  0.8973626473711531  0.4999999843477351  0.4158909699820466
  0.7849420540340841  0.0000000013493061  0.5815857051022187
  0.2849085196541014  0.4999999298288147  0.5815239616552973
  0.0073736800525764 -0.0000000108637176  0.9953810948236765
  0.5074250585568628  0.5000000589350626  0.9952628409934020
  0.8143105467270177  0.0000001907812317  0.0437238420467697
  0.3142373526098308  0.5000000036550998  0.0436306555962324
  0.2008816026774713  0.0000000844402046  0.9312167232284894
  0.7009174695854227  0.5000000562468151  0.9311683335174324
  0.6260022621537493  0.0000000145950748  0.0708745552609669
  0.1259887523440111  0.5000000194545356  0.0710002247583939
  0.3817138876243628 -0.0000000441322362  0.9182177720874726
  0.8817268607678120  0.5000000739569758  0.9182800554344461
  0.4031151283938026 -0.0000000193016560  0.2223140456381615
  0.9031223603064803  0.4999999460243208  0.2224353040875938
  0.6015467589205383  0.0000000097718980  0.7675650351499669
  0.1015483835663684  0.4999998846576664  0.7676093051084866
  0.2296974585794291 -0.0000000038009080  0.2000205087218776
  0.7297125501046093  0.4999999838428651  0.2000136874366815
  0.7759757156264272  0.0000000008645981  0.7678636146022944
  0.2759415635218510  0.4999999319628517  0.7678178342692417
  0.0660763488770774 -0.0000000305240510  0.2732359911392677
  0.5660805478082304  0.4999999717539162  0.2730732379584327
  0.9426069159755200  0.0000000499059713  0.7235514809166702
  0.4426080657304122  0.4999999715545854  0.7234277595768874
  0.3192553236914938 -0.0000000466226669  0.5688586744819959
  0.8192782285657928  0.5000000038105563  0.5689142189568867
  0.8591647941662598 -0.0000000174648841  0.4182728839078879
  0.3590819149446032  0.4999999828978235  0.4181592968623412
  0.4967990284808417 -0.0000000093649416  0.4835779985336484
  0.9968419828666079  0.5000000096291852  0.4837810599313007
  0.6843243723821218 -0.0000000728586999  0.5186743120087391
  0.1842786884608949  0.4999999549604939  0.5186348350833113
  0.0748708253444927 -0.0000000184912888  0.5823138990652612
  0.5748783203444412  0.4999999825310967  0.5823154473024855
 
  0.00000000E+00  0.00000000E+00  0.00000000E+00
  0.00000000E+00  0.00000000E+00  0.00000000E+00
  0.00000000E+00  0.00000000E+00  0.00000000E+00
  0.00000000E+00  0.00000000E+00  0.00000000E+00
  0.00000000E+00  0.00000000E+00  0.00000000E+00
  0.00000000E+00  0.00000000E+00  0.00000000E+00
  0.00000000E+00  0.00000000E+00  0.00000000E+00
  0.00000000E+00  0.00000000E+00  0.00000000E+00
  0.00000000E+00  0.00000000E+00  0.00000000E+00
  0.00000000E+00  0.00000000E+00  0.00000000E+00
  0.00000000E+00  0.00000000E+00  0.00000000E+00
  0.00000000E+00  0.00000000E+00  0.00000000E+00
  0.00000000E+00  0.00000000E+00  0.00000000E+00
  0.00000000E+00  0.00000000E+00  0.00000000E+00
  0.00000000E+00  0.00000000E+00  0.00000000E+00
  0.00000000E+00  0.00000000E+00  0.00000000E+00
  0.00000000E+00  0.00000000E+00  0.00000000E+00
  0.00000000E+00  0.00000000E+00  0.00000000E+00
  0.00000000E+00  0.00000000E+00  0.00000000E+00
  0.00000000E+00  0.00000000E+00  0.00000000E+00
  0.00000000E+00  0.00000000E+00  0.00000000E+00
  0.00000000E+00  0.00000000E+00  0.00000000E+00
  0.00000000E+00  0.00000000E+00  0.00000000E+00
  0.00000000E+00  0.00000000E+00  0.00000000E+00
  0.00000000E+00  0.00000000E+00  0.00000000E+00
  0.00000000E+00  0.00000000E+00  0.00000000E+00
  0.00000000E+00  0.00000000E+00  0.00000000E+00
  0.00000000E+00  0.00000000E+00  0.00000000E+00
  0.00000000E+00  0.00000000E+00  0.00000000E+00
  0.00000000E+00  0.00000000E+00  0.00000000E+00
  0.00000000E+00  0.00000000E+00  0.00000000E+00
  0.00000000E+00  0.00000000E+00  0.00000000E+00
  0.00000000E+00  0.00000000E+00  0.00000000E+00
  0.00000000E+00  0.00000000E+00  0.00000000E+00
  0.00000000E+00  0.00000000E+00  0.00000000E+00
  0.00000000E+00  0.00000000E+00  0.00000000E+00
  0.00000000E+00  0.00000000E+00  0.00000000E+00
  0.00000000E+00  0.00000000E+00  0.00000000E+00
  0.00000000E+00  0.00000000E+00  0.00000000E+00
  0.00000000E+00  0.00000000E+00  0.00000000E+00
  0.00000000E+00  0.00000000E+00  0.00000000E+00
  0.00000000E+00  0.00000000E+00  0.00000000E+00
  0.00000000E+00  0.00000000E+00  0.00000000E+00
  0.00000000E+00  0.00000000E+00  0.00000000E+00
