Na4 Fe4 O8 F4                           
   1.00000000000000     
     5.3840157829196338    0.0018233108580597    0.0162613829681560
    -2.6704924626779905    4.6402611709317005    0.0360085666232786
     0.0294460158349818    0.0759281401610703    9.1418165117487895
   Na   Fe   O    F 
     4     4     8     4
Direct
  0.0177392851902880  0.0130815061619742  0.9272575529922946
  0.9794984887837970  0.9860476699874141  0.4276955496358283
  0.3256849486924409  0.6710284919858225  0.2507995302002257
  0.6721780004498399  0.3368854253265781  0.7397084510846170
  0.3076985881838041  0.6392463562843318  0.6072288195767825
  0.6463724336200158  0.3084667175166445  0.4112929036584347
  0.6856226743105580  0.3155369128470582  0.1105969989332038
  0.3292581108479311  0.6789350016712774  0.8968306969703761
  0.4257516850802006  0.9918489764872476  0.0050613188919471
  0.0328722348412072  0.4345978726631401  0.0091224151225759
  0.3830308647327385  0.9597114840670002  0.5038387167707938
  0.9606384898219886  0.3926555278514243  0.5193309230698375
  0.5507345295421615  0.5552261439168475  0.5058994579595435
  0.2859183008185866  0.4021185314794735  0.7679403968313920
  0.7375320038592790  0.1211751705923945  0.2696986504018852
  0.1360873010309405  0.7561469598081771  0.7618955407255825
  0.6071587787774746  0.5995761925949878  0.0049898608355292
  0.8892324886065666  0.6490300466930066  0.2575126763750859
  0.3617411691019683  0.2701851040245273  0.2547417306662467
  0.6652496237082275  0.9184999080406797  0.7685578092978176
 
  0.00000000E+00  0.00000000E+00  0.00000000E+00
  0.00000000E+00  0.00000000E+00  0.00000000E+00
  0.00000000E+00  0.00000000E+00  0.00000000E+00
  0.00000000E+00  0.00000000E+00  0.00000000E+00
  0.00000000E+00  0.00000000E+00  0.00000000E+00
  0.00000000E+00  0.00000000E+00  0.00000000E+00
  0.00000000E+00  0.00000000E+00  0.00000000E+00
  0.00000000E+00  0.00000000E+00  0.00000000E+00
  0.00000000E+00  0.00000000E+00  0.00000000E+00
  0.00000000E+00  0.00000000E+00  0.00000000E+00
  0.00000000E+00  0.00000000E+00  0.00000000E+00
  0.00000000E+00  0.00000000E+00  0.00000000E+00
  0.00000000E+00  0.00000000E+00  0.00000000E+00
  0.00000000E+00  0.00000000E+00  0.00000000E+00
  0.00000000E+00  0.00000000E+00  0.00000000E+00
  0.00000000E+00  0.00000000E+00  0.00000000E+00
  0.00000000E+00  0.00000000E+00  0.00000000E+00
  0.00000000E+00  0.00000000E+00  0.00000000E+00
  0.00000000E+00  0.00000000E+00  0.00000000E+00
  0.00000000E+00  0.00000000E+00  0.00000000E+00
