Na8 Ni8 O16 F8                          
   1.00000000000000     
     7.8240868232720766    0.0382832408949147    0.0018537494483526
     0.0215143283522365    7.2666069202915455   -0.0180297045505211
    -0.0428521261610889   -0.0911330265232754    7.2846137201825023
   Na   Ni   O    F 
     8     8    16     8
Direct
  0.2489315940577617  0.2770429534592592  0.2255575122680779
  0.2337268578902651  0.2744019817264605  0.7465182051670181
  0.2423706384796211  0.7637282794449956  0.2284147529312211
  0.2488483933817212  0.7770207246256796  0.7348289721802631
  0.7639710374955790  0.2342264139604524  0.2864592853355902
  0.7521605285178102  0.2234045511698743  0.7515052709439930
  0.7429368161906694  0.7084857243350237  0.2685209046086889
  0.7658131904071747  0.7393744811265820  0.7518273828187795
  0.9967006758813450  0.0045621847032146  0.0086474052967649
  0.0050585937761027 -0.0045928454085866  0.4884119060228829
  0.9961075274080547  0.5077106173718448 -0.0019143116185055
  0.0044558995421077  0.4918159178339517  0.5148270749328846
  0.4955765236540576  0.0013582577860419 -0.0019865192315281
  0.4976782192912533 -0.0004301568268539  0.4992687330991855
  0.5040554898969064  0.5000637193053586 -0.0045278118147193
  0.4974587639867736  0.4979620447949279  0.4992669950227382
  0.2343614094915718 -0.0110557173859223 -0.0120560667729357
  0.2343768187760998  0.5122233332238898  0.0125421308766972
  0.7663502587823273  0.0250494775643157  0.0369885216711598
  0.7656651841121541  0.4964242716932342  0.9622585022277940
 -0.0109059732817790  0.2543791222952620 -0.0657450995720984
 -0.0376929136661624  0.2385092586141310  0.5389202461506002
 -0.0365792877592454  0.7561450033915561  0.0730855079567033
  0.0455912872039069  0.7477764543575415  0.4586459432209226
  0.5447502070726612  0.2457217313728288  0.5355250452986997
  0.4555542622345489  0.7503113983034896  0.4574732882604663
  0.0550761975693006  0.0605823434429447  0.2404212039541658
  0.0456859141171814  0.5627336797673771  0.7676965802372385
  0.4599531378141925  0.0687532492002008  0.2589972772775330
  0.5360791022028626 -0.0719295646717511  0.7393277866155999
  0.5326454712917075  0.4339774361420806  0.2571223982805010
  0.4640515415004073  0.5650184923232017  0.7395041648499474
  0.2462517512411282  0.0320297774754256  0.5583574526477673
  0.2503367665146785  0.4444942564839836  0.4776266710117807
  0.7570806319373918 -0.0425817522276364  0.4514821113139252
  0.7526661269985978  0.5389841731037144  0.5244129019406462
  0.4896036132439437  0.2494327879664608 -0.0966491044082972
  0.5142930477679603  0.7516859566976023  0.0877444354502057
 -0.0319488513195413 -0.0534865053451368  0.7543963740367556
  0.9709035462969194  0.4486864868029699  0.2462959695108892
 
  0.00000000E+00  0.00000000E+00  0.00000000E+00
  0.00000000E+00  0.00000000E+00  0.00000000E+00
  0.00000000E+00  0.00000000E+00  0.00000000E+00
  0.00000000E+00  0.00000000E+00  0.00000000E+00
  0.00000000E+00  0.00000000E+00  0.00000000E+00
  0.00000000E+00  0.00000000E+00  0.00000000E+00
  0.00000000E+00  0.00000000E+00  0.00000000E+00
  0.00000000E+00  0.00000000E+00  0.00000000E+00
  0.00000000E+00  0.00000000E+00  0.00000000E+00
  0.00000000E+00  0.00000000E+00  0.00000000E+00
  0.00000000E+00  0.00000000E+00  0.00000000E+00
  0.00000000E+00  0.00000000E+00  0.00000000E+00
  0.00000000E+00  0.00000000E+00  0.00000000E+00
  0.00000000E+00  0.00000000E+00  0.00000000E+00
  0.00000000E+00  0.00000000E+00  0.00000000E+00
  0.00000000E+00  0.00000000E+00  0.00000000E+00
  0.00000000E+00  0.00000000E+00  0.00000000E+00
  0.00000000E+00  0.00000000E+00  0.00000000E+00
  0.00000000E+00  0.00000000E+00  0.00000000E+00
  0.00000000E+00  0.00000000E+00  0.00000000E+00
  0.00000000E+00  0.00000000E+00  0.00000000E+00
  0.00000000E+00  0.00000000E+00  0.00000000E+00
  0.00000000E+00  0.00000000E+00  0.00000000E+00
  0.00000000E+00  0.00000000E+00  0.00000000E+00
  0.00000000E+00  0.00000000E+00  0.00000000E+00
  0.00000000E+00  0.00000000E+00  0.00000000E+00
  0.00000000E+00  0.00000000E+00  0.00000000E+00
  0.00000000E+00  0.00000000E+00  0.00000000E+00
  0.00000000E+00  0.00000000E+00  0.00000000E+00
  0.00000000E+00  0.00000000E+00  0.00000000E+00
  0.00000000E+00  0.00000000E+00  0.00000000E+00
  0.00000000E+00  0.00000000E+00  0.00000000E+00
  0.00000000E+00  0.00000000E+00  0.00000000E+00
  0.00000000E+00  0.00000000E+00  0.00000000E+00
  0.00000000E+00  0.00000000E+00  0.00000000E+00
  0.00000000E+00  0.00000000E+00  0.00000000E+00
  0.00000000E+00  0.00000000E+00  0.00000000E+00
  0.00000000E+00  0.00000000E+00  0.00000000E+00
  0.00000000E+00  0.00000000E+00  0.00000000E+00
  0.00000000E+00  0.00000000E+00  0.00000000E+00
