Co8 O8 F16                              
   1.00000000000000     
     7.5144016260422521    0.0022745724427272    0.0047311379982781
     0.0011615700669383    7.5592419688739856   -0.0013691482584259
     0.0020079792547845    0.0015058539756217    7.5620908846945456
   Co   O    F 
     8     8    16
Direct
  0.0176643468845667 -0.0000592932628482  0.9967466655786290
  0.0040947798143039  0.0001396545919360  0.4975866467794044
 -0.0045171509150821  0.5002082274239722  0.0019785338602441
  0.9963772651921156  0.5016141430683863  0.5017502203736208
  0.4997782889253889  0.9997454591173884  0.9918463320798883
  0.5037774056454477 -0.0001333580207542  0.5024673957535057
  0.4997070014904814  0.4998852467819277  0.0052905748900655
  0.4964415790516765  0.4998805079005684  0.4948168030680665
  0.4999825855917582  0.9988289527346992  0.7549668194078216
  0.7438185750181819  0.4998545801063662  0.0041187523803481
  0.4971027871972373  0.4988634951161243  0.2483369750618736
  0.2615422847881171  0.9996470468659686  0.9949742890363936
  0.2517138773157753  0.5000844547779425  0.0029285640925905
  0.7387737744632180  0.9999250792116988  0.9966917072764638
  0.9995860766377150  0.2543600942869901  0.5000936972266276
  0.9993286173316426  0.7468995265408310  0.4996948467713880
  0.0098525643522374 -0.0000290728115137  0.2505315147917829
  0.2549590126634821 -0.0000829828066860  0.5032163489721044
  0.2465326712818078  0.5001593355053010  0.4981574962886181
  0.7469900917682213  0.5002098497740576  0.4969668780051757
 -0.0136824992234521  0.7544424496531893  0.9998420014668516
  0.5041065304525211  0.2508497803248802  0.0018593639515952
  0.0076280416589211  0.0000912346981567  0.7453016867594832
 -0.0002125218015851  0.5002832190387797  0.2508366528770605
 -0.0010299869095201  0.5010036221138966  0.7521208670281826
  0.4978961659537376  0.9986386940816081  0.2481042103204827
  0.4968314589211464  0.5003235007447292  0.7513736938030225
  0.7526689845413491  0.0006562653821898  0.5016390171958166
 -0.0128711554730629  0.2457930278075421  0.9997307938157021
  0.5005514813354638  0.2493622413970689  0.5030142896282082
  0.5045063846020496  0.7485167291014769  0.0016237574140278
  0.5001006814441393  0.7500382887540986  0.5013926040449482
 
  0.00000000E+00  0.00000000E+00  0.00000000E+00
  0.00000000E+00  0.00000000E+00  0.00000000E+00
  0.00000000E+00  0.00000000E+00  0.00000000E+00
  0.00000000E+00  0.00000000E+00  0.00000000E+00
  0.00000000E+00  0.00000000E+00  0.00000000E+00
  0.00000000E+00  0.00000000E+00  0.00000000E+00
  0.00000000E+00  0.00000000E+00  0.00000000E+00
  0.00000000E+00  0.00000000E+00  0.00000000E+00
  0.00000000E+00  0.00000000E+00  0.00000000E+00
  0.00000000E+00  0.00000000E+00  0.00000000E+00
  0.00000000E+00  0.00000000E+00  0.00000000E+00
  0.00000000E+00  0.00000000E+00  0.00000000E+00
  0.00000000E+00  0.00000000E+00  0.00000000E+00
  0.00000000E+00  0.00000000E+00  0.00000000E+00
  0.00000000E+00  0.00000000E+00  0.00000000E+00
  0.00000000E+00  0.00000000E+00  0.00000000E+00
  0.00000000E+00  0.00000000E+00  0.00000000E+00
  0.00000000E+00  0.00000000E+00  0.00000000E+00
  0.00000000E+00  0.00000000E+00  0.00000000E+00
  0.00000000E+00  0.00000000E+00  0.00000000E+00
  0.00000000E+00  0.00000000E+00  0.00000000E+00
  0.00000000E+00  0.00000000E+00  0.00000000E+00
  0.00000000E+00  0.00000000E+00  0.00000000E+00
  0.00000000E+00  0.00000000E+00  0.00000000E+00
  0.00000000E+00  0.00000000E+00  0.00000000E+00
  0.00000000E+00  0.00000000E+00  0.00000000E+00
  0.00000000E+00  0.00000000E+00  0.00000000E+00
  0.00000000E+00  0.00000000E+00  0.00000000E+00
  0.00000000E+00  0.00000000E+00  0.00000000E+00
  0.00000000E+00  0.00000000E+00  0.00000000E+00
  0.00000000E+00  0.00000000E+00  0.00000000E+00
  0.00000000E+00  0.00000000E+00  0.00000000E+00
