Na4 Fe4 O8 F4                           
   1.00000000000000     
     5.1987171811765167   -0.0001197278868670   -0.0262606263663258
    -0.0001185523405891    5.2581821632612451   -0.0002021258410687
    -0.0393744179643260   -0.0002873075763672    7.6376413562593530
   Na   Fe   O    F 
     4     4     8     4
Direct
  0.9926480041145034  0.0338189957798263  0.2549551593675738
  0.0123311216590231  0.9586504129479225  0.7465492024198240
  0.4917044257345556  0.4671430845804188  0.7555914511158074
  0.5122372967628652  0.5413193587136212  0.2466285897937319
  0.5180239398536272  0.9957034846481162  0.9903890228854042
  0.9970663236752974  0.5152856253627291  0.0157150571225856
  0.4970349996364226  0.9846491391677051  0.5156638767345568
  0.0179140542201478  0.5041403256161419  0.4904010093713256
  0.7091611421725162  0.2907510309494577  0.0306910504472524
  0.2830020039876611  0.7097154573420346  0.9682551024745272
  0.7927202197251050  0.7910982322191288  0.0375624075702871
  0.2925944393781293  0.7087423786587839  0.5374504885105308
  0.7831266484479092  0.7903052017278732  0.4681217537136982
  0.2090570333707371  0.2091473895114511  0.5306829647768470
  0.0689569693513903  0.4864934826922118  0.2489861868985803
  0.5688921269012100  0.0132083375447700  0.7489935812660079
  0.2015395447776420  0.2076266089052668  0.9576881189497702
  0.7015010560962492  0.2923683651556427  0.4577740216353631
  0.9250355374382998  0.5084800871482738  0.7489532563816644
  0.4254531126967152  0.9913530013286177  0.2489476985646474
 
  0.00000000E+00  0.00000000E+00  0.00000000E+00
  0.00000000E+00  0.00000000E+00  0.00000000E+00
  0.00000000E+00  0.00000000E+00  0.00000000E+00
  0.00000000E+00  0.00000000E+00  0.00000000E+00
  0.00000000E+00  0.00000000E+00  0.00000000E+00
  0.00000000E+00  0.00000000E+00  0.00000000E+00
  0.00000000E+00  0.00000000E+00  0.00000000E+00
  0.00000000E+00  0.00000000E+00  0.00000000E+00
  0.00000000E+00  0.00000000E+00  0.00000000E+00
  0.00000000E+00  0.00000000E+00  0.00000000E+00
  0.00000000E+00  0.00000000E+00  0.00000000E+00
  0.00000000E+00  0.00000000E+00  0.00000000E+00
  0.00000000E+00  0.00000000E+00  0.00000000E+00
  0.00000000E+00  0.00000000E+00  0.00000000E+00
  0.00000000E+00  0.00000000E+00  0.00000000E+00
  0.00000000E+00  0.00000000E+00  0.00000000E+00
  0.00000000E+00  0.00000000E+00  0.00000000E+00
  0.00000000E+00  0.00000000E+00  0.00000000E+00
  0.00000000E+00  0.00000000E+00  0.00000000E+00
  0.00000000E+00  0.00000000E+00  0.00000000E+00
