Na8 Ti8 O16 F8                          
   1.00000000000000     
     7.8567122939767682    0.0000000262713858   -0.0000002239542918
     0.0000000517179658    7.7034546552864098   -0.0000008013620467
    -0.0000002365340620   -0.0000007943656058    7.7034253558354120
   Na   Ti   O    F 
     8     8    16     8
Direct
  0.2500606867632086  0.2481628905341727  0.2481542092491572
  0.2500616841593145  0.2481632476112499  0.7518462599477964
  0.2500616401070605  0.7518367495809497  0.2481537780877244
  0.2500606088084099  0.7518372055690666  0.7518458967555215
  0.7500729511643257  0.2480095918613632  0.2480429591273793
  0.7500723642144937  0.2480103076556379  0.7519570860102740
  0.7500724996232088  0.7519901127382697  0.2480425224890840
  0.7500730031936662  0.7519903686666388  0.7519570565478855
  0.0024924339907072 -0.0000000167920918  0.0000001759006280
  0.9916020713114114 -0.0000000176216544  0.5000000808875945
  0.9834456448291429  0.5000000030798220  0.0000000615441735
  0.0015961650207503  0.4999999762352948  0.5000000148087564
  0.4981538423972242 -0.0000001274233742  0.9999999533352657
  0.5165540937661585 -0.0000001729783972  0.4999999372159695
  0.5083656344798927  0.5000000799805463  0.0000000381411790
  0.4984265863977364  0.5000000581170834  0.4999998841225733
  0.2498859220399962 -0.0000000240532544  0.9999999135269196
  0.7498610441602194 -0.0000000404214253  0.0000000475720475
  0.7464607523331459 -0.0000000219677542  0.4999998871843535
  0.7534890425564128  0.5000000077938800  0.0000000882932962
  0.0039467766069399  0.2529787070666358  0.4999998713172837
  0.0039467906276410  0.7470212562917347  0.5000001983467027
  0.4978191753970650  0.2479208260857839  0.9999993976910123
  0.4956147800098073  0.2459484687872852  0.5000000980812582
  0.4978191831677843  0.7520791695199837  0.0000004722354262
  0.4956147446007488  0.7540515339112208  0.4999998313831468
  0.0019453747658949  0.9999999210934070  0.2479066573849765
  0.0019452299879370  0.0000000497049908  0.7520934475795460
  0.0043669610416990  0.5000000833128529  0.2459654228407918
  0.0043667907577879  0.4999998602911296  0.7540346355421137
  0.4960506873500143  0.4999998227413642  0.2529806214557795
  0.4960508604526127  0.5000002205991774  0.7470193339598135
  0.2536949115131294 -0.0000000167716038  0.5000001278904814
  0.2462941559886216  0.5000000046151359  0.9999998864229198
  0.2500122011947063  0.4999999765302792  0.5000001302110720
  0.7500120341265852  0.4999999718832545  0.4999999435973932
  0.0129146526949413  0.2523982143995342  0.0000003083851155
  0.0129146550030500  0.7476017557614215  0.9999998326985284
  0.4869005864151207  0.0000002840047442  0.2523751992537958
  0.4869007769814279  0.9999997120056514  0.7476247329752777
 
  0.00000000E+00  0.00000000E+00  0.00000000E+00
  0.00000000E+00  0.00000000E+00  0.00000000E+00
  0.00000000E+00  0.00000000E+00  0.00000000E+00
  0.00000000E+00  0.00000000E+00  0.00000000E+00
  0.00000000E+00  0.00000000E+00  0.00000000E+00
  0.00000000E+00  0.00000000E+00  0.00000000E+00
  0.00000000E+00  0.00000000E+00  0.00000000E+00
  0.00000000E+00  0.00000000E+00  0.00000000E+00
  0.00000000E+00  0.00000000E+00  0.00000000E+00
  0.00000000E+00  0.00000000E+00  0.00000000E+00
  0.00000000E+00  0.00000000E+00  0.00000000E+00
  0.00000000E+00  0.00000000E+00  0.00000000E+00
  0.00000000E+00  0.00000000E+00  0.00000000E+00
  0.00000000E+00  0.00000000E+00  0.00000000E+00
  0.00000000E+00  0.00000000E+00  0.00000000E+00
  0.00000000E+00  0.00000000E+00  0.00000000E+00
  0.00000000E+00  0.00000000E+00  0.00000000E+00
  0.00000000E+00  0.00000000E+00  0.00000000E+00
  0.00000000E+00  0.00000000E+00  0.00000000E+00
  0.00000000E+00  0.00000000E+00  0.00000000E+00
  0.00000000E+00  0.00000000E+00  0.00000000E+00
  0.00000000E+00  0.00000000E+00  0.00000000E+00
  0.00000000E+00  0.00000000E+00  0.00000000E+00
  0.00000000E+00  0.00000000E+00  0.00000000E+00
  0.00000000E+00  0.00000000E+00  0.00000000E+00
  0.00000000E+00  0.00000000E+00  0.00000000E+00
  0.00000000E+00  0.00000000E+00  0.00000000E+00
  0.00000000E+00  0.00000000E+00  0.00000000E+00
  0.00000000E+00  0.00000000E+00  0.00000000E+00
  0.00000000E+00  0.00000000E+00  0.00000000E+00
  0.00000000E+00  0.00000000E+00  0.00000000E+00
  0.00000000E+00  0.00000000E+00  0.00000000E+00
  0.00000000E+00  0.00000000E+00  0.00000000E+00
  0.00000000E+00  0.00000000E+00  0.00000000E+00
  0.00000000E+00  0.00000000E+00  0.00000000E+00
  0.00000000E+00  0.00000000E+00  0.00000000E+00
  0.00000000E+00  0.00000000E+00  0.00000000E+00
  0.00000000E+00  0.00000000E+00  0.00000000E+00
  0.00000000E+00  0.00000000E+00  0.00000000E+00
  0.00000000E+00  0.00000000E+00  0.00000000E+00
