Na2 Cr2 O4 F2                           
   1.00000000000000     
    -2.7293262666272002   -4.4524009208973787    0.0598015364178666
    -5.4123175348874817    0.0282494118071830   -0.0142107999313530
    -2.7010530147250318   -1.3626360657542838   -4.2814256939998190
   Na   Cr   O    F 
     2     2     4     2
Direct
  0.2552500619150209  0.2690351868262510  0.2350429087959327
  0.7546312308577541  0.7411658964021584  0.7352538523644441
  0.0083966198162173  0.9691327686044886  0.9781824492717917
  0.5086850661158238  0.5439743103418806  0.4781285196811282
  0.2558723043851998  0.7281534919665020  0.2374513477944902
  0.6837266635209076  0.8258683159195073  0.2818758854004315
  0.1829378636218095  0.7093209557044915  0.7809075208013709
  0.7540061440761008  0.2783568208047882  0.7392749329286730
  0.3208426311204420  0.1823794049101508  0.6973012498662214
  0.8216514145707237  0.2986128485197881  0.1985813330955182
 
  0.00000000E+00  0.00000000E+00  0.00000000E+00
  0.00000000E+00  0.00000000E+00  0.00000000E+00
  0.00000000E+00  0.00000000E+00  0.00000000E+00
  0.00000000E+00  0.00000000E+00  0.00000000E+00
  0.00000000E+00  0.00000000E+00  0.00000000E+00
  0.00000000E+00  0.00000000E+00  0.00000000E+00
  0.00000000E+00  0.00000000E+00  0.00000000E+00
  0.00000000E+00  0.00000000E+00  0.00000000E+00
  0.00000000E+00  0.00000000E+00  0.00000000E+00
  0.00000000E+00  0.00000000E+00  0.00000000E+00
