Na2 Mn2 O4 F2                           
   1.00000000000000     
     3.7728916039508444   -0.0000000079096158   -0.0057039854656819
    -0.0000000107593293    3.6657227986108172   -0.0000000000625068
    -0.0085543477749402    0.0000000013576418    7.6609429152345285
   Na   Mn   O    F 
     2     2     4     2
Direct
 -0.0004886840104740  0.0000000005195439  0.0161798299497972
  0.9928130385724844  0.0000000015712837  0.4865123669571709
  0.4970316310710812  0.5000000001612807  0.2716501706409596
  0.5003930821321563  0.5000000015299263  0.7442221295782993
  0.5081099602065966  0.5000000034543394  0.5066230759749334
  0.4977312395916753  0.9999999986250433  0.2431308954108215
  0.5028475346942171 -0.0000000001067275  0.7701800268886626
 -0.0000922955222061  0.5000000001446899  0.2478172235740541
  0.5003486028497866  0.4999999975495464  0.0018485541187689
  0.0013058904146827  0.4999999965510810  0.7548357269065175
 
  0.00000000E+00  0.00000000E+00  0.00000000E+00
  0.00000000E+00  0.00000000E+00  0.00000000E+00
  0.00000000E+00  0.00000000E+00  0.00000000E+00
  0.00000000E+00  0.00000000E+00  0.00000000E+00
  0.00000000E+00  0.00000000E+00  0.00000000E+00
  0.00000000E+00  0.00000000E+00  0.00000000E+00
  0.00000000E+00  0.00000000E+00  0.00000000E+00
  0.00000000E+00  0.00000000E+00  0.00000000E+00
  0.00000000E+00  0.00000000E+00  0.00000000E+00
  0.00000000E+00  0.00000000E+00  0.00000000E+00
