V8 O8 F16                               
   1.00000000000000     
     7.6630040281322582   -0.0045174009442320   -0.0075985865199075
     0.0039128976962136    7.5947957911568178    0.0031142255997459
     0.0081511374910662    0.0036263075006458    7.5300565684442713
   V    O    F 
     8     8    16
Direct
  0.9999449000996965  0.9751770379315614  0.9977697838589233
  0.0000134584102185  0.9661626085165805  0.4954269236860638
 -0.0000158872223806  0.4967105152789081  0.0237362716772342
  0.0000215205148406  0.4660435541590749  0.5028470222892781
  0.4999884728768861  0.0038443773772090  0.9649463630676549
  0.4999940777071107  0.0039964439908408  0.4649787176521551
  0.5001389473689686  0.5030769924616738  0.0344267783167673
  0.4999569532448371  0.5039871105919670  0.5351675740784692
  0.4998953049861024  0.9993623729494173  0.7474048611885181
  0.9995825442254149  0.7565459011108489  0.0084374576651132
  0.9993409710379234  0.4891540324009978  0.2447659404565156
  0.4998858117741922  0.0073633322471435  0.2473639436988271
  0.5008110126599699  0.5006083897568314  0.2522034677772279
  0.4991979393489226  0.5082350664573376  0.7525411757046170
  0.9996705471631802  0.2509132655189428  0.5078727970731539
  0.0001926996135306  0.7509380398296021  0.4891944650970135
 -0.0000512753737673  0.0220014902766027  0.2474761693259689
  0.2496019099782699  0.0038197466831792  0.4998708773067350
  0.2496298118863652  0.5041545918466417  0.5006692252220133
  0.7492393973379535  0.4991262819472755  0.9938972446774500
  0.7504289377632153  0.5047507894980241  0.5024841328961909
  0.4994268160759170  0.2537868855340047  0.9959251555781793
  0.0000348913789764 -0.0014040239287441  0.7470989339090344
  0.0009942283251004  0.5104627616749983  0.7568402111292698
  0.2499124622233109  0.0057587393132064  0.0003790988192788
  0.2508425505323758  0.5001552454360662  0.9957574054826819
  0.7500545385442324  0.0067462118608223  0.0003593716933308
  0.7503059374826706  0.0032663175472361  0.4999617231974542
  0.0004861021822098  0.2442403863486307  0.9857470001726472
  0.5002274068042316  0.2532609348979040  0.5048839097736214
  0.5005741650419990  0.7544463452246095  0.0049166528624078
  0.4996728460075178  0.7533082552606059  0.4946493446662109
 
  0.00000000E+00  0.00000000E+00  0.00000000E+00
  0.00000000E+00  0.00000000E+00  0.00000000E+00
  0.00000000E+00  0.00000000E+00  0.00000000E+00
  0.00000000E+00  0.00000000E+00  0.00000000E+00
  0.00000000E+00  0.00000000E+00  0.00000000E+00
  0.00000000E+00  0.00000000E+00  0.00000000E+00
  0.00000000E+00  0.00000000E+00  0.00000000E+00
  0.00000000E+00  0.00000000E+00  0.00000000E+00
  0.00000000E+00  0.00000000E+00  0.00000000E+00
  0.00000000E+00  0.00000000E+00  0.00000000E+00
  0.00000000E+00  0.00000000E+00  0.00000000E+00
  0.00000000E+00  0.00000000E+00  0.00000000E+00
  0.00000000E+00  0.00000000E+00  0.00000000E+00
  0.00000000E+00  0.00000000E+00  0.00000000E+00
  0.00000000E+00  0.00000000E+00  0.00000000E+00
  0.00000000E+00  0.00000000E+00  0.00000000E+00
  0.00000000E+00  0.00000000E+00  0.00000000E+00
  0.00000000E+00  0.00000000E+00  0.00000000E+00
  0.00000000E+00  0.00000000E+00  0.00000000E+00
  0.00000000E+00  0.00000000E+00  0.00000000E+00
  0.00000000E+00  0.00000000E+00  0.00000000E+00
  0.00000000E+00  0.00000000E+00  0.00000000E+00
  0.00000000E+00  0.00000000E+00  0.00000000E+00
  0.00000000E+00  0.00000000E+00  0.00000000E+00
  0.00000000E+00  0.00000000E+00  0.00000000E+00
  0.00000000E+00  0.00000000E+00  0.00000000E+00
  0.00000000E+00  0.00000000E+00  0.00000000E+00
  0.00000000E+00  0.00000000E+00  0.00000000E+00
  0.00000000E+00  0.00000000E+00  0.00000000E+00
  0.00000000E+00  0.00000000E+00  0.00000000E+00
  0.00000000E+00  0.00000000E+00  0.00000000E+00
  0.00000000E+00  0.00000000E+00  0.00000000E+00
