Na8 Ni8 O16 F8                          
   1.00000000000000     
     7.6798562770822949    0.0018901476474958   -0.0047055155501138
     0.0025811130372839    7.4575756952251337    0.0006618392700623
    -0.0047986498972180    0.0007204389794444    7.4765843813267541
   Na   Ni   O    F 
     8     8    16     8
Direct
  0.2528991555778956  0.2501487625136610  0.2475164452147565
  0.2534107830310044  0.2498919965133657  0.7548571667601272
  0.2532228281382434  0.7490750492225515  0.2478060522141909
  0.2532236234866757  0.7490429524977028  0.7520234189564391
  0.7534656655621123  0.2485937043498025  0.2512370137309343
  0.7532344842762621  0.2483835518120910  0.7488410181283441
  0.7534445265263207  0.7513964922654336  0.2513052930485584
  0.7532088309235412  0.7515495773487306  0.7487579682272594
 -0.0018556905424070  0.0006852121736059  0.0000389224509743
  0.0116092671444547  0.9999068805107315  0.5000506459512608
  0.0010960645103298  0.5013503614120740  0.0000777391380118
  0.9885694383529339  0.4997624351330766  0.5000539954009742
  0.5026145284681354 -0.0000158004485329  0.9994062755171443
  0.5028331734597320 -0.0000655633603771  0.4985375660709933
  0.5059211779600938  0.4999527629118095  0.0001377985654314
  0.4883353521688182  0.4999075358761552  0.5001789491748909
  0.2620499004039797  0.0000629828551029  0.4999146900438214
  0.2390076001550108  0.4993312384714084  0.4999109049385704
  0.7601388354411779  0.5002696087808107  0.0002400066676215
  0.7391362732732446  0.5001661561255002  0.5005140203556022
  0.9896676302354107  0.2565913177395711  0.0003640854500054
  0.9898455959194497  0.7452814418865145  0.0004831156849292
  0.5061219884191512  0.2498878386639565  0.0001514410664861
  0.5206216882324201  0.2515400966892780  0.5001782500666448
  0.5069990637642779  0.7500158918007531  0.0001131544357462
  0.5198707527986620  0.7482105307348621  0.5001668807965268
  0.0068569057488233  0.9999718989893560  0.2521545197478677
  0.0062629359287669  0.9998747045344607  0.7479109906645488
  0.0170923731682922  0.4997870780954531  0.2520377623049143
  0.0171411349593202  0.4998630981324508  0.7483098232869212
  0.4894567963379137  0.9995391794991585  0.2561923224118789
  0.4894176610564406  0.9995600090745824  0.7416101294727662
  0.2506160825252969  0.0005263913840754  0.9993425169671123
  0.2477547668647274  0.5010672775498702  0.0005110202579142
  0.7493903518576974  0.0006564274771670  0.9992867163184045
  0.7504783073764084  0.9992268173950455  0.4988603237719826
  0.9793964407899817  0.2480091167742243  0.5002953389598576
  0.9808119923732777  0.7515830296274856  0.5002896087767889
  0.4787018527297733  0.4997151481476357  0.2478019539748242
  0.4779298605963634  0.4996968088393897  0.7525341550279805
 
  0.00000000E+00  0.00000000E+00  0.00000000E+00
  0.00000000E+00  0.00000000E+00  0.00000000E+00
  0.00000000E+00  0.00000000E+00  0.00000000E+00
  0.00000000E+00  0.00000000E+00  0.00000000E+00
  0.00000000E+00  0.00000000E+00  0.00000000E+00
  0.00000000E+00  0.00000000E+00  0.00000000E+00
  0.00000000E+00  0.00000000E+00  0.00000000E+00
  0.00000000E+00  0.00000000E+00  0.00000000E+00
  0.00000000E+00  0.00000000E+00  0.00000000E+00
  0.00000000E+00  0.00000000E+00  0.00000000E+00
  0.00000000E+00  0.00000000E+00  0.00000000E+00
  0.00000000E+00  0.00000000E+00  0.00000000E+00
  0.00000000E+00  0.00000000E+00  0.00000000E+00
  0.00000000E+00  0.00000000E+00  0.00000000E+00
  0.00000000E+00  0.00000000E+00  0.00000000E+00
  0.00000000E+00  0.00000000E+00  0.00000000E+00
  0.00000000E+00  0.00000000E+00  0.00000000E+00
  0.00000000E+00  0.00000000E+00  0.00000000E+00
  0.00000000E+00  0.00000000E+00  0.00000000E+00
  0.00000000E+00  0.00000000E+00  0.00000000E+00
  0.00000000E+00  0.00000000E+00  0.00000000E+00
  0.00000000E+00  0.00000000E+00  0.00000000E+00
  0.00000000E+00  0.00000000E+00  0.00000000E+00
  0.00000000E+00  0.00000000E+00  0.00000000E+00
  0.00000000E+00  0.00000000E+00  0.00000000E+00
  0.00000000E+00  0.00000000E+00  0.00000000E+00
  0.00000000E+00  0.00000000E+00  0.00000000E+00
  0.00000000E+00  0.00000000E+00  0.00000000E+00
  0.00000000E+00  0.00000000E+00  0.00000000E+00
  0.00000000E+00  0.00000000E+00  0.00000000E+00
  0.00000000E+00  0.00000000E+00  0.00000000E+00
  0.00000000E+00  0.00000000E+00  0.00000000E+00
  0.00000000E+00  0.00000000E+00  0.00000000E+00
  0.00000000E+00  0.00000000E+00  0.00000000E+00
  0.00000000E+00  0.00000000E+00  0.00000000E+00
  0.00000000E+00  0.00000000E+00  0.00000000E+00
  0.00000000E+00  0.00000000E+00  0.00000000E+00
  0.00000000E+00  0.00000000E+00  0.00000000E+00
  0.00000000E+00  0.00000000E+00  0.00000000E+00
  0.00000000E+00  0.00000000E+00  0.00000000E+00
