Co4 O4 F8                               
    1.000000000000000     
     4.9535103907157092    0.0512488022241622    0.0235162494805878
     0.0385790639678890    5.1817102656524039   -0.0698719005961851
    -0.0324479797101114    0.0802877730511801    7.3020746666213858
   Co   O    F 
     4     4     8
Direct
  0.5025090088502010 -0.0015744093073149  0.0012159200250556
  0.0028120125027623  0.4991116868076472 -0.0004902071550883
  0.4973830398049333  0.0014664495720985  0.5013663407324277
 -0.0027892731070119  0.5010567651904583  0.4993715374166607
  0.6723363002861381  0.3212680585770733  0.0503544791361543
  0.3332765705120887  0.6761214278628835  0.9487433634213188
  0.3274334862613708  0.6793352851128245  0.5510156434804622
  0.6675356879736876  0.3230072786492787  0.4485944622357669
  0.1145715163124556  0.4624203029181084  0.2499973702059466
  0.8859052184890867  0.5379074814961310  0.7500514518764179
  0.6177213878047486  0.0285668356517169  0.7502016296205837
  0.3823210547522285  0.9721959877075521  0.2502431136129660
  0.1725213750129025  0.1782093415434641  0.9401034483732084
  0.8319143297615520  0.8192504731293093  0.0596285050302001
  0.8265656881276611  0.8204686638814684  0.4399542302118275
  0.1679825966552021  0.1811883712073066  0.5596487117760920
 
  0.00000000E+00  0.00000000E+00  0.00000000E+00
  0.00000000E+00  0.00000000E+00  0.00000000E+00
  0.00000000E+00  0.00000000E+00  0.00000000E+00
  0.00000000E+00  0.00000000E+00  0.00000000E+00
  0.00000000E+00  0.00000000E+00  0.00000000E+00
  0.00000000E+00  0.00000000E+00  0.00000000E+00
  0.00000000E+00  0.00000000E+00  0.00000000E+00
  0.00000000E+00  0.00000000E+00  0.00000000E+00
  0.00000000E+00  0.00000000E+00  0.00000000E+00
  0.00000000E+00  0.00000000E+00  0.00000000E+00
  0.00000000E+00  0.00000000E+00  0.00000000E+00
  0.00000000E+00  0.00000000E+00  0.00000000E+00
  0.00000000E+00  0.00000000E+00  0.00000000E+00
  0.00000000E+00  0.00000000E+00  0.00000000E+00
  0.00000000E+00  0.00000000E+00  0.00000000E+00
  0.00000000E+00  0.00000000E+00  0.00000000E+00
