Fe4 O4 F8                               
   1.00000000000000     
     4.9635589724796034   -0.0661582707362448   -0.0273316383195713
    -0.1024438055228524    5.5628040963780689    0.1205802713653781
    -0.0399025558824150    0.1936045626475577    7.0293414283636659
   Fe   O    F 
     4     4     8
Direct
  0.5208601421519947  0.9914690126430517 -0.0022672454520120
  0.9786524531068903  0.4896751995959253  0.0051978891828282
  0.5083931527754278  0.9966884106821775  0.4916452223090498
  0.9842842555925262  0.5222152372277999  0.4989334691637353
  0.7362052554413050  0.2468757845713415  0.0517080998449942
  0.2308458369093011  0.2272359556904762  0.8333172185198324
  0.8155987664964641  0.8206402214333134  0.4206740718064536
  0.2083491192838765  0.2211976226726902  0.6448049917929999
  0.2709170130457254  0.7233654138768894  0.9466986042699167
  0.7692598543432383  0.7489279272378452  0.0981648910292628
  0.3026311503988998  0.7100323391047212  0.5655563813871723
  0.6800568617770872  0.3102722881520623  0.4471960675998958
  0.1449270604893201  0.4531587040101837  0.2643343437595861
  0.8461283335827186  0.5505823392347097  0.7462669907385802
  0.6665399481382500  0.9866486842587929  0.7402996127494198
  0.3363507964669830  0.0010148596080135  0.2474693912982917
 
  0.00000000E+00  0.00000000E+00  0.00000000E+00
  0.00000000E+00  0.00000000E+00  0.00000000E+00
  0.00000000E+00  0.00000000E+00  0.00000000E+00
  0.00000000E+00  0.00000000E+00  0.00000000E+00
  0.00000000E+00  0.00000000E+00  0.00000000E+00
  0.00000000E+00  0.00000000E+00  0.00000000E+00
  0.00000000E+00  0.00000000E+00  0.00000000E+00
  0.00000000E+00  0.00000000E+00  0.00000000E+00
  0.00000000E+00  0.00000000E+00  0.00000000E+00
  0.00000000E+00  0.00000000E+00  0.00000000E+00
  0.00000000E+00  0.00000000E+00  0.00000000E+00
  0.00000000E+00  0.00000000E+00  0.00000000E+00
  0.00000000E+00  0.00000000E+00  0.00000000E+00
  0.00000000E+00  0.00000000E+00  0.00000000E+00
  0.00000000E+00  0.00000000E+00  0.00000000E+00
  0.00000000E+00  0.00000000E+00  0.00000000E+00
