Na8 Ni8 O16 F8                          
   1.00000000000000     
     7.4874033799483506   -0.0010081680468321    0.1202720510136300
     0.0724774260343198    7.6619331105617015    0.0739272419842837
    -0.1128092983895926    0.0865981526236906    7.2346051833743861
   Na   Ni   O    F 
     8     8    16     8
Direct
  0.2800907833781771  0.2659730383199024  0.2400820278510948
  0.2422310519633036  0.2366624544241481  0.7334589973208210
  0.2355161102215347  0.7545412236262538  0.2574890913393758
  0.2471162243687089  0.7340019523243843  0.7556781430394104
  0.7499139241467323  0.2488773040784549  0.2482943768097487
  0.7501371264155429  0.2757729773271277  0.7606333527522513
  0.7334259149052386  0.7412076335035434  0.2451403297992451
  0.7645007466850768  0.7513964620732944  0.7390804925541475
  0.9993281059318877  0.9959943525662113  0.0188811331285883
  0.9960311898440917  0.0008025113118460  0.4963480917872380
  0.0213215122495897  0.4932180782883973  0.9929908305806006
  0.0057777995807061  0.4958748040142262  0.4941600655218188
  0.4921435463913843 -0.0021369122054158  0.0060381618058714
  0.5004518703924259  0.0028313257448709  0.5088030618809991
  0.4982354433264217  0.5033147446803345  0.9925406261680227
  0.5033808226997371  0.5036522685037372  0.4969494410131541
  0.2336280438006156  0.0244600984559406  0.0783728793401724
  0.2325241810392421  0.0160341576067729  0.4250485685608963
  0.2710315582322895  0.4558891482191943  0.9329999259558298
  0.7572734644303708  0.9700690335435265  0.9500209651274316
  0.7614190030606910  0.0253952115160453  0.5851207844632552
  0.0017664030666191  0.2360937089776302  0.5103174402758146
  0.9878650285193817  0.7615391904841088  0.4855696774234177
  0.5075829200306859  0.2614307879993941  0.9941324571594778
  0.5003288135918960  0.2598941351771150  0.5025851357184986
  0.4723940344829934  0.7378570495058561  0.0080088165054188
  0.5043570749567048  0.7467599391587929  0.5045755157680967
  0.9146594387966784  0.9856839352108678  0.2640397337019794
  0.0594109796527030  0.4692420778404485  0.2495349692458122
  0.9572663543244458  0.5225964228501639  0.7379440909299151
  0.4364490204510666  0.5257206942491823  0.2433826712674515
  0.5684232655824631  0.5277226242487117  0.7472645054056365
  0.2486429866614061  0.5003141497248424  0.5584753456440725
  0.7513609325728621  0.5135583191235842  0.0508415573106197
  0.7590641421384196  0.4911689077369982  0.4271531387567961
  0.9638162302931361  0.2451729919090787  0.9815235602196691
  0.0410116316440177  0.7448390826302139  0.0127259788761073
  0.0680285438474087  0.9828878850009382  0.7522785969846564
  0.5705979593484233  0.0024418273164745  0.2547037120408233
  0.4114958169749196  0.9912444029328173  0.7568117499657651
 
  0.00000000E+00  0.00000000E+00  0.00000000E+00
  0.00000000E+00  0.00000000E+00  0.00000000E+00
  0.00000000E+00  0.00000000E+00  0.00000000E+00
  0.00000000E+00  0.00000000E+00  0.00000000E+00
  0.00000000E+00  0.00000000E+00  0.00000000E+00
  0.00000000E+00  0.00000000E+00  0.00000000E+00
  0.00000000E+00  0.00000000E+00  0.00000000E+00
  0.00000000E+00  0.00000000E+00  0.00000000E+00
  0.00000000E+00  0.00000000E+00  0.00000000E+00
  0.00000000E+00  0.00000000E+00  0.00000000E+00
  0.00000000E+00  0.00000000E+00  0.00000000E+00
  0.00000000E+00  0.00000000E+00  0.00000000E+00
  0.00000000E+00  0.00000000E+00  0.00000000E+00
  0.00000000E+00  0.00000000E+00  0.00000000E+00
  0.00000000E+00  0.00000000E+00  0.00000000E+00
  0.00000000E+00  0.00000000E+00  0.00000000E+00
  0.00000000E+00  0.00000000E+00  0.00000000E+00
  0.00000000E+00  0.00000000E+00  0.00000000E+00
  0.00000000E+00  0.00000000E+00  0.00000000E+00
  0.00000000E+00  0.00000000E+00  0.00000000E+00
  0.00000000E+00  0.00000000E+00  0.00000000E+00
  0.00000000E+00  0.00000000E+00  0.00000000E+00
  0.00000000E+00  0.00000000E+00  0.00000000E+00
  0.00000000E+00  0.00000000E+00  0.00000000E+00
  0.00000000E+00  0.00000000E+00  0.00000000E+00
  0.00000000E+00  0.00000000E+00  0.00000000E+00
  0.00000000E+00  0.00000000E+00  0.00000000E+00
  0.00000000E+00  0.00000000E+00  0.00000000E+00
  0.00000000E+00  0.00000000E+00  0.00000000E+00
  0.00000000E+00  0.00000000E+00  0.00000000E+00
  0.00000000E+00  0.00000000E+00  0.00000000E+00
  0.00000000E+00  0.00000000E+00  0.00000000E+00
  0.00000000E+00  0.00000000E+00  0.00000000E+00
  0.00000000E+00  0.00000000E+00  0.00000000E+00
  0.00000000E+00  0.00000000E+00  0.00000000E+00
  0.00000000E+00  0.00000000E+00  0.00000000E+00
  0.00000000E+00  0.00000000E+00  0.00000000E+00
  0.00000000E+00  0.00000000E+00  0.00000000E+00
  0.00000000E+00  0.00000000E+00  0.00000000E+00
  0.00000000E+00  0.00000000E+00  0.00000000E+00
