V4 O4 F8                                
   1.00000000000000     
     5.1689601966896879    0.0236234534938949   -0.0071472615064479
     0.0727790883866504    5.2648998945203198   -0.0002654683999063
    -0.0021982895956433    0.0108628009640970    7.3029474424236476
   V    O    F 
     4     4     8
Direct
  0.5108850308135161  0.0010096799580872  0.9904594452359731
  0.9972448738127337  0.5233601529737978  0.0221611204543615
  0.5107157415887329  0.0003088837900724  0.5145631977210395
  0.9898119887463026  0.5231840883017590  0.4905196673451859
  0.8042227848960618  0.7804615602041644  0.0352835925769176
  0.8001978317941268  0.7825785929725095  0.4656684768652231
  0.0784647018871701  0.4839266375778553  0.2457842866421162
  0.5659226397490752  0.0214004677629623  0.7466124793835391
  0.7019192507542590  0.2994404948758556  0.0427568979646153
  0.3031610410494320  0.6976376105672460  0.9559286364220234
  0.1913269733563554  0.2081431669188468  0.9612174857291316
  0.3056628232265335  0.6974671930415308  0.5420793965160063
  0.6990853471047850  0.2950636910788847  0.4514601281500391
  0.1913464712336041  0.2053570651657753  0.5324629938218838
  0.9280512731540860  0.4994415551809347  0.7531405112551407
  0.4219812268332335  0.9812191596297183  0.2499016839168038
 
  0.00000000E+00  0.00000000E+00  0.00000000E+00
  0.00000000E+00  0.00000000E+00  0.00000000E+00
  0.00000000E+00  0.00000000E+00  0.00000000E+00
  0.00000000E+00  0.00000000E+00  0.00000000E+00
  0.00000000E+00  0.00000000E+00  0.00000000E+00
  0.00000000E+00  0.00000000E+00  0.00000000E+00
  0.00000000E+00  0.00000000E+00  0.00000000E+00
  0.00000000E+00  0.00000000E+00  0.00000000E+00
  0.00000000E+00  0.00000000E+00  0.00000000E+00
  0.00000000E+00  0.00000000E+00  0.00000000E+00
  0.00000000E+00  0.00000000E+00  0.00000000E+00
  0.00000000E+00  0.00000000E+00  0.00000000E+00
  0.00000000E+00  0.00000000E+00  0.00000000E+00
  0.00000000E+00  0.00000000E+00  0.00000000E+00
  0.00000000E+00  0.00000000E+00  0.00000000E+00
  0.00000000E+00  0.00000000E+00  0.00000000E+00
