Ti4 O4 F8                               
   1.00000000000000     
     5.2726084926353041   -0.0673067615545799   -0.0021041673543917
    -0.0665740538397905    5.4037641713810185    0.0032799899483144
    -0.0026493946730553   -0.0059672361241822    7.4480281452503423
   Ti   O    F 
     4     4     8
Direct
  0.5062195875451870  0.0134008110899421  0.0156403968985848
  0.9825553119494171  0.4915586356521675  0.9898280452449503
  0.5057710165732839  0.0124898104085004  0.4840934717538707
  0.9823689280462066  0.4904786941388747  0.5100195122313175
  0.9289058703585017  0.5174605793929217  0.7500111379923072
  0.4142878818976010  0.9830527098488471  0.2498497622470758
  0.7148544390328176  0.2845425141817136  0.0401785789738887
  0.7153326625217975  0.2830446364076610  0.4599277993344769
  0.0852280057146601  0.4987496788298738  0.2501683250484857
  0.5661207501693248  0.9997897472178443  0.7499685713489354
  0.2937746654208809  0.7100315471476145  0.9630548930944909
  0.2109365073667462  0.2118145142345672  0.9580188302324261
  0.7950833530017433  0.7916331577665695  0.0411929308672533
  0.2930051945216102  0.7100723039723084  0.5372718643213290
  0.7940309185595587  0.7900477382806604  0.4587458776769224
  0.2115249073206775  0.2118329214299268  0.5420300027336714
 
  0.00000000E+00  0.00000000E+00  0.00000000E+00
  0.00000000E+00  0.00000000E+00  0.00000000E+00
  0.00000000E+00  0.00000000E+00  0.00000000E+00
  0.00000000E+00  0.00000000E+00  0.00000000E+00
  0.00000000E+00  0.00000000E+00  0.00000000E+00
  0.00000000E+00  0.00000000E+00  0.00000000E+00
  0.00000000E+00  0.00000000E+00  0.00000000E+00
  0.00000000E+00  0.00000000E+00  0.00000000E+00
  0.00000000E+00  0.00000000E+00  0.00000000E+00
  0.00000000E+00  0.00000000E+00  0.00000000E+00
  0.00000000E+00  0.00000000E+00  0.00000000E+00
  0.00000000E+00  0.00000000E+00  0.00000000E+00
  0.00000000E+00  0.00000000E+00  0.00000000E+00
  0.00000000E+00  0.00000000E+00  0.00000000E+00
  0.00000000E+00  0.00000000E+00  0.00000000E+00
  0.00000000E+00  0.00000000E+00  0.00000000E+00
