Na4 Co4 O8 F4                           
    1.000000000000000     
     5.4138376990242048    0.0005110566175989    0.0165436943826363
    -0.0006856449892519    5.4513600025617999   -0.0006766986737924
     0.0873849417760132    0.0016929654467417    7.2453070855035291
   Na   Co   O    F 
     4     4     8     4
Direct
 -0.0011821729847911  0.0445540887516850  0.2463376957923023
  0.0009340609870072  0.9688034185274457  0.7542737026424463
  0.4987225658404089  0.4553740814045344  0.7462505872142225
  0.5009554971848271  0.5312376129349881  0.2542404578632319
  0.4844436047098537  0.0032445635949085  0.9959642613478555
  0.0260743710201978  0.4948326335028308  0.9946221541847150
  0.5260803638192468  0.0050929330695729  0.4947056389208986
  0.9844567000149893  0.4967254035115314  0.4958826563397656
  0.3009939666601616  0.7105610280381368  0.9685301760547531
  0.1927782622022398  0.2232959208273901  0.9650073673366600
  0.6927861936422782  0.2767167133771457  0.4650541115360765
  0.8010112733758620  0.7895157721969922  0.4685748724723855
  0.0582888071927170  0.4852402260586196  0.2650353678133127
  0.9292638480335931  0.5245319157589837  0.7319376246833194
  0.5582685387372940  0.0148106745674163  0.7650638889303811
  0.4293738749149585  0.9754954435686520  0.2319701571787061
  0.6973845594484899  0.3019787377762849  0.0394318062997911
  0.8109611222287517  0.7880829500117790  0.0388479393101225
  0.3109867191196007  0.7118855333703472  0.5388123207561725
  0.1974178438523210  0.1980203491507624  0.5394572133228882
 
  0.00000000E+00  0.00000000E+00  0.00000000E+00
  0.00000000E+00  0.00000000E+00  0.00000000E+00
  0.00000000E+00  0.00000000E+00  0.00000000E+00
  0.00000000E+00  0.00000000E+00  0.00000000E+00
  0.00000000E+00  0.00000000E+00  0.00000000E+00
  0.00000000E+00  0.00000000E+00  0.00000000E+00
  0.00000000E+00  0.00000000E+00  0.00000000E+00
  0.00000000E+00  0.00000000E+00  0.00000000E+00
  0.00000000E+00  0.00000000E+00  0.00000000E+00
  0.00000000E+00  0.00000000E+00  0.00000000E+00
  0.00000000E+00  0.00000000E+00  0.00000000E+00
  0.00000000E+00  0.00000000E+00  0.00000000E+00
  0.00000000E+00  0.00000000E+00  0.00000000E+00
  0.00000000E+00  0.00000000E+00  0.00000000E+00
  0.00000000E+00  0.00000000E+00  0.00000000E+00
  0.00000000E+00  0.00000000E+00  0.00000000E+00
  0.00000000E+00  0.00000000E+00  0.00000000E+00
  0.00000000E+00  0.00000000E+00  0.00000000E+00
  0.00000000E+00  0.00000000E+00  0.00000000E+00
  0.00000000E+00  0.00000000E+00  0.00000000E+00
