Na2 Ni2 O4 F2                           
   1.00000000000000     
    -2.4311904787860361   -4.2139324316793632   -0.0021223843632573
    -5.5239895920912589    0.3800607600880962   -0.4027616044891650
    -3.1899722351603366   -0.9692830428656242   -4.4474477973177242
   Na   Ni   O    F 
     2     2     4     2
Direct
  0.2537500100498128  0.2536607333399367  0.2364167199357421
  0.7547301300374574  0.7530554124751463  0.7373080198706116
  0.0027245342292142  0.0065068486190493  0.9871336238798422
  0.5038341289109043  0.5060700131854483  0.4877198287762665
  0.1149550406131793  0.6138626669069897  0.3760321497930530
  0.6141797286013329  0.8950713839625607  0.0951049611110021
  0.3954699823385811  0.1136244853853597  0.8763711489396580
  0.8958971261720106  0.3951634820943594  0.5949207548635169
  0.2553775608078429  0.7546012709466884  0.7354144334579718
  0.7550817582396709  0.2543837030844746  0.2355783593723166
 
  0.00000000E+00  0.00000000E+00  0.00000000E+00
  0.00000000E+00  0.00000000E+00  0.00000000E+00
  0.00000000E+00  0.00000000E+00  0.00000000E+00
  0.00000000E+00  0.00000000E+00  0.00000000E+00
  0.00000000E+00  0.00000000E+00  0.00000000E+00
  0.00000000E+00  0.00000000E+00  0.00000000E+00
  0.00000000E+00  0.00000000E+00  0.00000000E+00
  0.00000000E+00  0.00000000E+00  0.00000000E+00
  0.00000000E+00  0.00000000E+00  0.00000000E+00
  0.00000000E+00  0.00000000E+00  0.00000000E+00
