Sodium oxovanadate(V)                   
   1.00000000000000     
     5.7277114638732023   -0.0000067454353807    0.0000003211236276
    -0.0000187302172200   15.9048755873647014   -0.0000001693793975
     0.0000003503684487   -0.0000000721923785    6.5296266038876114
   V    O    Na
     4    20    20
Direct
  0.2119282586702127  0.0927006722952726  0.7500000296819636
  0.7880702100770165  0.9072964504422245  0.2499999622969185
  0.7880740638000958  0.5927041697326203  0.7499999776649489
  0.2119279987150406  0.4072993964772351  0.2500000292558155
  0.1539167331907549  0.1536429892144753  0.5370030959438594
  0.8460570617857144  0.8463503986320333  0.4629844013514841
  0.8460570597058208  0.8463503702159727  0.0370155637793559
  0.1539167248149198  0.1536430029322275  0.9629969359363670
  0.8460687897557904  0.6536484065636543  0.9629873733846495
  0.1539167669733956  0.3463570470443145  0.0370028133833245
  0.1539167160683590  0.3463570649478669  0.4629972650573890
  0.8460688516863044  0.6536483821775718  0.5370125640143186
  0.0157990030413586  0.0105959876620858  0.7500000459989380
  0.9842401114821087  0.9893905520265847  0.2499999718873340
  0.9842390216508932  0.5106094811447690  0.7500000476549502
  0.0157994364334044  0.4894039201757323  0.2499999417902217
  0.4923639851353343  0.0526385823873952  0.7500000347785374
  0.5076491267665375  0.9473694494500009  0.2499999790318128
  0.5076518239531467  0.5526313545299075  0.7499999392427910
  0.4923639452851987  0.4473615827765656  0.2500000613193905
  0.6392050204699089  0.1721049908815431  0.2500000353958427
  0.3607948324550776  0.8278956458481304  0.7499999520413567
  0.3607957008441574  0.6721044509031415  0.2499998910486667
  0.6392049875548764  0.3278950821981965  0.7500001109906123
  0.7798197520543013  0.0807139544277859  0.0143540841060101
  0.2201705520271560  0.9192812862422528  0.9856495016813653
  0.2201704276835272  0.9192812318094141  0.5143504236179695
  0.7798198778658545  0.0807139994501966  0.4856459762222940
  0.2201710894492805  0.5807186151229615  0.4856492262545444
  0.7798192431346465  0.4192862950208323  0.5143541310782496
  0.7798198404485461  0.4192860605021878  0.9856461693926022
  0.2201703794358139  0.5807188763184783  0.0143504857393779
  0.9920273099083872  0.2306927118034494  0.2500000234153532
  0.0079722241312155  0.7693088114831497  0.7499999735947753
  0.0079725026597544  0.7306912482530095  0.2500000110943503
  0.9920272022826566  0.2693073697935517  0.7499999868315186
  0.3237522660592163  0.0844152502968072  0.2499999485783206
  0.6762489671291547  0.9155855723663606  0.7500000634373194
  0.6762492312478372  0.5844145344037699  0.2499999606765186
  0.3237524486294561  0.4155847518670228  0.7500000397595699
  0.4778020294963810  0.2500000154804738  0.0000000621615115
  0.5222031496369723  0.7499999814396148  0.0000000847584900
  0.5222032534153129  0.7500000542970042  0.4999997334365460
  0.4778020849891007  0.2499999649621145  0.5000000792324713
 
  0.00000000E+00  0.00000000E+00  0.00000000E+00
  0.00000000E+00  0.00000000E+00  0.00000000E+00
  0.00000000E+00  0.00000000E+00  0.00000000E+00
  0.00000000E+00  0.00000000E+00  0.00000000E+00
  0.00000000E+00  0.00000000E+00  0.00000000E+00
  0.00000000E+00  0.00000000E+00  0.00000000E+00
  0.00000000E+00  0.00000000E+00  0.00000000E+00
  0.00000000E+00  0.00000000E+00  0.00000000E+00
  0.00000000E+00  0.00000000E+00  0.00000000E+00
  0.00000000E+00  0.00000000E+00  0.00000000E+00
  0.00000000E+00  0.00000000E+00  0.00000000E+00
  0.00000000E+00  0.00000000E+00  0.00000000E+00
  0.00000000E+00  0.00000000E+00  0.00000000E+00
  0.00000000E+00  0.00000000E+00  0.00000000E+00
  0.00000000E+00  0.00000000E+00  0.00000000E+00
  0.00000000E+00  0.00000000E+00  0.00000000E+00
  0.00000000E+00  0.00000000E+00  0.00000000E+00
  0.00000000E+00  0.00000000E+00  0.00000000E+00
  0.00000000E+00  0.00000000E+00  0.00000000E+00
  0.00000000E+00  0.00000000E+00  0.00000000E+00
  0.00000000E+00  0.00000000E+00  0.00000000E+00
  0.00000000E+00  0.00000000E+00  0.00000000E+00
  0.00000000E+00  0.00000000E+00  0.00000000E+00
  0.00000000E+00  0.00000000E+00  0.00000000E+00
  0.00000000E+00  0.00000000E+00  0.00000000E+00
  0.00000000E+00  0.00000000E+00  0.00000000E+00
  0.00000000E+00  0.00000000E+00  0.00000000E+00
  0.00000000E+00  0.00000000E+00  0.00000000E+00
  0.00000000E+00  0.00000000E+00  0.00000000E+00
  0.00000000E+00  0.00000000E+00  0.00000000E+00
  0.00000000E+00  0.00000000E+00  0.00000000E+00
  0.00000000E+00  0.00000000E+00  0.00000000E+00
  0.00000000E+00  0.00000000E+00  0.00000000E+00
  0.00000000E+00  0.00000000E+00  0.00000000E+00
  0.00000000E+00  0.00000000E+00  0.00000000E+00
  0.00000000E+00  0.00000000E+00  0.00000000E+00
  0.00000000E+00  0.00000000E+00  0.00000000E+00
  0.00000000E+00  0.00000000E+00  0.00000000E+00
  0.00000000E+00  0.00000000E+00  0.00000000E+00
  0.00000000E+00  0.00000000E+00  0.00000000E+00
  0.00000000E+00  0.00000000E+00  0.00000000E+00
  0.00000000E+00  0.00000000E+00  0.00000000E+00
  0.00000000E+00  0.00000000E+00  0.00000000E+00
  0.00000000E+00  0.00000000E+00  0.00000000E+00
