Na4 V4 O8 F4                            
   1.00000000000000     
     5.3291682807263392   -0.1341851444709791   -0.0156762511790707
    -0.1451116873681425    5.3725379732675131   -0.0000173503229577
    -0.0067248838526149   -0.0127260582897630    7.5068754269574480
   Na   V    O    F 
     4     4     8     4
Direct
  0.9954227042692206  0.0360037025384950  0.2402366142020314
  0.9930280024406919  0.9685978885682421  0.7649420710869116
  0.4940476906866240  0.4807064427247756  0.7529578681365814
  0.5071997837435717  0.5204654404301362  0.2371575529738539
  0.4811560724029627  0.0110881695195772  0.0039540790909822
  0.0113272290449893  0.4784514422369496  0.9777991960781811
  0.4979895839998696  0.0028929437587930  0.5007240903858080
  0.9959811473239770  0.5034117381938391  0.5079878314965971
  0.9264049051035840  0.5354433500054216  0.7566825304199755
  0.5531232409143813  0.0069183911557916  0.7358754432301248
  0.4372144060361689  0.0039005580315390  0.2620894540560926
  0.7312158563163024  0.2562303616937659  0.0275297289420529
  0.2951741159664771  0.7225375415850013  0.9769443696797375
  0.2224749011132091  0.2250839381401810  0.9631289849813282
  0.2770237643526659  0.6977711627851615  0.5227080943798623
  0.7210127851144261  0.3074705967396898  0.4691102389423923
  0.0757082263074648  0.4728083992932826  0.2467212967170794
  0.7913599638158021  0.7659112168417316  0.0522071873282986
  0.8018251530431947  0.8038230399413369  0.4552519955335699
  0.1913104680044236  0.2004836758162892  0.5459913723385384
 
  0.00000000E+00  0.00000000E+00  0.00000000E+00
  0.00000000E+00  0.00000000E+00  0.00000000E+00
  0.00000000E+00  0.00000000E+00  0.00000000E+00
  0.00000000E+00  0.00000000E+00  0.00000000E+00
  0.00000000E+00  0.00000000E+00  0.00000000E+00
  0.00000000E+00  0.00000000E+00  0.00000000E+00
  0.00000000E+00  0.00000000E+00  0.00000000E+00
  0.00000000E+00  0.00000000E+00  0.00000000E+00
  0.00000000E+00  0.00000000E+00  0.00000000E+00
  0.00000000E+00  0.00000000E+00  0.00000000E+00
  0.00000000E+00  0.00000000E+00  0.00000000E+00
  0.00000000E+00  0.00000000E+00  0.00000000E+00
  0.00000000E+00  0.00000000E+00  0.00000000E+00
  0.00000000E+00  0.00000000E+00  0.00000000E+00
  0.00000000E+00  0.00000000E+00  0.00000000E+00
  0.00000000E+00  0.00000000E+00  0.00000000E+00
  0.00000000E+00  0.00000000E+00  0.00000000E+00
  0.00000000E+00  0.00000000E+00  0.00000000E+00
  0.00000000E+00  0.00000000E+00  0.00000000E+00
  0.00000000E+00  0.00000000E+00  0.00000000E+00
