Na8 Fe8 O16 F8                          
   1.00000000000000     
     7.9791188822947872   -0.0000000161890131   -0.0000001702987883
     0.0000000137203607    7.3483594842825788    0.0000005288301196
    -0.0000001429364731    0.0000005189068072    7.5194025528208064
   Na   Fe   O    F 
     8     8    16     8
Direct
  0.2499227587182685  0.2511696228720265  0.2581766742541499
  0.2499992131965012  0.2488230470405084  0.7451443986462499
  0.2499226486393890  0.7488303925273179  0.2581767024842497
  0.2499992192152962  0.7511769149903439  0.7451439973778926
  0.7499224853736656  0.2511695044748336  0.2418233300777468
  0.7499992281167226  0.2488230806035998  0.7548560106095806
  0.7499226179067086  0.7488304852363249  0.2418233577849621
  0.7499992228645347  0.7511769588518655  0.7548556069077628
  0.0174530442198970  0.0000000224549984  0.0113277226173586
  0.9824331659637296  0.9999999345095606  0.4887930907365842
  0.0005759759743118  0.5000000359930360  0.9969588185251743
  0.9994437673116360  0.4999999415280938  0.5031252777051350
  0.4824328231553744  0.0000000696042001  0.0112067329008650
  0.5174532739480806  0.9999999786515634  0.4886720779053348
  0.4994437652464823  0.5000000589614354  0.9968746615826538
  0.5005759934339927  0.4999999631542417  0.5030413239585542
  0.2498885582830031  0.0000000329325696  0.9983004313848529
  0.7498887464924769  0.9999999791010350  0.5016997173029801
  0.9978629368590594  0.2499976613953842  0.0017636352651767
  0.0022365100547957  0.2502624713139676  0.4982135665381518
  0.9978629253796704  0.7500023880651890  0.0017636548539303
  0.0022364671625148  0.7497374487106042  0.4982135546067996
  0.5022363367394969  0.2502625389472295  0.0017865557381003
  0.4978630265856140  0.2499976653318795  0.4982362790128078
  0.5022363522696095  0.7497375426455681  0.0017865447266344
  0.4978630630921339  0.7500022842766024  0.4982362996765942
  0.0000390884197917  0.0000000002991867  0.2500233852645083
  0.0000031629179609  0.4999999928773808  0.2502466645530568
  0.0000178367019664  0.5000000026854517  0.7498061071164656
  0.5000391255689808  0.9999999988848355  0.2499764747016749
  0.5000031352750018  0.5000000067519037  0.2497534416724561
  0.5000178583010172  0.4999999976321488  0.7501938924156060
  0.2500626221807722  0.9999999035128471  0.5116236012563219
  0.2498699257526707  0.4999999303758417  0.9994561095713395
  0.2501727367586601  0.5000001050492850  0.5000474302637851
  0.7500625577280590  0.0000000794959968  0.9883762653716690
  0.7501726770158031  0.4999999168245283  0.9999526842094791
  0.7498699921592129  0.5000000415256441  0.5005439077033910
 -0.0000023026236880  0.9999999910161641  0.7500057726622705
  0.4999974576408328  0.0000000088948000  0.7499942400577081
 
  0.00000000E+00  0.00000000E+00  0.00000000E+00
  0.00000000E+00  0.00000000E+00  0.00000000E+00
  0.00000000E+00  0.00000000E+00  0.00000000E+00
  0.00000000E+00  0.00000000E+00  0.00000000E+00
  0.00000000E+00  0.00000000E+00  0.00000000E+00
  0.00000000E+00  0.00000000E+00  0.00000000E+00
  0.00000000E+00  0.00000000E+00  0.00000000E+00
  0.00000000E+00  0.00000000E+00  0.00000000E+00
  0.00000000E+00  0.00000000E+00  0.00000000E+00
  0.00000000E+00  0.00000000E+00  0.00000000E+00
  0.00000000E+00  0.00000000E+00  0.00000000E+00
  0.00000000E+00  0.00000000E+00  0.00000000E+00
  0.00000000E+00  0.00000000E+00  0.00000000E+00
  0.00000000E+00  0.00000000E+00  0.00000000E+00
  0.00000000E+00  0.00000000E+00  0.00000000E+00
  0.00000000E+00  0.00000000E+00  0.00000000E+00
  0.00000000E+00  0.00000000E+00  0.00000000E+00
  0.00000000E+00  0.00000000E+00  0.00000000E+00
  0.00000000E+00  0.00000000E+00  0.00000000E+00
  0.00000000E+00  0.00000000E+00  0.00000000E+00
  0.00000000E+00  0.00000000E+00  0.00000000E+00
  0.00000000E+00  0.00000000E+00  0.00000000E+00
  0.00000000E+00  0.00000000E+00  0.00000000E+00
  0.00000000E+00  0.00000000E+00  0.00000000E+00
  0.00000000E+00  0.00000000E+00  0.00000000E+00
  0.00000000E+00  0.00000000E+00  0.00000000E+00
  0.00000000E+00  0.00000000E+00  0.00000000E+00
  0.00000000E+00  0.00000000E+00  0.00000000E+00
  0.00000000E+00  0.00000000E+00  0.00000000E+00
  0.00000000E+00  0.00000000E+00  0.00000000E+00
  0.00000000E+00  0.00000000E+00  0.00000000E+00
  0.00000000E+00  0.00000000E+00  0.00000000E+00
  0.00000000E+00  0.00000000E+00  0.00000000E+00
  0.00000000E+00  0.00000000E+00  0.00000000E+00
  0.00000000E+00  0.00000000E+00  0.00000000E+00
  0.00000000E+00  0.00000000E+00  0.00000000E+00
  0.00000000E+00  0.00000000E+00  0.00000000E+00
  0.00000000E+00  0.00000000E+00  0.00000000E+00
  0.00000000E+00  0.00000000E+00  0.00000000E+00
  0.00000000E+00  0.00000000E+00  0.00000000E+00
