Fe8 O8 F16                              
    1.000000000000000     
     7.7584685660637582   -0.0027484345820321   -0.0012394237982891
     0.0027302909065071    7.7827299154214131    0.0064275023844512
     0.0015602081933572    0.0080247920705203    7.7839404301935282
   Fe   O    F 
     8     8    16
Direct
  0.0000643172995680  0.9944492135724943  0.9994600613131084
  0.0003516232273313  0.0019580340700074  0.5010652371956326
  0.0001152720345630  0.5014880456564370  0.9980696496097110
  0.9987891833890004  0.5020442481672305  0.4983154370878111
  0.5000114232909638  0.0006257250428447  0.0058452819007755
  0.5014051652559530  0.0015910688837124  0.4986197424171763
  0.4996056988567972  0.4989593923819271  0.9977925402453778
  0.4989002972205654  0.5016990506357288  0.4979005713977998
  0.0007560141106282  0.9910359002695586  0.2511514966501522
  0.5001542310551343  0.0005145492321148  0.7531653248687604
  0.2491828260247075  0.5002498226547161  0.4996270404762200
  0.7493068525718272  0.4998914173509519  0.5001065286828705
  0.5004079823788956  0.2510381890821023  0.0085792156333255
  0.0007285134514206  0.9912422343907679  0.7495071086558838
  0.9993620158214540  0.2480417144168570  0.9993871758518651
  0.5002747165040020  0.7483887451096720  0.0085221583967439
  0.2542146995401566  0.0022093838310653  0.5081594063450936
  0.7532795299409472  0.4921944843289410  0.9985860025713293
  0.9996106828039899  0.7468278606524166  0.0009666717132646
  0.0039885709583416  0.5050075910638938  0.2496913730277797
  0.0035812018988040  0.5088238270822316  0.7477793206805288
  0.5000453702657239  0.9985964240952541  0.2529437512740103
  0.4958895388817837  0.4994756300395125  0.2472779630007551
  0.4954764922312052  0.5030596680615531  0.7488311338468279
  0.2502344801677481  0.0062841726686216  0.9939157594376269
  0.2464699545490845  0.4917408308602305  0.9985237818247725
  0.7499423217029175  0.0056761308404845  0.9938765365125661
  0.7472938990390148  0.0015403377189713  0.5086962743063879
  0.9963631526052126  0.2500602116573702  0.4962341217713018
  0.9964215363116153  0.7529662698544044  0.5008020022583537
  0.5039030559318007  0.2514224356382968  0.4908759685994966
  0.5038693806788501  0.7508973906896230  0.4957253624466915
 
  0.00000000E+00  0.00000000E+00  0.00000000E+00
  0.00000000E+00  0.00000000E+00  0.00000000E+00
  0.00000000E+00  0.00000000E+00  0.00000000E+00
  0.00000000E+00  0.00000000E+00  0.00000000E+00
  0.00000000E+00  0.00000000E+00  0.00000000E+00
  0.00000000E+00  0.00000000E+00  0.00000000E+00
  0.00000000E+00  0.00000000E+00  0.00000000E+00
  0.00000000E+00  0.00000000E+00  0.00000000E+00
  0.00000000E+00  0.00000000E+00  0.00000000E+00
  0.00000000E+00  0.00000000E+00  0.00000000E+00
  0.00000000E+00  0.00000000E+00  0.00000000E+00
  0.00000000E+00  0.00000000E+00  0.00000000E+00
  0.00000000E+00  0.00000000E+00  0.00000000E+00
  0.00000000E+00  0.00000000E+00  0.00000000E+00
  0.00000000E+00  0.00000000E+00  0.00000000E+00
  0.00000000E+00  0.00000000E+00  0.00000000E+00
  0.00000000E+00  0.00000000E+00  0.00000000E+00
  0.00000000E+00  0.00000000E+00  0.00000000E+00
  0.00000000E+00  0.00000000E+00  0.00000000E+00
  0.00000000E+00  0.00000000E+00  0.00000000E+00
  0.00000000E+00  0.00000000E+00  0.00000000E+00
  0.00000000E+00  0.00000000E+00  0.00000000E+00
  0.00000000E+00  0.00000000E+00  0.00000000E+00
  0.00000000E+00  0.00000000E+00  0.00000000E+00
  0.00000000E+00  0.00000000E+00  0.00000000E+00
  0.00000000E+00  0.00000000E+00  0.00000000E+00
  0.00000000E+00  0.00000000E+00  0.00000000E+00
  0.00000000E+00  0.00000000E+00  0.00000000E+00
  0.00000000E+00  0.00000000E+00  0.00000000E+00
  0.00000000E+00  0.00000000E+00  0.00000000E+00
  0.00000000E+00  0.00000000E+00  0.00000000E+00
  0.00000000E+00  0.00000000E+00  0.00000000E+00
