Na8 Mn8 O16 F8                          
   1.00000000000000     
     7.6306032725670052    0.0000007750100458    0.0000011842442836
     0.0000007828744589    7.4789607145928407    0.0000000090726447
     0.0000007287225219   -0.0000001290655866    7.4761954976990630
   Na   Mn   O    F 
     8     8    16     8
Direct
  0.2491616240694660  0.2498134332883128  0.2510860465960404
  0.2491618174709961  0.2498137621354292  0.7489148794732883
  0.2491613701686073  0.7501870757757912  0.2510865244402019
  0.2491620737987198  0.7501856695607150  0.7489153473890909
  0.7498225959712139  0.2497808705033405  0.2496664907683592
  0.7498229015101543  0.2497811224355698  0.7503332228004229
  0.7498225684196409  0.7502190713006754  0.2496665540753417
  0.7498228928648063  0.7502189082802234  0.7503332143782243
  0.9955018119795976 -0.0000000968894486  0.0000002426003975
  0.9894748921991084  0.0000000177762137  0.5000001095081278
  0.9886327548011915  0.4999998871834632 -0.0000005735220756
  0.9990767321369189  0.5000000083891545  0.4999995461531982
  0.4959538133633682 -0.0000000129775436  0.0000006241982952
  0.5136003352406979  0.0000002287369954  0.5000012685022059
  0.5121871492145101  0.4999999985135522  0.0000003554409282
  0.5012247903759079  0.5000000433899983  0.5000000861610832
  0.2501840728440515 -0.0000000253804326 -0.0000000172739858
  0.7502003275727356 -0.0000000305989963 -0.0000007423325500
  0.7559856670767438  0.0000001807633057  0.4999994004896419
  0.7457597191360300  0.4999999543711924 -0.0000003044537675
  0.0085428756694897  0.2514867158993957  0.4999990121466950
  0.0085428872145637  0.7485132622592372  0.4999982553742671
  0.4889746483460439  0.2488943756793833 -0.0000000779414434
  0.4970522953597248  0.2501572489858436  0.5000022649248000
  0.4889746534183638  0.7511055847193248  0.0000004902327572
  0.4970561649207039  0.7498429717181050  0.5000004136387027
  0.0134182705791091  0.0000004018501050  0.2485081259272598
  0.0134188171508650  0.9999995137680054  0.7514914800453549
  0.0040663862350880  0.4999989700445988  0.2502321885858514
  0.0040664648962874  0.5000009563066407  0.7497665375043592
  0.4923967524712756  0.4999997182661958  0.2514810242132531
  0.4923963637702021  0.5000003770688379  0.7485192604906783
  0.2533900819259929 -0.0000000755463725  0.4999990158851019
  0.2474089932655962  0.4999999605610755  0.0000003857100476
  0.2502395634427382  0.5000001382860353  0.4999994828218591
  0.7501648596290241  0.4999999041089342  0.5000003989499651
  0.0023064419303384  0.2434421105330988  0.9999980469943560
  0.0023064468379611  0.7565577572668497 -0.0000005042311495
  0.4957792209239051  0.0000005401621501  0.2434367662238268
  0.4957779017982606  0.9999995015050382  0.7565651571109616
 
  0.00000000E+00  0.00000000E+00  0.00000000E+00
  0.00000000E+00  0.00000000E+00  0.00000000E+00
  0.00000000E+00  0.00000000E+00  0.00000000E+00
  0.00000000E+00  0.00000000E+00  0.00000000E+00
  0.00000000E+00  0.00000000E+00  0.00000000E+00
  0.00000000E+00  0.00000000E+00  0.00000000E+00
  0.00000000E+00  0.00000000E+00  0.00000000E+00
  0.00000000E+00  0.00000000E+00  0.00000000E+00
  0.00000000E+00  0.00000000E+00  0.00000000E+00
  0.00000000E+00  0.00000000E+00  0.00000000E+00
  0.00000000E+00  0.00000000E+00  0.00000000E+00
  0.00000000E+00  0.00000000E+00  0.00000000E+00
  0.00000000E+00  0.00000000E+00  0.00000000E+00
  0.00000000E+00  0.00000000E+00  0.00000000E+00
  0.00000000E+00  0.00000000E+00  0.00000000E+00
  0.00000000E+00  0.00000000E+00  0.00000000E+00
  0.00000000E+00  0.00000000E+00  0.00000000E+00
  0.00000000E+00  0.00000000E+00  0.00000000E+00
  0.00000000E+00  0.00000000E+00  0.00000000E+00
  0.00000000E+00  0.00000000E+00  0.00000000E+00
  0.00000000E+00  0.00000000E+00  0.00000000E+00
  0.00000000E+00  0.00000000E+00  0.00000000E+00
  0.00000000E+00  0.00000000E+00  0.00000000E+00
  0.00000000E+00  0.00000000E+00  0.00000000E+00
  0.00000000E+00  0.00000000E+00  0.00000000E+00
  0.00000000E+00  0.00000000E+00  0.00000000E+00
  0.00000000E+00  0.00000000E+00  0.00000000E+00
  0.00000000E+00  0.00000000E+00  0.00000000E+00
  0.00000000E+00  0.00000000E+00  0.00000000E+00
  0.00000000E+00  0.00000000E+00  0.00000000E+00
  0.00000000E+00  0.00000000E+00  0.00000000E+00
  0.00000000E+00  0.00000000E+00  0.00000000E+00
  0.00000000E+00  0.00000000E+00  0.00000000E+00
  0.00000000E+00  0.00000000E+00  0.00000000E+00
  0.00000000E+00  0.00000000E+00  0.00000000E+00
  0.00000000E+00  0.00000000E+00  0.00000000E+00
  0.00000000E+00  0.00000000E+00  0.00000000E+00
  0.00000000E+00  0.00000000E+00  0.00000000E+00
  0.00000000E+00  0.00000000E+00  0.00000000E+00
  0.00000000E+00  0.00000000E+00  0.00000000E+00
