Ti4 O4 F8                               
   1.00000000000000     
     5.3270442362260066    0.0328884089053947    0.0057082699470921
     0.0323567351329815    5.4577408344108598   -0.0277604137661826
    -0.0001793728042730   -0.0389884867109652    7.3499565687010708
   Ti   O    F 
     4     4     8
Direct
  0.5031004893594982  0.0038975858511170  0.9851732640772887
  0.9944793883261794  0.5017588987682328  0.9931578010314311
  0.5234284498789404  0.9839567118293131  0.5031538364681905
  0.9983757274610707  0.5074045428277578  0.4863934630964639
  0.7711069441579331  0.7736072344689615  0.4602819014005016
  0.0743312964784154  0.4874414747702576  0.2468866403110025
  0.9366320001316261  0.5067040283846233  0.7561453761970995
  0.5807134449147834  0.0149352008134533  0.7560715641845838
  0.6979280906459223  0.2911449572145879  0.0476560031415685
  0.2958432602143296  0.7137257531321584  0.9645505605202191
  0.2012758617988573  0.1990809657292502  0.9627079117460997
  0.7837937018803334  0.7939501606945005  0.0516321584971229
  0.2780304593497191  0.7292409761520876  0.5426621484246975
  0.7196704164631681  0.2733530505774793  0.4569603324105055
  0.2292105185072551  0.2234121140855966  0.5384631463356254
  0.4120799504319613  0.9963863447006092  0.2481038921576069
 
  0.00000000E+00  0.00000000E+00  0.00000000E+00
  0.00000000E+00  0.00000000E+00  0.00000000E+00
  0.00000000E+00  0.00000000E+00  0.00000000E+00
  0.00000000E+00  0.00000000E+00  0.00000000E+00
  0.00000000E+00  0.00000000E+00  0.00000000E+00
  0.00000000E+00  0.00000000E+00  0.00000000E+00
  0.00000000E+00  0.00000000E+00  0.00000000E+00
  0.00000000E+00  0.00000000E+00  0.00000000E+00
  0.00000000E+00  0.00000000E+00  0.00000000E+00
  0.00000000E+00  0.00000000E+00  0.00000000E+00
  0.00000000E+00  0.00000000E+00  0.00000000E+00
  0.00000000E+00  0.00000000E+00  0.00000000E+00
  0.00000000E+00  0.00000000E+00  0.00000000E+00
  0.00000000E+00  0.00000000E+00  0.00000000E+00
  0.00000000E+00  0.00000000E+00  0.00000000E+00
  0.00000000E+00  0.00000000E+00  0.00000000E+00
