V8 O8 F16                               
   1.00000000000000     
     7.4821455886181258   -0.0000484424505293   -0.0000019274984640
     0.0000686305299864    7.5771166392606704   -0.0000006307684357
    -0.0000023185945466   -0.0000018763349703    7.6799752110939652
   V    O    F 
     8     8    16
Direct
  0.9674797973419910  0.0025036100496814  0.0000002309336044
  0.0029673027719908  0.0256054738879123  0.5000000880733810
  0.9666355400065293  0.5035566741369255  0.0000001614794101
  0.0256356898113469  0.5039581942811111  0.5000002021320255
  0.4666642441178678  0.9964424783691964 -0.0000002161720067
  0.5256162444019480  0.9960458325675740  0.5000001191770773
  0.4674609418728880  0.4975381558812924 -0.0000004739775515
  0.5030010762956103  0.4744057559546453  0.5000002110195376
  0.2487499462707436  0.5007516088109643  0.4999997650396823
  0.7480524867577246  0.4995789755322055  0.9999994451103769
  0.2480890012315616  0.0002004255480235  0.0000002036910700
  0.2485093637104473  0.4993276467659115  0.0000018855734888
  0.7485215131686642  0.0007939919644582  0.0000006433618782
  0.7487379761073998  0.9992349262128499  0.5000000335647992
  0.0041893465281680  0.2456780156323066  0.5000000399083846
  0.5042070890913534  0.2543353287981079  0.5000016672902647
  0.0065367130939882  0.9973374944916661  0.2496662965446390
  0.4993585442039374  0.9948556008798025  0.7501816852059473
  0.2604661394906994  0.9951316814885338  0.5000003942069905
  0.7604713798119167  0.5049365215549376  0.5000016425882841
  0.0071584834378318  0.7523074044118488  0.0000002551831889
  0.5064039607239784  0.2476988986096641  0.9999955864662089
  0.0065361238140465  0.9973387572362234  0.7503342840374257
  0.9993728053287463  0.5051263995989101  0.2498083202154746
  0.9993754069960100  0.5051259312870633  0.7501923989442260
  0.4993590647750045  0.9948602636539091  0.2498181637371233
  0.5065421360029115  0.5026575164296269  0.2496738081265471
  0.5065424420752004  0.5026615830718565  0.7503252761653303
  0.0066235849706927  0.2523156013471090  0.0000012953847329
  0.0016805846050327  0.7585595003978678  0.5000011839632302
  0.5073959566934558  0.7476942046194938 -0.0000023900942357
  0.5016591144902993  0.7414355465283357  0.4999977931194568
 
  0.00000000E+00  0.00000000E+00  0.00000000E+00
  0.00000000E+00  0.00000000E+00  0.00000000E+00
  0.00000000E+00  0.00000000E+00  0.00000000E+00
  0.00000000E+00  0.00000000E+00  0.00000000E+00
  0.00000000E+00  0.00000000E+00  0.00000000E+00
  0.00000000E+00  0.00000000E+00  0.00000000E+00
  0.00000000E+00  0.00000000E+00  0.00000000E+00
  0.00000000E+00  0.00000000E+00  0.00000000E+00
  0.00000000E+00  0.00000000E+00  0.00000000E+00
  0.00000000E+00  0.00000000E+00  0.00000000E+00
  0.00000000E+00  0.00000000E+00  0.00000000E+00
  0.00000000E+00  0.00000000E+00  0.00000000E+00
  0.00000000E+00  0.00000000E+00  0.00000000E+00
  0.00000000E+00  0.00000000E+00  0.00000000E+00
  0.00000000E+00  0.00000000E+00  0.00000000E+00
  0.00000000E+00  0.00000000E+00  0.00000000E+00
  0.00000000E+00  0.00000000E+00  0.00000000E+00
  0.00000000E+00  0.00000000E+00  0.00000000E+00
  0.00000000E+00  0.00000000E+00  0.00000000E+00
  0.00000000E+00  0.00000000E+00  0.00000000E+00
  0.00000000E+00  0.00000000E+00  0.00000000E+00
  0.00000000E+00  0.00000000E+00  0.00000000E+00
  0.00000000E+00  0.00000000E+00  0.00000000E+00
  0.00000000E+00  0.00000000E+00  0.00000000E+00
  0.00000000E+00  0.00000000E+00  0.00000000E+00
  0.00000000E+00  0.00000000E+00  0.00000000E+00
  0.00000000E+00  0.00000000E+00  0.00000000E+00
  0.00000000E+00  0.00000000E+00  0.00000000E+00
  0.00000000E+00  0.00000000E+00  0.00000000E+00
  0.00000000E+00  0.00000000E+00  0.00000000E+00
  0.00000000E+00  0.00000000E+00  0.00000000E+00
  0.00000000E+00  0.00000000E+00  0.00000000E+00
