Na2 Fe2 O4 F2                           
   1.00000000000000     
     3.8671527650177255   -0.0000000024670530    0.0000058237218606
    -0.0000000016269749    3.8671410208419674    0.0000000027202740
     0.0000021209798903    0.0000000076791296    7.4068851774488422
   Na   Fe   O    F 
     2     2     4     2
Direct
  0.0000472298744361  0.0000000092425672  0.0432721507036093
  0.0000021869509022  0.0000000007626765  0.4646470989832081
  0.5000283794827441  0.4999999985254778  0.2543620370764469
  0.4999770700250468  0.4999999997357167  0.7543407895812133
  0.4999901392682347  0.4999999981705917  0.0080612780110991
  0.4999922757516312  0.5000000010802167  0.5003369483267910
  0.5000259235033361 -0.0000000003355086  0.2543751078969290
  0.0000083894116379  0.5000000001514273  0.2543750974427249
  0.4999548228691079  0.9999999992672594  0.7546150802564005
  0.9999735828629228  0.4999999933995684  0.7546144117215631
 
  0.00000000E+00  0.00000000E+00  0.00000000E+00
  0.00000000E+00  0.00000000E+00  0.00000000E+00
  0.00000000E+00  0.00000000E+00  0.00000000E+00
  0.00000000E+00  0.00000000E+00  0.00000000E+00
  0.00000000E+00  0.00000000E+00  0.00000000E+00
  0.00000000E+00  0.00000000E+00  0.00000000E+00
  0.00000000E+00  0.00000000E+00  0.00000000E+00
  0.00000000E+00  0.00000000E+00  0.00000000E+00
  0.00000000E+00  0.00000000E+00  0.00000000E+00
  0.00000000E+00  0.00000000E+00  0.00000000E+00
