Mn2 O2 F4                               
    1.000000000000000     
     3.7120336673558669    0.0000230021509907    0.0032157703038208
     0.0000164264222563    3.8472470492218798    0.0001420363677911
     0.0070458474994843    0.0003495952210514    7.5723700433186751
   Mn   O    F 
     2     2     4
Direct
  0.4997174393515108  0.4994054563625866  0.2536464749664711
  0.5014489811790905  0.5000345585112602  0.7485424187856446
  0.4996511082832543  0.5001086627381693  0.5069613275844588
  0.9994120713348218  0.5004934156427583  0.2818261830103069
  0.4994296426822217  0.5000224947781862  0.9996003143413623
  0.4993741266171954 -0.0002261151687199  0.2419920397299949
  0.5000207608123540  0.0000726316060236  0.7581039256400331
  0.0009458697395444  0.5000888955297357  0.7523273159417132
 
  0.00000000E+00  0.00000000E+00  0.00000000E+00
  0.00000000E+00  0.00000000E+00  0.00000000E+00
  0.00000000E+00  0.00000000E+00  0.00000000E+00
  0.00000000E+00  0.00000000E+00  0.00000000E+00
  0.00000000E+00  0.00000000E+00  0.00000000E+00
  0.00000000E+00  0.00000000E+00  0.00000000E+00
  0.00000000E+00  0.00000000E+00  0.00000000E+00
  0.00000000E+00  0.00000000E+00  0.00000000E+00
