Na4 Co4 O8 F4                           
   1.00000000000000     
     5.3485013862127246    0.0003795622934148    0.0016717228307611
    -0.0018429342926364    5.5148131629279948   -0.0277892110275626
     0.0007622269519997    0.0591503115276435    7.3029958069341019
   Na   Co   O    F 
     4     4     8     4
Direct
 -0.0011877112850829  0.0566816439480500  0.2474478425072144
 -0.0031576777095318  0.9754671592995525  0.7348464069631031
  0.5010458034720630  0.4469564946042094  0.7519006778053891
  0.4999081122108416  0.5263065592304117  0.2663610386996335
  0.4927765097788402  0.9794731985739867  0.0006221228813636
  0.9928916018866336  0.5203096226236545 -0.0005972479412459
  0.4917714183528475  0.0183435121467908  0.5020145052145760
  0.9921416343811537  0.4814931273367181  0.4978895945003559
  0.0577332520601548  0.5014124498456413  0.2307633989764490
  0.9463415751991444  0.5266125873569525  0.7656884467985919
  0.5572698099457597  0.9983796677238453  0.7691312256206927
  0.4461367837622341  0.9728288484916768  0.2343584016551797
  0.2927646681668897  0.6803812449096580  0.9656669766124202
  0.7924873632234367  0.8191634744844367  0.0341551361792346
  0.7274352759380412  0.2967600241076827  0.4768932628951903
  0.2266685362568376  0.2019850326645822  0.5231215720601954
  0.6948851055958234  0.3194855071814080  0.0367740490755606
  0.1948175394458399  0.1803595353826201  0.9631239963879823
  0.2990536025539371  0.6901481320003956  0.5306090180827947
  0.7982167967641299  0.8074521780877147  0.4692295750253274
 
  0.00000000E+00  0.00000000E+00  0.00000000E+00
  0.00000000E+00  0.00000000E+00  0.00000000E+00
  0.00000000E+00  0.00000000E+00  0.00000000E+00
  0.00000000E+00  0.00000000E+00  0.00000000E+00
  0.00000000E+00  0.00000000E+00  0.00000000E+00
  0.00000000E+00  0.00000000E+00  0.00000000E+00
  0.00000000E+00  0.00000000E+00  0.00000000E+00
  0.00000000E+00  0.00000000E+00  0.00000000E+00
  0.00000000E+00  0.00000000E+00  0.00000000E+00
  0.00000000E+00  0.00000000E+00  0.00000000E+00
  0.00000000E+00  0.00000000E+00  0.00000000E+00
  0.00000000E+00  0.00000000E+00  0.00000000E+00
  0.00000000E+00  0.00000000E+00  0.00000000E+00
  0.00000000E+00  0.00000000E+00  0.00000000E+00
  0.00000000E+00  0.00000000E+00  0.00000000E+00
  0.00000000E+00  0.00000000E+00  0.00000000E+00
  0.00000000E+00  0.00000000E+00  0.00000000E+00
  0.00000000E+00  0.00000000E+00  0.00000000E+00
  0.00000000E+00  0.00000000E+00  0.00000000E+00
  0.00000000E+00  0.00000000E+00  0.00000000E+00
