Na4 Co4 O8 F4                           
    1.000000000000000     
     5.4231445117941339   -0.0081611917308634    0.0617887198160487
     0.0102913590635686    5.4552418642144618   -0.0011890519161757
     0.1058376151831150    0.0012735432371834    7.2230653865023919
   Na   Co   O    F 
     4     4     8     4
Direct
  0.9852236376878033  0.0437726195778246  0.2369262665232767
 -0.0124542437356627  0.9651096257907333  0.7478403463880519
  0.5127059632624801  0.4651685701220709  0.7521762660594633
  0.5145824901158931  0.5436960613835595  0.2630576954829952
  0.4977795996678875  0.9860099660205465  0.0001086698487736
  0.9941867993533096  0.5299806913052922  0.0026695846972174
  0.5058344319670587  0.0298715087225119  0.4973245605726703
  0.0022038901307296  0.4859876217911447  0.4997984490927947
  0.2953940182771445  0.7015058180962771  0.9679616919528905
  0.7964126237190287  0.7796454920601468  0.0341609310344563
  0.7035030891341953  0.2795097791425353  0.4657281606514844
  0.2044594773278386  0.2016872580118054  0.5320386891056921
  0.0775136112840614  0.4767294244093174  0.2664015629338653
  0.9440095161664992  0.5133257667823199  0.7341409618655476
  0.5560488782545563  0.0134765468769397  0.7658403196583085
  0.4224093437949497  0.9766908891216846  0.2336386466800051
  0.6988453478679957  0.2921683537328650  0.0434453016362441
  0.1808262324623955  0.2117388716397358  0.9601176111219792
  0.3193059402533670  0.7119449147949721  0.5399894916957386
  0.8012093530084610  0.7919802206177108  0.4566347929985233
 
  0.00000000E+00  0.00000000E+00  0.00000000E+00
  0.00000000E+00  0.00000000E+00  0.00000000E+00
  0.00000000E+00  0.00000000E+00  0.00000000E+00
  0.00000000E+00  0.00000000E+00  0.00000000E+00
  0.00000000E+00  0.00000000E+00  0.00000000E+00
  0.00000000E+00  0.00000000E+00  0.00000000E+00
  0.00000000E+00  0.00000000E+00  0.00000000E+00
  0.00000000E+00  0.00000000E+00  0.00000000E+00
  0.00000000E+00  0.00000000E+00  0.00000000E+00
  0.00000000E+00  0.00000000E+00  0.00000000E+00
  0.00000000E+00  0.00000000E+00  0.00000000E+00
  0.00000000E+00  0.00000000E+00  0.00000000E+00
  0.00000000E+00  0.00000000E+00  0.00000000E+00
  0.00000000E+00  0.00000000E+00  0.00000000E+00
  0.00000000E+00  0.00000000E+00  0.00000000E+00
  0.00000000E+00  0.00000000E+00  0.00000000E+00
  0.00000000E+00  0.00000000E+00  0.00000000E+00
  0.00000000E+00  0.00000000E+00  0.00000000E+00
  0.00000000E+00  0.00000000E+00  0.00000000E+00
  0.00000000E+00  0.00000000E+00  0.00000000E+00
