Mn4 O4 F8                               
   1.00000000000000     
     4.8416622381605032    0.0592535266845055    0.0090529930223489
     0.0488688170265694    5.0969432306827418   -0.0217634923883428
     0.0295119628325733   -0.0418974070628829    6.9788260042296830
   Mn   O    F 
     4     4     8
Direct
  0.5139248129941834  0.9897493012718026  0.0128019644216671
  0.9889108165129400  0.5153595233110800  0.9875244185132945
  0.4860510432886548  0.0094838237519205  0.4874042182765427
  0.0109686174351272  0.4868959120648498  0.5122091656990411
  0.8686723637093624  0.5309713603489548  0.7483004064869230
  0.3695934837915453  0.9716335489137705  0.2479018960268545
  0.8245526856196005  0.8146561681842011  0.0642814783205908
  0.1855265533134280  0.1890792701052572  0.5668309253106649
  0.1180719836844825  0.4697564865507901  0.2499528463850509
  0.6172471389529526  0.0233569384490971  0.7494734627442206
  0.6871532471466621  0.3112900979473130  0.0602176742561290
  0.3200255292500049  0.6907394467091731  0.9363271821393490
  0.1948609003225591  0.2013875246162868  0.9413999096468820
  0.3175532881322033  0.6883890062814191  0.5584997104092875
  0.6865626747064019  0.3056144834163822  0.4356049676760183
  0.8103248611398849  0.8016371080777019  0.4412697736874984
 
  0.00000000E+00  0.00000000E+00  0.00000000E+00
  0.00000000E+00  0.00000000E+00  0.00000000E+00
  0.00000000E+00  0.00000000E+00  0.00000000E+00
  0.00000000E+00  0.00000000E+00  0.00000000E+00
  0.00000000E+00  0.00000000E+00  0.00000000E+00
  0.00000000E+00  0.00000000E+00  0.00000000E+00
  0.00000000E+00  0.00000000E+00  0.00000000E+00
  0.00000000E+00  0.00000000E+00  0.00000000E+00
  0.00000000E+00  0.00000000E+00  0.00000000E+00
  0.00000000E+00  0.00000000E+00  0.00000000E+00
  0.00000000E+00  0.00000000E+00  0.00000000E+00
  0.00000000E+00  0.00000000E+00  0.00000000E+00
  0.00000000E+00  0.00000000E+00  0.00000000E+00
  0.00000000E+00  0.00000000E+00  0.00000000E+00
  0.00000000E+00  0.00000000E+00  0.00000000E+00
  0.00000000E+00  0.00000000E+00  0.00000000E+00
