Cr4 O4 F8                               
   1.00000000000000     
     4.8320571677259521    0.0001392400508536   -0.0000091557838040
     0.0001268402163830    5.0577782694220081   -0.0047686274733833
     0.0000334337839923    0.0060842755818522    7.2123744841547675
   Cr   O    F 
     4     4     8
Direct
  0.4936571851367373  0.0268341151006286  0.9983901240968842
  0.9936411895687777  0.4730572334731473  0.0016763867911802
  0.5062600843262460  0.9731152133069896  0.4984048773867852
  0.0063066587753105  0.5270060227254715  0.5016719796229493
  0.6854111943826753  0.3088488118636149  0.0619272298933081
  0.1854247772617792  0.1913992241039570  0.9380262042478232
  0.3145506517396490  0.6911822952660015  0.5620064748990914
  0.8145427779066317  0.8085506162391034  0.4379447137510842
  0.3120105459958580  0.6932584918501808  0.9464076522096906
  0.8121215281587786  0.8068492224430954  0.0535604076723641
  0.6880761924850299  0.3066585038457260  0.4463594747208426
  0.1879598730153969  0.1932336372720997  0.5536108728866512
  0.1249465003057958  0.4713178645604016  0.2503753331340291
  0.8750693113377092  0.5287034704718657  0.7503664492718948
  0.6249127396820284  0.0286709105648694  0.7496302105361287
  0.3751087899216104  0.9713143669128328  0.2496416088792931
 
  0.00000000E+00  0.00000000E+00  0.00000000E+00
  0.00000000E+00  0.00000000E+00  0.00000000E+00
  0.00000000E+00  0.00000000E+00  0.00000000E+00
  0.00000000E+00  0.00000000E+00  0.00000000E+00
  0.00000000E+00  0.00000000E+00  0.00000000E+00
  0.00000000E+00  0.00000000E+00  0.00000000E+00
  0.00000000E+00  0.00000000E+00  0.00000000E+00
  0.00000000E+00  0.00000000E+00  0.00000000E+00
  0.00000000E+00  0.00000000E+00  0.00000000E+00
  0.00000000E+00  0.00000000E+00  0.00000000E+00
  0.00000000E+00  0.00000000E+00  0.00000000E+00
  0.00000000E+00  0.00000000E+00  0.00000000E+00
  0.00000000E+00  0.00000000E+00  0.00000000E+00
  0.00000000E+00  0.00000000E+00  0.00000000E+00
  0.00000000E+00  0.00000000E+00  0.00000000E+00
  0.00000000E+00  0.00000000E+00  0.00000000E+00
