Na4 Cr4 O8 F4                           
   1.00000000000000     
     5.3002991933492920   -0.0350082856862068    0.0793258415902283
    -2.6581750234012551    4.7147074058543827    0.3093765360389405
     0.0045784213184619    0.5686863315390225    9.2720100889673489
   Na   Cr   O    F 
     4     4     8     4
Direct
  0.0097578303127386  0.0105932333958777  0.0024982286516500
  0.0258093576438684 -0.0126179263040968  0.4140089534292098
  0.3362858393037631  0.6634171407033616  0.2299322186764389
  0.6665136788569089  0.3588542752880481  0.7711214883645486
  0.3644674787955922  0.6519442551198786  0.5869492428181082
  0.7142843844388166  0.3343868089512568  0.4189437958340316
  0.6722733704081000  0.2824690677814125  0.1211894308607708
  0.3304834600355042  0.7153574634217299  0.8948007795136587
  0.5756899561194482  0.9904683165387297  0.0150929227561524
  0.0001275625567800  0.5316937472778116  0.0314866743314645
  0.4285812326021229 -0.0001147820307821  0.5098203840957375
  0.0822475863291278  0.4528708157338345  0.4582903605986730
  0.6290623563986280  0.5581155713938576  0.5409655033957919
  0.6632466739354443  0.5119550590223804  0.2611556896967179
  0.1426950127349264  0.4783372627925551  0.7478010207304291
  0.7672856011220688  0.1275288212054046  0.2687725764207565
  0.4703246162047103  0.4524529452648348  0.9753868215700061
  0.2565593544309189  0.0509388987959925  0.1959973662400897
  0.6451939634851702  0.8701339921079863  0.7441611975277591
  0.2191106842853686  0.9712150335399340  0.8116253444879841
 
  0.00000000E+00  0.00000000E+00  0.00000000E+00
  0.00000000E+00  0.00000000E+00  0.00000000E+00
  0.00000000E+00  0.00000000E+00  0.00000000E+00
  0.00000000E+00  0.00000000E+00  0.00000000E+00
  0.00000000E+00  0.00000000E+00  0.00000000E+00
  0.00000000E+00  0.00000000E+00  0.00000000E+00
  0.00000000E+00  0.00000000E+00  0.00000000E+00
  0.00000000E+00  0.00000000E+00  0.00000000E+00
  0.00000000E+00  0.00000000E+00  0.00000000E+00
  0.00000000E+00  0.00000000E+00  0.00000000E+00
  0.00000000E+00  0.00000000E+00  0.00000000E+00
  0.00000000E+00  0.00000000E+00  0.00000000E+00
  0.00000000E+00  0.00000000E+00  0.00000000E+00
  0.00000000E+00  0.00000000E+00  0.00000000E+00
  0.00000000E+00  0.00000000E+00  0.00000000E+00
  0.00000000E+00  0.00000000E+00  0.00000000E+00
  0.00000000E+00  0.00000000E+00  0.00000000E+00
  0.00000000E+00  0.00000000E+00  0.00000000E+00
  0.00000000E+00  0.00000000E+00  0.00000000E+00
  0.00000000E+00  0.00000000E+00  0.00000000E+00
