Na4 Mn4 O8 F4                           
   1.00000000000000     
     5.3730990940306720   -0.1026473094689928   -0.0677258750867538
    -2.7111624780010231    4.6498664877398559    0.0088100968588670
     0.0928092213861740    0.0841194044412472    8.9314952223430453
   Na   Mn   O    F 
     4     4     8     4
Direct
  0.0426456116781121  0.0094016280228545  0.9545347897306821
  0.9492240065816586  0.9788312603030664  0.4680278923818690
  0.3652273588005006  0.6584385809310938  0.2622355775713207
  0.6329658578193005  0.3330660071862648  0.7650110963504677
  0.2996007697382592  0.6393605516761472  0.6184376891373189
  0.5839040426632744  0.2764456779494468  0.3975941988338735
  0.7273497034454072  0.3596374919050235  0.1042498808672711
  0.3736036534873457  0.6905189596290722  0.9098248823700351
  0.6427272833125890  0.0738490857073575  0.9765038205436168
  0.1098906726467611  0.5974262867988157  0.0543959705967541
  0.6064846126782922  0.5572059053521041  0.9866306121391549
  0.3603636633391576  0.9174971844727832  0.4694328192664152
  0.3725296463683425  0.4239191514277445  0.4829528893372010
  0.2107804211582534  0.3837833470082146  0.7759724254659521
  0.7972387568969818  0.1886333662941242  0.2734266469854886
  0.2315869153247287  0.8382728085647178  0.7668107115849055
  0.8741917468351887  0.4208689006487518  0.5504374902326187
  0.7925649014996867  0.6415873917051673  0.2822187462019058
  0.3469681547415032  0.1806661800546640  0.2167467714548701
  0.6801522209846362  0.8305902343625651  0.6845550889482719
 
  0.00000000E+00  0.00000000E+00  0.00000000E+00
  0.00000000E+00  0.00000000E+00  0.00000000E+00
  0.00000000E+00  0.00000000E+00  0.00000000E+00
  0.00000000E+00  0.00000000E+00  0.00000000E+00
  0.00000000E+00  0.00000000E+00  0.00000000E+00
  0.00000000E+00  0.00000000E+00  0.00000000E+00
  0.00000000E+00  0.00000000E+00  0.00000000E+00
  0.00000000E+00  0.00000000E+00  0.00000000E+00
  0.00000000E+00  0.00000000E+00  0.00000000E+00
  0.00000000E+00  0.00000000E+00  0.00000000E+00
  0.00000000E+00  0.00000000E+00  0.00000000E+00
  0.00000000E+00  0.00000000E+00  0.00000000E+00
  0.00000000E+00  0.00000000E+00  0.00000000E+00
  0.00000000E+00  0.00000000E+00  0.00000000E+00
  0.00000000E+00  0.00000000E+00  0.00000000E+00
  0.00000000E+00  0.00000000E+00  0.00000000E+00
  0.00000000E+00  0.00000000E+00  0.00000000E+00
  0.00000000E+00  0.00000000E+00  0.00000000E+00
  0.00000000E+00  0.00000000E+00  0.00000000E+00
  0.00000000E+00  0.00000000E+00  0.00000000E+00
