Sodium vanadate(III) - LT               
   1.00000000000000     
     5.3535261021676179   -0.0000001178903104    0.0032955486254978
    -0.0000000293512966    2.9787598931684154   -0.0000000756213185
    -1.8083712834203880   -0.0000000586347266    5.2887750091806893
   Na   V    O 
     2     2     4
Direct
  0.0000069945765124  0.0000000044072633  0.0000321001507063
  0.5000070610881395  0.4999999966135168  0.0000321302207207
  0.9999919897354435  0.4999999950017311  0.4999766023038985
  0.4999920097406441  0.0000000002418858  0.4999765883293136
  0.2299624596908665  0.9999999974703565  0.7020690184384007
  0.7700385181896400  0.0000000040157631  0.2979222697749487
  0.7299622517225539  0.5000000000906892  0.7020689516271477
  0.2700387002562096  0.5000000021588014  0.2979223391548566
 
  0.00000000E+00  0.00000000E+00  0.00000000E+00
  0.00000000E+00  0.00000000E+00  0.00000000E+00
  0.00000000E+00  0.00000000E+00  0.00000000E+00
  0.00000000E+00  0.00000000E+00  0.00000000E+00
  0.00000000E+00  0.00000000E+00  0.00000000E+00
  0.00000000E+00  0.00000000E+00  0.00000000E+00
  0.00000000E+00  0.00000000E+00  0.00000000E+00
  0.00000000E+00  0.00000000E+00  0.00000000E+00
