Na8 Mn8 O16 F8                          
   1.00000000000000     
     7.3441787792339372    0.0000008871947990   -0.0000001846332742
     0.0000010079082406    7.4873445662852056    0.0139766247516583
    -0.0000001482882032    0.0165114619748061    7.6928532522135038
   Na   Mn   O    F 
     8     8    16     8
Direct
  0.2500396611778889  0.2420155393662289  0.2496467499147482
  0.2500391128855466  0.2579844667293874  0.7503528249361242
  0.2500389045741972  0.7579844774331724  0.2503528055168626
  0.2500403264210193  0.7420156703322744  0.7496464481162131
  0.7492412838158830  0.2422511975057207  0.2496454261404251
  0.7492433640755994  0.2577485581440810  0.7503590730500934
  0.7492425066336246  0.7577479166068624  0.2503573858925444
  0.7492425041341754  0.7422508957940673  0.7496431689878695
  0.9999058413840510  0.9893165875406740  0.9857944332276672
  0.9999057601275997  0.0106833962382786  0.5142056468557823
  0.9999058073485676  0.5106833695755328  0.0142053106639603
  0.9999058275787226  0.4893166628174919  0.4857947425850790
  0.4999260116934963  0.9993380186813633  0.9989700180130905
  0.4999259773028149  0.0006621115698482  0.5010296101533204
  0.4999262118280528  0.5006620529944713  0.0010298780139131
  0.4999262019677498  0.4993380050684497  0.4989701221335749
  0.2489377660134932  0.0075434989748366  0.0105018728773638
  0.2489377494504449  0.9924560852397533  0.4894980900887826
  0.2489377430727790  0.4924568768003533  0.9894978766317308
  0.2489377363173481  0.5075438190203467  0.5105017081199528
  0.7513211443155878  0.0082239907216962  0.0092455158752026
  0.7513211806583125  0.9917766214895025  0.4907542234833164
  0.7513212216456421  0.4917761561726103  0.9907542343898249
  0.7513212177938122  0.5082232806056246  0.5092453117787823
  0.9997084567465668  0.2500002298169534  0.4999999431490423
  0.9997076195257331  0.7499997729040977  0.9999995440746221
  0.4998377076061553  0.2500000081825979 -0.0000000710160810
  0.5006255402359290  0.2499998672132722  0.4999998306444426
  0.5006260919657117  0.7500002359742590  0.0000000544169717
  0.4998382351806579  0.7500000903358265  0.4999998411413295
  0.0012832129929905  0.0000000811185773  0.7499999941679621
  0.0012833084904956  0.5000001330115290  0.2499999587708324
  0.0004486935181888  0.2500002503062344 -0.0000001945152452
  0.0004479285048094  0.7499998682538771  0.4999996891218786
  0.9995128321266473 -0.0000000316928006  0.2499997852578205
  0.9995126562547789  0.5000000618486978  0.7499997054068063
  0.5004968241814841  0.0000000646182802  0.2499996105984387
  0.4993416506837503 -0.0000000264411794  0.7499998991721666
  0.4993414850166162  0.5000000001482423  0.2499998972648065
  0.5004966947530830  0.5000001389788931  0.7500000348979888
 
  0.00000000E+00  0.00000000E+00  0.00000000E+00
  0.00000000E+00  0.00000000E+00  0.00000000E+00
  0.00000000E+00  0.00000000E+00  0.00000000E+00
  0.00000000E+00  0.00000000E+00  0.00000000E+00
  0.00000000E+00  0.00000000E+00  0.00000000E+00
  0.00000000E+00  0.00000000E+00  0.00000000E+00
  0.00000000E+00  0.00000000E+00  0.00000000E+00
  0.00000000E+00  0.00000000E+00  0.00000000E+00
  0.00000000E+00  0.00000000E+00  0.00000000E+00
  0.00000000E+00  0.00000000E+00  0.00000000E+00
  0.00000000E+00  0.00000000E+00  0.00000000E+00
  0.00000000E+00  0.00000000E+00  0.00000000E+00
  0.00000000E+00  0.00000000E+00  0.00000000E+00
  0.00000000E+00  0.00000000E+00  0.00000000E+00
  0.00000000E+00  0.00000000E+00  0.00000000E+00
  0.00000000E+00  0.00000000E+00  0.00000000E+00
  0.00000000E+00  0.00000000E+00  0.00000000E+00
  0.00000000E+00  0.00000000E+00  0.00000000E+00
  0.00000000E+00  0.00000000E+00  0.00000000E+00
  0.00000000E+00  0.00000000E+00  0.00000000E+00
  0.00000000E+00  0.00000000E+00  0.00000000E+00
  0.00000000E+00  0.00000000E+00  0.00000000E+00
  0.00000000E+00  0.00000000E+00  0.00000000E+00
  0.00000000E+00  0.00000000E+00  0.00000000E+00
  0.00000000E+00  0.00000000E+00  0.00000000E+00
  0.00000000E+00  0.00000000E+00  0.00000000E+00
  0.00000000E+00  0.00000000E+00  0.00000000E+00
  0.00000000E+00  0.00000000E+00  0.00000000E+00
  0.00000000E+00  0.00000000E+00  0.00000000E+00
  0.00000000E+00  0.00000000E+00  0.00000000E+00
  0.00000000E+00  0.00000000E+00  0.00000000E+00
  0.00000000E+00  0.00000000E+00  0.00000000E+00
  0.00000000E+00  0.00000000E+00  0.00000000E+00
  0.00000000E+00  0.00000000E+00  0.00000000E+00
  0.00000000E+00  0.00000000E+00  0.00000000E+00
  0.00000000E+00  0.00000000E+00  0.00000000E+00
  0.00000000E+00  0.00000000E+00  0.00000000E+00
  0.00000000E+00  0.00000000E+00  0.00000000E+00
  0.00000000E+00  0.00000000E+00  0.00000000E+00
  0.00000000E+00  0.00000000E+00  0.00000000E+00
