Na4 Cr4 O8 F4                           
   1.00000000000000     
     6.1196779484394455   -0.0007011713950820   -0.4527785433323288
    -0.0002203131643382    5.6072394435997097    0.0001273859226225
     0.3649572897487201    0.0000693556131412    6.7320969457434190
   Na   Cr   O    F 
     4     4     8     4
Direct
  0.0585008223126352 -0.0545378050289769  0.2534866116584671
  0.0792389265624277  0.9292697585525366  0.7359543165981675
  0.5596188468562360  0.5557784814326155  0.7537392721189924
  0.5791673955440023  0.5705044234735919  0.2360887699782571
  0.4722513887319836  0.0122033341074359  0.0011978811708686
  0.1042014145767224  0.4712014386581608  0.9973866859121964
  0.6041321635879239  0.0286754755302522  0.4973434864559238
  0.9723175370909432  0.4876805300048013  0.5011889554927527
  0.3054919858535153  0.6881730335110254  0.9940639983947177
  0.1952250287378417  0.1818464859630028  0.9925384475470779
  0.6952130032813253  0.3180094879038017  0.4927442438711798
  0.8054086329680726  0.8116815897621154  0.4938234384498151
 -0.0277335805393322  0.5071888484017033  0.2134536175719722
  0.9505997077056492  0.5120200845561821  0.7880505868819094
  0.4722689110971285 -0.0074952318644988  0.7134488326981642
  0.4504622220196748  0.9882184430538239  0.2880266193524218
  0.6198855638276701  0.3003169619979744  0.0057633887309812
  0.7419858558765300  0.8490151645703740  0.0178430594705442
  0.2420239011150132  0.6507982227411161  0.5179488684616687
  0.1197402727940387  0.1994512726729681  0.5059089191839155
 
  0.00000000E+00  0.00000000E+00  0.00000000E+00
  0.00000000E+00  0.00000000E+00  0.00000000E+00
  0.00000000E+00  0.00000000E+00  0.00000000E+00
  0.00000000E+00  0.00000000E+00  0.00000000E+00
  0.00000000E+00  0.00000000E+00  0.00000000E+00
  0.00000000E+00  0.00000000E+00  0.00000000E+00
  0.00000000E+00  0.00000000E+00  0.00000000E+00
  0.00000000E+00  0.00000000E+00  0.00000000E+00
  0.00000000E+00  0.00000000E+00  0.00000000E+00
  0.00000000E+00  0.00000000E+00  0.00000000E+00
  0.00000000E+00  0.00000000E+00  0.00000000E+00
  0.00000000E+00  0.00000000E+00  0.00000000E+00
  0.00000000E+00  0.00000000E+00  0.00000000E+00
  0.00000000E+00  0.00000000E+00  0.00000000E+00
  0.00000000E+00  0.00000000E+00  0.00000000E+00
  0.00000000E+00  0.00000000E+00  0.00000000E+00
  0.00000000E+00  0.00000000E+00  0.00000000E+00
  0.00000000E+00  0.00000000E+00  0.00000000E+00
  0.00000000E+00  0.00000000E+00  0.00000000E+00
  0.00000000E+00  0.00000000E+00  0.00000000E+00
