Cr4 O4 F8                               
   1.00000000000000     
     4.9235241024789342    0.0373395715155729    0.0257953566489627
     0.0102056435904511    5.1879826209676168   -0.0326585791877172
    -0.0226934007251591    0.0178911328238033    7.0062398200098439
   Cr   O    F 
     4     4     8
Direct
  0.4778779439588128  0.0035134333242783  0.9966542380981861
  0.0054734403478724  0.4781855869560189  0.9987023861982850
  0.5286080114774395  0.0403487362047110  0.4927208740778866
  0.0000272166680723  0.5060807712122223  0.5011171894607239
  0.5812633344446259  0.0200289451674724  0.7358160374023173
  0.4075575570884692  0.9731546001181324  0.2704234800347581
  0.1701682727196993  0.1796786383601631  0.9483306080393922
  0.7024749872798376  0.3058216599052578  0.4394435348537118
  0.1352482096216195  0.4730030002816605  0.2508019546522339
  0.8655443567359776  0.5281817285471486  0.7506756696540189
  0.6769544045714614  0.3045630778715110  0.0599696935443967
  0.3070849356718284  0.6823789858554486  0.9409455660307781
  0.8024234551204721  0.7942896049473446  0.0537848115184045
  0.3140567942691235  0.6863108788243280  0.5571074158273326
  0.8325769647262783  0.8232197748763748  0.4411991478430795
  0.1926601152984172  0.2012405775479277  0.5623073927645017
 
  0.00000000E+00  0.00000000E+00  0.00000000E+00
  0.00000000E+00  0.00000000E+00  0.00000000E+00
  0.00000000E+00  0.00000000E+00  0.00000000E+00
  0.00000000E+00  0.00000000E+00  0.00000000E+00
  0.00000000E+00  0.00000000E+00  0.00000000E+00
  0.00000000E+00  0.00000000E+00  0.00000000E+00
  0.00000000E+00  0.00000000E+00  0.00000000E+00
  0.00000000E+00  0.00000000E+00  0.00000000E+00
  0.00000000E+00  0.00000000E+00  0.00000000E+00
  0.00000000E+00  0.00000000E+00  0.00000000E+00
  0.00000000E+00  0.00000000E+00  0.00000000E+00
  0.00000000E+00  0.00000000E+00  0.00000000E+00
  0.00000000E+00  0.00000000E+00  0.00000000E+00
  0.00000000E+00  0.00000000E+00  0.00000000E+00
  0.00000000E+00  0.00000000E+00  0.00000000E+00
  0.00000000E+00  0.00000000E+00  0.00000000E+00
