Mn4 O4 F8                               
   1.00000000000000     
     5.0073618639724478    0.0978362550766787    0.2694208326263879
    -2.4190105823582324    4.3829128693966553    0.2514413301221991
     0.2229254451757428    0.3499117967087303    8.7775859996425467
   Mn   O    F 
     4     4     8
Direct
  0.3765320070771703  0.5784667861541501  0.6029582024649903
  0.7217803551992148  0.2863131511989515  0.3844280105296676
  0.5810943490772197  0.3756203244600145  0.1033988521486764
  0.2850749870356201  0.7209622287504039  0.8815149599562930
  0.3443486586737087  0.5701534213625872  0.0735495729667881
  0.5706016732220803  0.3435627089590077  0.5712763870548914
  0.8314994700270304  0.2283812441722526  0.1839123001366790
  0.2321065207764112  0.8294653153997389  0.6814864693855232
  0.4596509902135414  0.1073899238950058  0.9421250396152667
  0.9306334329565784  0.7013412633192287  0.9719831598620745
  0.6983418846264547  0.9324365920900357  0.4723196107926614
  0.1051035105601219  0.4587984621109241  0.4409248910017334
  0.7655795068373207  0.6346865746793779  0.2816141593090479
  0.1239870153851070  0.3439254411332890  0.8141362312121389
  0.3409618594676400  0.1228992213837702  0.3134972047992025
  0.6327037788647860  0.7655973409312615  0.7808749487643594
 
  0.00000000E+00  0.00000000E+00  0.00000000E+00
  0.00000000E+00  0.00000000E+00  0.00000000E+00
  0.00000000E+00  0.00000000E+00  0.00000000E+00
  0.00000000E+00  0.00000000E+00  0.00000000E+00
  0.00000000E+00  0.00000000E+00  0.00000000E+00
  0.00000000E+00  0.00000000E+00  0.00000000E+00
  0.00000000E+00  0.00000000E+00  0.00000000E+00
  0.00000000E+00  0.00000000E+00  0.00000000E+00
  0.00000000E+00  0.00000000E+00  0.00000000E+00
  0.00000000E+00  0.00000000E+00  0.00000000E+00
  0.00000000E+00  0.00000000E+00  0.00000000E+00
  0.00000000E+00  0.00000000E+00  0.00000000E+00
  0.00000000E+00  0.00000000E+00  0.00000000E+00
  0.00000000E+00  0.00000000E+00  0.00000000E+00
  0.00000000E+00  0.00000000E+00  0.00000000E+00
  0.00000000E+00  0.00000000E+00  0.00000000E+00
