Na4 Fe4 O8 F4                           
   1.00000000000000     
     5.3926502045699367   -0.0316222283743123   -0.0299714633925855
    -2.7235000863751022    4.7223920841990754    0.0574760127648838
    -0.0324914278508025    0.0517416499604631    8.9938160501639821
   Na   Fe   O    F 
     4     4     8     4
Direct
 -0.0524815678280844 -0.0272129766713005  0.0252649671901333
  0.0533184435814696  0.0219367266335371  0.5238966206216511
  0.3816270087320831  0.6959587691779981  0.2407911793663946
  0.6217213489479040  0.3027297932988023  0.7403187068282079
  0.3730998478732769  0.6660735434477746  0.6059462367208726
  0.7422433603663914  0.3962611076844295  0.3903725209086163
  0.6260594181277519  0.2984518500609938  0.1056204320331283
  0.2576504015056238  0.6564812931886600  0.8897766617106573
  0.3909810983223138  0.9593409135866455  0.0223152010161324
  0.8717305025295090  0.4489805104460250  0.9567602825225697
  0.1287083031414476  0.5683888433778744  0.4564634146271792
  0.6098173993729216  0.5607750645866485  0.5260756329396492
  0.7777073130320271  0.6194136121937039  0.2143489601961593
  0.1912019659192334  0.3690385904351289  0.7218118086901192
  0.8083254214205287  0.1806627960792495  0.2197926088001248
  0.2197156834059891  0.8371794987604353  0.7116980651214037
  0.3555312460602449  0.4209555821656312  0.0261694814307670
  0.6436885065605173  0.0570248277953132  0.5233156631133516
  0.3432807602830226  0.1535376508320155  0.2996820549006554
  0.6560735386458213  0.8140220029204476  0.7995795012622267
 
  0.00000000E+00  0.00000000E+00  0.00000000E+00
  0.00000000E+00  0.00000000E+00  0.00000000E+00
  0.00000000E+00  0.00000000E+00  0.00000000E+00
  0.00000000E+00  0.00000000E+00  0.00000000E+00
  0.00000000E+00  0.00000000E+00  0.00000000E+00
  0.00000000E+00  0.00000000E+00  0.00000000E+00
  0.00000000E+00  0.00000000E+00  0.00000000E+00
  0.00000000E+00  0.00000000E+00  0.00000000E+00
  0.00000000E+00  0.00000000E+00  0.00000000E+00
  0.00000000E+00  0.00000000E+00  0.00000000E+00
  0.00000000E+00  0.00000000E+00  0.00000000E+00
  0.00000000E+00  0.00000000E+00  0.00000000E+00
  0.00000000E+00  0.00000000E+00  0.00000000E+00
  0.00000000E+00  0.00000000E+00  0.00000000E+00
  0.00000000E+00  0.00000000E+00  0.00000000E+00
  0.00000000E+00  0.00000000E+00  0.00000000E+00
  0.00000000E+00  0.00000000E+00  0.00000000E+00
  0.00000000E+00  0.00000000E+00  0.00000000E+00
  0.00000000E+00  0.00000000E+00  0.00000000E+00
  0.00000000E+00  0.00000000E+00  0.00000000E+00
