Na8 Ni8 O16 F8                          
   1.00000000000000     
     7.6663234898092050   -0.0000314985091252   -0.0000010141527540
    -0.0000301116926745    7.4726843327074128   -0.0000014014654443
    -0.0000005982285953   -0.0000022864065051    7.4786628361068130
   Na   Ni   O    F 
     8     8    16     8
Direct
  0.2501795015623702  0.2491112408674961  0.2497108103234595
  0.2501894296375651  0.2490894493054018  0.7502930981792955
  0.2501451464867786  0.7508172584205527  0.2497230169469533
  0.2501486448903576  0.7508271907783878  0.7502793243448019
  0.7505489279291615  0.2498490495405344  0.2500120007320702
  0.7505499034648693  0.2498494985021488  0.7499882467217114
  0.7505573430173069  0.7501568073100350  0.2500100157834937
  0.7505603881697331  0.7501571546351817  0.7499923674442149
  0.9965621544924280  0.0000036085844089 -0.0000089465974277
  0.9962310617658466  0.0000048864581466  0.5000007622621445
  0.9943669651067299  0.5000031630718664 -0.0000000904174655
  0.9965627533308957  0.5000040948183940  0.5000002627664111
  0.5024827020679525 -0.0000007216328634 -0.0000001820100375
  0.5055476655561596  0.0000002831243626  0.4999991403248376
  0.5039951742617839  0.5000023207102738 -0.0000000301355567
  0.5034599442362510  0.5000005483794433  0.5000003388751402
  0.2489241154210106  0.0000039338467039  0.0000006363245248
  0.7499060235335216  0.0000052957621895  0.0000000688613441
  0.7553736902060798  0.0000046541848856  0.4999995678618977
  0.7443756687887422  0.5000067103810827  0.0000004285441715
  0.9890659462555678  0.2440030297333342  0.4999971657194038
  0.9890711202147958  0.7560069679975567  0.5000040125225416
  0.4940773434247918  0.2491257811849245 -0.0000006499216668
  0.5045369414932930  0.2479408830888418  0.4999993589316202
  0.4940775009648593  0.7508777878069014  0.0000001830079640
  0.5045240269529362  0.7520594701919839  0.5000004770107949
  0.0083477729953011  0.0000024463687708  0.2490155232758361
  0.0083476987708396  0.0000076900941550  0.7509862370693208
  0.9952543658124524  0.5000079256239797  0.2479178232845634
  0.9952535183135630  0.5000024009430496  0.7520832387700489
  0.5107446491856515  0.5000092021926870  0.2440169530878548
  0.5107460982941382  0.5000081520516013  0.7559831776846903
  0.2470390760368029  0.0000127746018755  0.5000003369213193
  0.2527505865926586  0.5000054157235440  0.9999993881293625
  0.2499048702214795  0.5000079797309963  0.4999995877080254
  0.7499975924385601  0.5000105009473809  0.4999981330707131
  0.0063003917544354  0.2525799975263167  0.0000052909564789
  0.0063007698082344  0.7474283221577347  0.9999957730357254
  0.4914981041038360  0.0000066301692117  0.2524178639812060
  0.4914944224402806  0.0000002148165219  0.7475792886182333
 
  0.00000000E+00  0.00000000E+00  0.00000000E+00
  0.00000000E+00  0.00000000E+00  0.00000000E+00
  0.00000000E+00  0.00000000E+00  0.00000000E+00
  0.00000000E+00  0.00000000E+00  0.00000000E+00
  0.00000000E+00  0.00000000E+00  0.00000000E+00
  0.00000000E+00  0.00000000E+00  0.00000000E+00
  0.00000000E+00  0.00000000E+00  0.00000000E+00
  0.00000000E+00  0.00000000E+00  0.00000000E+00
  0.00000000E+00  0.00000000E+00  0.00000000E+00
  0.00000000E+00  0.00000000E+00  0.00000000E+00
  0.00000000E+00  0.00000000E+00  0.00000000E+00
  0.00000000E+00  0.00000000E+00  0.00000000E+00
  0.00000000E+00  0.00000000E+00  0.00000000E+00
  0.00000000E+00  0.00000000E+00  0.00000000E+00
  0.00000000E+00  0.00000000E+00  0.00000000E+00
  0.00000000E+00  0.00000000E+00  0.00000000E+00
  0.00000000E+00  0.00000000E+00  0.00000000E+00
  0.00000000E+00  0.00000000E+00  0.00000000E+00
  0.00000000E+00  0.00000000E+00  0.00000000E+00
  0.00000000E+00  0.00000000E+00  0.00000000E+00
  0.00000000E+00  0.00000000E+00  0.00000000E+00
  0.00000000E+00  0.00000000E+00  0.00000000E+00
  0.00000000E+00  0.00000000E+00  0.00000000E+00
  0.00000000E+00  0.00000000E+00  0.00000000E+00
  0.00000000E+00  0.00000000E+00  0.00000000E+00
  0.00000000E+00  0.00000000E+00  0.00000000E+00
  0.00000000E+00  0.00000000E+00  0.00000000E+00
  0.00000000E+00  0.00000000E+00  0.00000000E+00
  0.00000000E+00  0.00000000E+00  0.00000000E+00
  0.00000000E+00  0.00000000E+00  0.00000000E+00
  0.00000000E+00  0.00000000E+00  0.00000000E+00
  0.00000000E+00  0.00000000E+00  0.00000000E+00
  0.00000000E+00  0.00000000E+00  0.00000000E+00
  0.00000000E+00  0.00000000E+00  0.00000000E+00
  0.00000000E+00  0.00000000E+00  0.00000000E+00
  0.00000000E+00  0.00000000E+00  0.00000000E+00
  0.00000000E+00  0.00000000E+00  0.00000000E+00
  0.00000000E+00  0.00000000E+00  0.00000000E+00
  0.00000000E+00  0.00000000E+00  0.00000000E+00
  0.00000000E+00  0.00000000E+00  0.00000000E+00
