Na4 Mn4 O8 F4                           
   1.00000000000000     
     5.2724400039947543    0.1677749691293385    0.0128060172575929
     0.1648306425242379    5.3111844255189498   -0.0263261874186232
    -0.0095586665170159   -0.0399284147564347    7.4207687660974697
   Na   Mn   O    F 
     4     4     8     4
Direct
  0.9994413886657548  0.0232313209977366  0.2577606250005254
  0.0116556072482390  0.9713785652777560  0.7451896326090675
  0.4923691615751651  0.4684252893948653  0.7396261565255169
  0.4942306806938608  0.5449251766067077  0.2589752694712629
  0.5065687035220273  0.0006223814368674  0.0058269728638320
  0.0005646705675371  0.4982047877234175  0.9902612892717082
  0.5186285468222982  0.0202928959838107  0.4936371654182720
  0.9818635268990450  0.4813061556851885  0.5122404175421095
  0.2081828811439895  0.1995092374608133  0.9699543120036260
  0.8064175654028394  0.8058770740826952  0.0250581899361646
  0.7100959394866647  0.2923529264707210  0.4529867272938269
  0.7887533303887875  0.7889996252271098  0.4741687708171100
  0.2090956046279521  0.2074186929366255  0.5293287299451886
  0.9221916919029932  0.5011779793549279  0.7463393386405188
  0.5548700192358239  0.0253545660584543  0.7494240261943862
  0.4350905343784388  0.9752884004043563  0.2497098350548990
  0.6847796429442800  0.2908041768310550  0.0486704495558943
  0.3262316434571040  0.7079956244558042  0.9652189079735884
  0.2794485451870896  0.7025554180187763  0.5344617804948369
  0.0695203158501033  0.4942797055923113  0.2511614033876726
 
  0.00000000E+00  0.00000000E+00  0.00000000E+00
  0.00000000E+00  0.00000000E+00  0.00000000E+00
  0.00000000E+00  0.00000000E+00  0.00000000E+00
  0.00000000E+00  0.00000000E+00  0.00000000E+00
  0.00000000E+00  0.00000000E+00  0.00000000E+00
  0.00000000E+00  0.00000000E+00  0.00000000E+00
  0.00000000E+00  0.00000000E+00  0.00000000E+00
  0.00000000E+00  0.00000000E+00  0.00000000E+00
  0.00000000E+00  0.00000000E+00  0.00000000E+00
  0.00000000E+00  0.00000000E+00  0.00000000E+00
  0.00000000E+00  0.00000000E+00  0.00000000E+00
  0.00000000E+00  0.00000000E+00  0.00000000E+00
  0.00000000E+00  0.00000000E+00  0.00000000E+00
  0.00000000E+00  0.00000000E+00  0.00000000E+00
  0.00000000E+00  0.00000000E+00  0.00000000E+00
  0.00000000E+00  0.00000000E+00  0.00000000E+00
  0.00000000E+00  0.00000000E+00  0.00000000E+00
  0.00000000E+00  0.00000000E+00  0.00000000E+00
  0.00000000E+00  0.00000000E+00  0.00000000E+00
  0.00000000E+00  0.00000000E+00  0.00000000E+00
