Na4 Co4 O8 F4                           
    1.000000000000000     
     5.4052578061815408    0.2466625829461466   -0.0346477988771773
     0.2390958043950718    5.4538342942127054    0.0484649387307459
    -0.0504816154908144   -0.0183236752512758    7.1287354943505088
   Na   Co   O    F 
     4     4     8     4
Direct
  0.9861532074325020  0.0495096508316455  0.2511559141898235
  0.0001773864904130  0.9807672333154926  0.7403611771631929
  0.5066216564535587  0.4431176389595273  0.7506528760048358
  0.5046549014811801  0.5333648609038940  0.2599652481801089
  0.5076682332614281  0.9688494953058526  0.0025577252379631
  0.9973370337591150  0.5157397635831292  0.9967429562140636
  0.4979823385057335 -0.0011902349993289  0.5002996638947026
  0.0042360961848813  0.5064236851833213  0.4970749768095375
  0.2988309886697767  0.7111885220639040  0.9667703977542714
  0.7918583051661024  0.7984930219466813  0.0406013089119479
  0.8013948550569541  0.7671375831178427  0.4565025979645854
  0.2014721688081647  0.2395908948424801  0.5348981900945809
  0.0824772920309974  0.4840065974537837  0.2333630451803948
  0.9248324042793078  0.5206953022566072  0.7599172178152538
  0.5664570173984026  0.0126168705019177  0.7357999364491280
  0.4241291640426355  0.9818138748317684  0.2652464513139000
  0.6927124092255745  0.2880879189938281  0.0398635562509813
  0.2059810315777770  0.2015520049956029  0.9547949245770448
  0.2927063997309293  0.7155494503946709  0.5567364988478631
  0.7123171104445739  0.2826858655173864  0.4566953371458133
 
  0.00000000E+00  0.00000000E+00  0.00000000E+00
  0.00000000E+00  0.00000000E+00  0.00000000E+00
  0.00000000E+00  0.00000000E+00  0.00000000E+00
  0.00000000E+00  0.00000000E+00  0.00000000E+00
  0.00000000E+00  0.00000000E+00  0.00000000E+00
  0.00000000E+00  0.00000000E+00  0.00000000E+00
  0.00000000E+00  0.00000000E+00  0.00000000E+00
  0.00000000E+00  0.00000000E+00  0.00000000E+00
  0.00000000E+00  0.00000000E+00  0.00000000E+00
  0.00000000E+00  0.00000000E+00  0.00000000E+00
  0.00000000E+00  0.00000000E+00  0.00000000E+00
  0.00000000E+00  0.00000000E+00  0.00000000E+00
  0.00000000E+00  0.00000000E+00  0.00000000E+00
  0.00000000E+00  0.00000000E+00  0.00000000E+00
  0.00000000E+00  0.00000000E+00  0.00000000E+00
  0.00000000E+00  0.00000000E+00  0.00000000E+00
  0.00000000E+00  0.00000000E+00  0.00000000E+00
  0.00000000E+00  0.00000000E+00  0.00000000E+00
  0.00000000E+00  0.00000000E+00  0.00000000E+00
  0.00000000E+00  0.00000000E+00  0.00000000E+00
