Cr4 O4 F8                               
   1.00000000000000     
     4.9258356159270935    0.0634429078080224   -0.0240070259619838
     0.0614187888094391    5.1571402992779074   -0.0556761463478433
    -0.0312472624398944   -0.0856205461673448    7.1499732356555006
   Cr   O    F 
     4     4     8
Direct
  0.5054477153032824  0.0000796663219880  0.9987136422703460
  0.0413486917277411  0.5227782798346047  0.0107574372872987
  0.4961689156778717  0.9952326452921758  0.5003005891634651
  0.9980091283111099  0.4939135640506059  0.4906980618782742
  0.2924420920952929  0.7044945186940166  0.9425067904943203
  0.7823607411585881  0.7594398285698892  0.4620450886586979
  0.2068194423893215  0.2307205220589390  0.5420994569748550
  0.1002268948533005  0.4699173781377988  0.2405375563858629
  0.6888286864875716  0.3130343280741232  0.0486889261111824
  0.1924388226462027  0.1997358915877715  0.9364916446856170
  0.8203401594272032  0.8134769927172810  0.0736320503751075
  0.2830891699569603  0.7135902572601802  0.5670963532974579
  0.7042905080940369  0.2776657353049602  0.4288272750514387
  0.8845805258814869  0.5127887761134107  0.7594683252344617
  0.6276367432288564  0.0246198299848094  0.7510931175097185
  0.3759717627611815  0.9685117859974536  0.2470436846219034
 
  0.00000000E+00  0.00000000E+00  0.00000000E+00
  0.00000000E+00  0.00000000E+00  0.00000000E+00
  0.00000000E+00  0.00000000E+00  0.00000000E+00
  0.00000000E+00  0.00000000E+00  0.00000000E+00
  0.00000000E+00  0.00000000E+00  0.00000000E+00
  0.00000000E+00  0.00000000E+00  0.00000000E+00
  0.00000000E+00  0.00000000E+00  0.00000000E+00
  0.00000000E+00  0.00000000E+00  0.00000000E+00
  0.00000000E+00  0.00000000E+00  0.00000000E+00
  0.00000000E+00  0.00000000E+00  0.00000000E+00
  0.00000000E+00  0.00000000E+00  0.00000000E+00
  0.00000000E+00  0.00000000E+00  0.00000000E+00
  0.00000000E+00  0.00000000E+00  0.00000000E+00
  0.00000000E+00  0.00000000E+00  0.00000000E+00
  0.00000000E+00  0.00000000E+00  0.00000000E+00
  0.00000000E+00  0.00000000E+00  0.00000000E+00
