Mn2 O2 F4                               
   1.00000000000000     
    -2.5093173094670611   -4.1140238624735650    0.0893474509790538
    -4.9451477234797707   -0.0508921545428627   -0.0168705664504484
    -2.5093890962121610   -1.2949258406238309   -4.3167009592657131
   Mn   O    F 
     2     2     4
Direct
  0.9957976451652421  0.0034746160937878  0.9954584192143020
  0.5060327138787450  0.4952502375327651  0.5068828985037769
  0.2528604464077940  0.6056360035835149  0.2485330507425360
  0.7459194969015410  0.3974375277880294  0.7492381648992998
  0.5939058347346787  0.8798501415042626  0.2563786714836465
  0.4076425565906976  0.1178559527788547  0.7458924683514535
  0.1177285655881076  0.7422979930587214  0.7350848245256927
  0.8801127407331940  0.2581975276600643  0.2625315022792927
 
  0.00000000E+00  0.00000000E+00  0.00000000E+00
  0.00000000E+00  0.00000000E+00  0.00000000E+00
  0.00000000E+00  0.00000000E+00  0.00000000E+00
  0.00000000E+00  0.00000000E+00  0.00000000E+00
  0.00000000E+00  0.00000000E+00  0.00000000E+00
  0.00000000E+00  0.00000000E+00  0.00000000E+00
  0.00000000E+00  0.00000000E+00  0.00000000E+00
  0.00000000E+00  0.00000000E+00  0.00000000E+00
