Na4 Ni4 O8 F4                           
   1.00000000000000     
     5.2033727205994760    0.2050492731117082   -0.0978699425152161
     0.1860649922833676    5.2307971391858636    0.0217897425918355
     0.0342009387096533    0.0528187852594306    7.6995497732401272
   Na   Ni   O    F 
     4     4     8     4
Direct
  0.9845574158563762  0.0477493731356800  0.2324793220467700
  0.0212285303891250  0.9467523363762723  0.7491874342130493
  0.4976120988448111  0.4491284559795170  0.7705162570402404
  0.4989638933727322  0.5561221183409545  0.2413315394453544
  0.4823082432428378  0.9964384226359136  0.9997937754559023
  0.0038873085639680  0.5150320146330890  0.0029106764760931
  0.5126975136021034  0.0035049026996974  0.4995715911218759
  0.0000382548263992  0.4924157669341969  0.5046354203097833
  0.0600296985752217  0.4953006806971444  0.2423864398858514
  0.9396311539399164  0.5028105382566015  0.7603494869652530
  0.2912656887167612  0.7097551851147786  0.9631917780543212
  0.1786806826499714  0.2145804802284726  0.9504008499030914
  0.7934512095277678  0.8001588637776672  0.0463062506236115
  0.7087401766890198  0.3020991011789070  0.4600230529042271
  0.8250122839349896  0.7956779587382004  0.4507070721331218
  0.1938668979245880  0.1934649193214899  0.5479888655447788
  0.5938912712809131  0.0017950050834465  0.7513910600874683
  0.4052642311747825  0.0021838754749998  0.2525258177863675
  0.6871331061732380  0.2990492536185423  0.0398658958218088
  0.3217403407144641  0.6759807477744356  0.5344374141810446
 
  0.00000000E+00  0.00000000E+00  0.00000000E+00
  0.00000000E+00  0.00000000E+00  0.00000000E+00
  0.00000000E+00  0.00000000E+00  0.00000000E+00
  0.00000000E+00  0.00000000E+00  0.00000000E+00
  0.00000000E+00  0.00000000E+00  0.00000000E+00
  0.00000000E+00  0.00000000E+00  0.00000000E+00
  0.00000000E+00  0.00000000E+00  0.00000000E+00
  0.00000000E+00  0.00000000E+00  0.00000000E+00
  0.00000000E+00  0.00000000E+00  0.00000000E+00
  0.00000000E+00  0.00000000E+00  0.00000000E+00
  0.00000000E+00  0.00000000E+00  0.00000000E+00
  0.00000000E+00  0.00000000E+00  0.00000000E+00
  0.00000000E+00  0.00000000E+00  0.00000000E+00
  0.00000000E+00  0.00000000E+00  0.00000000E+00
  0.00000000E+00  0.00000000E+00  0.00000000E+00
  0.00000000E+00  0.00000000E+00  0.00000000E+00
  0.00000000E+00  0.00000000E+00  0.00000000E+00
  0.00000000E+00  0.00000000E+00  0.00000000E+00
  0.00000000E+00  0.00000000E+00  0.00000000E+00
  0.00000000E+00  0.00000000E+00  0.00000000E+00
