V2 O2 F4                                
   1.00000000000000     
     3.7207684583952965   -0.0000001250223445    0.0000519756004320
    -0.0000001338494502    3.7207733548930357    0.0000023763574002
     0.0001093084706287    0.0000050165581505    7.7496990278023539
   V    O    F 
     2     2     4
Direct
  0.5000029323542535  0.4999999910313514  0.2563961502855459
  0.5000776353186237  0.4999995180089156  0.7561117833527679
  0.4999871915126148  0.0000004323009380  0.7551728508691186
  0.9999292457887949  0.5000000002453194  0.7551728398374282
  0.4999917659609924  0.4999995911411480  0.0019525892608325
  0.4999996674485570  0.5000003361689791  0.5096886687768604
  0.5000067658934229  0.0000000428573573  0.2542525073988344
  0.0000047957227409  0.5000000882459982  0.2542526102186042
 
  0.00000000E+00  0.00000000E+00  0.00000000E+00
  0.00000000E+00  0.00000000E+00  0.00000000E+00
  0.00000000E+00  0.00000000E+00  0.00000000E+00
  0.00000000E+00  0.00000000E+00  0.00000000E+00
  0.00000000E+00  0.00000000E+00  0.00000000E+00
  0.00000000E+00  0.00000000E+00  0.00000000E+00
  0.00000000E+00  0.00000000E+00  0.00000000E+00
  0.00000000E+00  0.00000000E+00  0.00000000E+00
