Na2 Cr2 O4 F2                           
   1.00000000000000     
     3.7799485113564879   -0.0000000251323923   -0.0000803051643392
    -0.0000000251730105    3.6325154316379198   -0.0000000132596984
     0.0004386960891538   -0.0000000519416306    7.7223237098803876
   Na   Cr   O    F 
     2     2     4     2
Direct
  0.0000309645327485 -0.0000000103505208  0.0254925611443004
  0.0001804772521452  0.0000000645830519  0.4789698591238241
  0.5000362039708350  0.5000000056193327  0.2687049443264751
  0.5000496772251579  0.4999999864350074  0.7425664573383622
  0.4999534646693672  0.4999999908257740  0.5053980253686352
  0.4998130913085110 -0.0000000007344809  0.2470906370316765
  0.5000964614100506 -0.0000000125978921  0.7597688870867231
 -0.0001785057136564  0.4999999998597904  0.2507231082427304
  0.5000152165339160  0.4999999935722909  0.0002116780128513
  0.0000029488109244  0.4999999827876396  0.7640738423244141
 
  0.00000000E+00  0.00000000E+00  0.00000000E+00
  0.00000000E+00  0.00000000E+00  0.00000000E+00
  0.00000000E+00  0.00000000E+00  0.00000000E+00
  0.00000000E+00  0.00000000E+00  0.00000000E+00
  0.00000000E+00  0.00000000E+00  0.00000000E+00
  0.00000000E+00  0.00000000E+00  0.00000000E+00
  0.00000000E+00  0.00000000E+00  0.00000000E+00
  0.00000000E+00  0.00000000E+00  0.00000000E+00
  0.00000000E+00  0.00000000E+00  0.00000000E+00
  0.00000000E+00  0.00000000E+00  0.00000000E+00
