Hexasodium manganate(II)                
   1.00000000000000     
     7.6079983524320713    0.0000739568233158    0.0000000296113106
    -3.8039351266341650    6.5887566567824374    0.0000001297937789
     0.0000000229322009    0.0000001316800517    5.8435786255572468
   Na   Mn   O 
    12     2     8
Direct
  0.1394442819452806  0.8605554074845827  0.9726178681156341
  0.1395179932852955  0.2789692557986001  0.9726663876010093
  0.7210305441750577  0.8604821510107001  0.9726668708734749
  0.8605555540241525  0.1394444298265540  0.4726178580783014
  0.8604822366858826  0.7210306797398260  0.4726666355775748
  0.2789693975211165  0.1395180038119932  0.4726666707377092
  0.5376666770540481  0.4623334615686687  0.1446816515539595
  0.5376136620139391  0.0752901639968968  0.1446550618690949
  0.9247098478704245  0.4623862702164132  0.1446550163700806
  0.4623334476214254  0.5376666660110416  0.6446816226030236
  0.4623862259574949  0.9247098668450846  0.6446549900491476
  0.0752901912573378  0.5376136980994914  0.6446550404878408
  0.3333332274678256  0.6666666381831305  0.2478188695167418
  0.6666666482300272  0.3333332110485330  0.7478188743114487
  0.3333320186536284  0.6666680238931590  0.9030099519837194
  0.6666679625606946  0.3333319943069029  0.4030099651821573
  0.8136423232555430  0.1863598961118882  0.8638342126979310
  0.8136363883332081  0.6272739977757311  0.8638370420128751
  0.3727260231760781  0.1863614112371863  0.8638370121246766
  0.1863598928654113  0.8136423360870566  0.3638342086415634
  0.1863614338164723  0.3727260740980256  0.3638370087071507
  0.6272740202296561  0.8136364208485389  0.3638370449048693
 
  0.00000000E+00  0.00000000E+00  0.00000000E+00
  0.00000000E+00  0.00000000E+00  0.00000000E+00
  0.00000000E+00  0.00000000E+00  0.00000000E+00
  0.00000000E+00  0.00000000E+00  0.00000000E+00
  0.00000000E+00  0.00000000E+00  0.00000000E+00
  0.00000000E+00  0.00000000E+00  0.00000000E+00
  0.00000000E+00  0.00000000E+00  0.00000000E+00
  0.00000000E+00  0.00000000E+00  0.00000000E+00
  0.00000000E+00  0.00000000E+00  0.00000000E+00
  0.00000000E+00  0.00000000E+00  0.00000000E+00
  0.00000000E+00  0.00000000E+00  0.00000000E+00
  0.00000000E+00  0.00000000E+00  0.00000000E+00
  0.00000000E+00  0.00000000E+00  0.00000000E+00
  0.00000000E+00  0.00000000E+00  0.00000000E+00
  0.00000000E+00  0.00000000E+00  0.00000000E+00
  0.00000000E+00  0.00000000E+00  0.00000000E+00
  0.00000000E+00  0.00000000E+00  0.00000000E+00
  0.00000000E+00  0.00000000E+00  0.00000000E+00
  0.00000000E+00  0.00000000E+00  0.00000000E+00
  0.00000000E+00  0.00000000E+00  0.00000000E+00
  0.00000000E+00  0.00000000E+00  0.00000000E+00
  0.00000000E+00  0.00000000E+00  0.00000000E+00
