Chromium(V) fluoride                    
   1.00000000000000     
     7.6205588906546868   -0.0006143622711680   -0.0000020539573493
    -0.0006183707550921    7.5111626121977713    0.0001240747553006
     0.0000266063983439    0.0000928875899559    5.4849983891369076
   Cr   F 
     4    20
Direct
  0.2579327165720215  0.5876358059774134  0.2499876475222038
  0.7421710908329260  0.4121818697678989  0.7500036638287710
  0.7421971851492515  0.0878035777001216  0.2500056526515735
  0.2578886892363741  0.9124144564870704  0.7499925422891067
  0.3436673678836328  0.7499819643647285  0.0000145167054129
  0.6559499264847801  0.2499910599815962  0.9999788961616787
  0.6559363491861561  0.2499993493982657  0.5000162793237450
  0.3436808560885112  0.7499815957248401  0.4999849029412502
  0.0792213549310361  0.7239998160501102  0.2500022022337163
  0.9203080677016402  0.2751152162454247  0.7499947018134066
  0.9202724729621679  0.2249409957310391  0.2500064257589969
  0.0791990736298303  0.7759086499889207  0.7499863788996635
  0.4718138651416766  0.5217439889693480  0.2500067752341266
  0.5284573368750785  0.4787878680558038  0.7500104750785113
  0.5284835809501089  0.0212000235933516  0.2500053934429047
  0.4717972568844431  0.9783379318247540  0.7499953863881927
  0.1876217900166353  0.4476578060830292  0.0233551792749722
  0.8126721464342808  0.5519473452604657  0.9767773924402050
  0.8126460785256810  0.5519576563641237  0.5232194190577673
  0.1876208883468351  0.4476789843895190  0.4766489618825034
  0.8126380760074881  0.9480665309799718  0.4767792843335101
  0.1875938199127916  0.0523065718729967  0.5233094089138675
  0.1875813597492666  0.0522999170629319  0.9766694929817845
  0.8126485904973748  0.9480610181262676  0.0232490408421171
 
  0.00000000E+00  0.00000000E+00  0.00000000E+00
  0.00000000E+00  0.00000000E+00  0.00000000E+00
  0.00000000E+00  0.00000000E+00  0.00000000E+00
  0.00000000E+00  0.00000000E+00  0.00000000E+00
  0.00000000E+00  0.00000000E+00  0.00000000E+00
  0.00000000E+00  0.00000000E+00  0.00000000E+00
  0.00000000E+00  0.00000000E+00  0.00000000E+00
  0.00000000E+00  0.00000000E+00  0.00000000E+00
  0.00000000E+00  0.00000000E+00  0.00000000E+00
  0.00000000E+00  0.00000000E+00  0.00000000E+00
  0.00000000E+00  0.00000000E+00  0.00000000E+00
  0.00000000E+00  0.00000000E+00  0.00000000E+00
  0.00000000E+00  0.00000000E+00  0.00000000E+00
  0.00000000E+00  0.00000000E+00  0.00000000E+00
  0.00000000E+00  0.00000000E+00  0.00000000E+00
  0.00000000E+00  0.00000000E+00  0.00000000E+00
  0.00000000E+00  0.00000000E+00  0.00000000E+00
  0.00000000E+00  0.00000000E+00  0.00000000E+00
  0.00000000E+00  0.00000000E+00  0.00000000E+00
  0.00000000E+00  0.00000000E+00  0.00000000E+00
  0.00000000E+00  0.00000000E+00  0.00000000E+00
  0.00000000E+00  0.00000000E+00  0.00000000E+00
  0.00000000E+00  0.00000000E+00  0.00000000E+00
  0.00000000E+00  0.00000000E+00  0.00000000E+00
