Na15 Mn16 O16 F32
1.0
-5.754637 -9.512182 0.184893
-11.117895 -0.267517 0.163119
-5.434895 -3.166775 -8.951197
Na Mn O F
15 16 16 32
direct
0.609832 0.142054 0.615299 Na
0.115969 0.139807 0.117084 Na
0.115699 0.141459 0.617689 Na
0.116057 0.639267 0.119156 Na
0.115385 0.638465 0.617356 Na
0.612612 0.144645 0.121127 Na
0.613176 0.638809 0.118317 Na
0.614843 0.638572 0.618954 Na
0.389734 0.364884 0.868526 Na
0.390718 0.868843 0.368228 Na
0.391277 0.866781 0.865749 Na
0.885565 0.363876 0.368344 Na
0.887905 0.363266 0.870490 Na
0.890953 0.863672 0.368500 Na
0.889174 0.865469 0.868281 Na
0.002382 0.002441 0.476459 Mn
0.002299 0.001557 0.978347 Mn
0.007406 0.501475 0.475730 Mn
0.002483 0.502226 0.977446 Mn
0.501507 0.004913 0.477986 Mn
0.501217 0.002756 0.978385 Mn
0.499778 0.502455 0.476832 Mn
0.501231 0.501776 0.980576 Mn
0.252207 0.254886 0.259394 Mn
0.252892 0.253361 0.755689 Mn
0.253193 0.747203 0.260497 Mn
0.252425 0.752045 0.758734 Mn
0.749612 0.253057 0.258337 Mn
0.751864 0.253357 0.757921 Mn
0.752181 0.752304 0.259718 Mn
0.752958 0.752299 0.757932 Mn
0.097783 0.350220 0.394374 O
0.100418 0.352536 0.892850 O
0.103738 0.849304 0.394514 O
0.100341 0.850674 0.894774 O
0.612471 0.351082 0.395545 O
0.601067 0.352715 0.893342 O
0.604995 0.849823 0.396069 O
0.602297 0.852030 0.893717 O
0.403518 0.143122 0.340835 O
0.401954 0.154172 0.842939 O
0.404928 0.656863 0.341394 O
0.402483 0.654236 0.842930 O
0.905336 0.149621 0.339684 O
0.902974 0.152338 0.842189 O
0.905317 0.651495 0.341658 O
0.903942 0.654773 0.841323 O
0.103889 0.356260 0.139372 F
0.103623 0.353934 0.642242 F
0.105605 0.853511 0.141025 F
0.104231 0.855764 0.640707 F
0.615184 0.357568 0.130685 F
0.603982 0.358224 0.640919 F
0.603887 0.856119 0.140995 F
0.607669 0.853891 0.640296 F
0.327942 0.424377 0.111625 F
0.330368 0.426546 0.623567 F
0.329019 0.923615 0.117816 F
0.328999 0.924531 0.617787 F
0.829994 0.425484 0.117595 F
0.831066 0.425459 0.617844 F
0.827435 0.925343 0.119188 F
0.829077 0.927264 0.616011 F
0.172609 0.080269 0.367629 F
0.173835 0.078532 0.870890 F
0.169379 0.585246 0.368436 F
0.175075 0.579514 0.868058 F
0.675281 0.079103 0.368580 F
0.674599 0.079954 0.868324 F
0.674267 0.582183 0.369075 F
0.676041 0.580490 0.866315 F
0.396554 0.150050 0.095923 F
0.396990 0.138156 0.606804 F
0.400111 0.651017 0.094053 F
0.398160 0.650551 0.596889 F
0.899787 0.146767 0.096313 F
0.898170 0.150494 0.595368 F
0.898839 0.649832 0.095819 F
0.900960 0.648479 0.595779 F
