Na4 Mn4 O8 F4                           
   1.00000000000000     
     5.3118766674996580   -0.0336460513539180    0.0317796311982119
    -2.6420551493926396    4.6406291621351636   -0.0554929877694095
     0.0109784978751137   -0.0789699965407921    9.0020827852867953
   Na   Mn   O    F 
     4     4     8     4
Direct
  0.9824797916238523  0.0111567733667286  0.9360658086226792
  0.0133076466176263  0.9965186882035795  0.5599934223753564
  0.3327202834034892  0.6671589446988690  0.2598628160406804
  0.6639088785840812  0.3325090827069843  0.7454046697628343
  0.3450864289703617  0.6764350243409254  0.6012452611222088
  0.6904556201681942  0.3435427202525290  0.4045858501366197
  0.6793669851912583  0.3438803142841067  0.1073484283026431
  0.3183731617689318  0.7051947142916717  0.8877879689546049
  0.4006028626455489  0.0213016428481367  0.9948980035807296
  0.9835568360008295  0.4318960762911104  0.9918079236599340
  0.4306155864141843  0.9775573661787575  0.4861225803829541
  0.0188652899409263  0.4039384865315938  0.4926633636944828
  0.6033220648743978  0.5584280941443822  0.5234844676776049
  0.8718101798046902  0.6095262018329493  0.2552371912007487
  0.6216191997475846  0.8738190664368872  0.7551860395200265
  0.1172980312900691  0.7486089649802850  0.7399698053698316
  0.5731245048020028  0.5978438275551312  0.0148002774339417
  0.2414490025753224  0.3537589408880635  0.7596040722458071
  0.3667084054817806  0.2457226203283867  0.2558197782684744
  0.7453292400948683  0.1012024498389366  0.2281122716478379
 
  0.00000000E+00  0.00000000E+00  0.00000000E+00
  0.00000000E+00  0.00000000E+00  0.00000000E+00
  0.00000000E+00  0.00000000E+00  0.00000000E+00
  0.00000000E+00  0.00000000E+00  0.00000000E+00
  0.00000000E+00  0.00000000E+00  0.00000000E+00
  0.00000000E+00  0.00000000E+00  0.00000000E+00
  0.00000000E+00  0.00000000E+00  0.00000000E+00
  0.00000000E+00  0.00000000E+00  0.00000000E+00
  0.00000000E+00  0.00000000E+00  0.00000000E+00
  0.00000000E+00  0.00000000E+00  0.00000000E+00
  0.00000000E+00  0.00000000E+00  0.00000000E+00
  0.00000000E+00  0.00000000E+00  0.00000000E+00
  0.00000000E+00  0.00000000E+00  0.00000000E+00
  0.00000000E+00  0.00000000E+00  0.00000000E+00
  0.00000000E+00  0.00000000E+00  0.00000000E+00
  0.00000000E+00  0.00000000E+00  0.00000000E+00
  0.00000000E+00  0.00000000E+00  0.00000000E+00
  0.00000000E+00  0.00000000E+00  0.00000000E+00
  0.00000000E+00  0.00000000E+00  0.00000000E+00
  0.00000000E+00  0.00000000E+00  0.00000000E+00
