Na8 V8 O16 F8                           
   1.00000000000000     
     7.9784610625896741   -0.0000005730846817   -0.0000003535596472
    -0.0000005711294390    7.4825841497303802   -0.0000003897413741
    -0.0000002912828197   -0.0000003386828475    7.4826475899705445
   Na   V    O    F 
     8     8    16     8
Direct
  0.2498374560035192  0.2500014188408844  0.2500301031411713
  0.2498371629247108  0.2500015154088071  0.7499699003794077
  0.2498374717852762  0.7499986523584153  0.2500300246814217
  0.2498371112332825  0.7499985859467003  0.7499699064413100
  0.7501257636389131  0.2500001910728175  0.2500298389906939
  0.7501271976237370  0.2500000189288327  0.7499701084935997
  0.7501287298569188  0.7500002828945227  0.2500298598292137
  0.7501259749227918  0.7500000521008280  0.7499702836380809
  0.0000244700904287  0.0000001765788563  0.9999999847814932
  0.0000123465594550  0.0000000861523089  0.4999999986885085
  0.0000119367751240  0.5000001691875080  0.0000000155314369
  0.0000252070045615  0.5000000548120356  0.4999999997019290
  0.4999978066656932 -0.0000001673906597 -0.0000000171980128
  0.5000118125810307  0.9999993877645865  0.4999998029539702
  0.5000122674012966  0.5000002380951245  0.0000001981843182
  0.4999991491000837  0.4999998927510630  0.5000001159116528
  0.0000002169947600  0.2606861170839280  0.0000000315287781
  0.0000023543185463  0.2393145302594835  0.4999999733635919
  0.0000002329686583  0.7393139828524911 -0.0000000059118523
  0.0000023384718687  0.7606855479498601  0.5000000327791906
  0.5000048993877085  0.2392712690262994  0.9999996878098945
  0.5000079886648996  0.2607273025177059  0.5000002739100412
  0.5000048538107807  0.7607287015094488  0.0000001940276680
  0.5000080238468141  0.7392722551645032  0.4999996998559360
  0.0000174868987443  0.0000000858599653  0.2392684062325396
  0.0000174938942296  0.0000001269890552  0.7607315902165708
  0.0000200293979526  0.5000000584842934  0.2607349328891735
  0.0000200260632811  0.5000000081392486  0.7392650802995646
  0.5000234564131045  0.0000000500570058  0.2607651952402417
  0.5000241960774334  0.9999990183959347  0.7392348071641874
  0.5000261932674597  0.4999998808953668  0.2392380766528323
  0.5000262321136807  0.5000000383044436  0.7607619211177569
  0.2499716713185105  0.0000001231070636  0.9999998984376589
  0.2499663949055762  0.0000000344486343  0.5000001085666878
  0.2499681717113054  0.5000000452837163 -0.0000000035769103
  0.2499743835358886  0.4999999919302780  0.5000000435604424
  0.7499839417678152  0.0000001029769152  0.0000000547928985
  0.7499969213971568  0.0000000624593954  0.4999998391810004
  0.7499948619678685  0.5000000762216200  0.0000000475650049
  0.7499857666391269  0.5000000345807196  0.4999999901469010
 
  0.00000000E+00  0.00000000E+00  0.00000000E+00
  0.00000000E+00  0.00000000E+00  0.00000000E+00
  0.00000000E+00  0.00000000E+00  0.00000000E+00
  0.00000000E+00  0.00000000E+00  0.00000000E+00
  0.00000000E+00  0.00000000E+00  0.00000000E+00
  0.00000000E+00  0.00000000E+00  0.00000000E+00
  0.00000000E+00  0.00000000E+00  0.00000000E+00
  0.00000000E+00  0.00000000E+00  0.00000000E+00
  0.00000000E+00  0.00000000E+00  0.00000000E+00
  0.00000000E+00  0.00000000E+00  0.00000000E+00
  0.00000000E+00  0.00000000E+00  0.00000000E+00
  0.00000000E+00  0.00000000E+00  0.00000000E+00
  0.00000000E+00  0.00000000E+00  0.00000000E+00
  0.00000000E+00  0.00000000E+00  0.00000000E+00
  0.00000000E+00  0.00000000E+00  0.00000000E+00
  0.00000000E+00  0.00000000E+00  0.00000000E+00
  0.00000000E+00  0.00000000E+00  0.00000000E+00
  0.00000000E+00  0.00000000E+00  0.00000000E+00
  0.00000000E+00  0.00000000E+00  0.00000000E+00
  0.00000000E+00  0.00000000E+00  0.00000000E+00
  0.00000000E+00  0.00000000E+00  0.00000000E+00
  0.00000000E+00  0.00000000E+00  0.00000000E+00
  0.00000000E+00  0.00000000E+00  0.00000000E+00
  0.00000000E+00  0.00000000E+00  0.00000000E+00
  0.00000000E+00  0.00000000E+00  0.00000000E+00
  0.00000000E+00  0.00000000E+00  0.00000000E+00
  0.00000000E+00  0.00000000E+00  0.00000000E+00
  0.00000000E+00  0.00000000E+00  0.00000000E+00
  0.00000000E+00  0.00000000E+00  0.00000000E+00
  0.00000000E+00  0.00000000E+00  0.00000000E+00
  0.00000000E+00  0.00000000E+00  0.00000000E+00
  0.00000000E+00  0.00000000E+00  0.00000000E+00
  0.00000000E+00  0.00000000E+00  0.00000000E+00
  0.00000000E+00  0.00000000E+00  0.00000000E+00
  0.00000000E+00  0.00000000E+00  0.00000000E+00
  0.00000000E+00  0.00000000E+00  0.00000000E+00
  0.00000000E+00  0.00000000E+00  0.00000000E+00
  0.00000000E+00  0.00000000E+00  0.00000000E+00
  0.00000000E+00  0.00000000E+00  0.00000000E+00
  0.00000000E+00  0.00000000E+00  0.00000000E+00
