Na4 Ni4 O8 F4                           
   1.00000000000000     
     4.7853248761827167    0.0013291034651979   -0.0034846102388229
    -0.0011487438323523    4.8201863663393043    0.0038043246967783
     0.0070915456828732   -0.0066329498033409    8.7451508950375594
   Na   Ni   O    F 
     4     4     8     4
Direct
  0.9970400328037359  0.0245011101978155  0.2499823797281413
  0.0029340862939697  0.9755199891076962  0.7499735361291471
  0.4970302898041628  0.4755055110569414  0.7500275679370467
  0.5029493562316819  0.5245131779645728  0.2500134896733652
  0.4968275671971615  0.0011439851141226  0.0010396685835108
  0.9968008622940994  0.4988277448921297  0.9989217617268368
  0.5030313366396167  0.9985544732894811  0.5010229348274476
  0.0029842101588803  0.5014223404865361  0.4989692622486154
  0.6484396917869021  0.3474658708864125  0.0259579139274007
  0.3429187222622259  0.6556242627298078  0.9717684687584811
  0.1484892480125682  0.1525433938530936  0.9739437609776271
  0.8429267160306212  0.8443491533116405  0.0282182127454159
  0.3517378347974833  0.6522484072315676  0.5258853752547884
  0.6572152931305482  0.3441380267559444  0.4715837866446934
  0.8518409211229884  0.8478336337789986  0.4742193670496601
  0.1572778394428785  0.1558831825323307  0.5284026971549076
  0.0362330501145696  0.4914554410462496  0.2501179590336641
  0.9635512383308551  0.5086519327235266  0.7501187477422488
  0.5363637893126560  0.0086152797507250  0.7499624576730376
  0.4634079142324027  0.9912030832904074  0.2498706521839642
 
  0.00000000E+00  0.00000000E+00  0.00000000E+00
  0.00000000E+00  0.00000000E+00  0.00000000E+00
  0.00000000E+00  0.00000000E+00  0.00000000E+00
  0.00000000E+00  0.00000000E+00  0.00000000E+00
  0.00000000E+00  0.00000000E+00  0.00000000E+00
  0.00000000E+00  0.00000000E+00  0.00000000E+00
  0.00000000E+00  0.00000000E+00  0.00000000E+00
  0.00000000E+00  0.00000000E+00  0.00000000E+00
  0.00000000E+00  0.00000000E+00  0.00000000E+00
  0.00000000E+00  0.00000000E+00  0.00000000E+00
  0.00000000E+00  0.00000000E+00  0.00000000E+00
  0.00000000E+00  0.00000000E+00  0.00000000E+00
  0.00000000E+00  0.00000000E+00  0.00000000E+00
  0.00000000E+00  0.00000000E+00  0.00000000E+00
  0.00000000E+00  0.00000000E+00  0.00000000E+00
  0.00000000E+00  0.00000000E+00  0.00000000E+00
  0.00000000E+00  0.00000000E+00  0.00000000E+00
  0.00000000E+00  0.00000000E+00  0.00000000E+00
  0.00000000E+00  0.00000000E+00  0.00000000E+00
  0.00000000E+00  0.00000000E+00  0.00000000E+00
