Na4 Cr4 O8 F4                           
   1.00000000000000     
     5.3135926694497764    0.0110443111644533   -0.3117389567309382
    -2.7037422647170506    4.7436280768044083    0.0592525390560500
    -0.2712773806449714   -0.1461139547318922    9.2655140281280328
   Na   Cr   O    F 
     4     4     8     4
Direct
  0.0376686912254218  0.9828092118228462  0.9049322404810388
 -0.0114861128638034  0.0161790953761172  0.4742874740543128
  0.3018810698016158  0.6562780752008625  0.2505852258472855
  0.6468264871008157  0.3303067657618323  0.7375290209410036
  0.3548642901880087  0.7462832941042584  0.6193317294005052
  0.6926642592392392  0.3468797903231502  0.4009568709303780
  0.6908375517313483  0.2552379304282492  0.0895355338115347
  0.3470582375735554  0.6024357517687340  0.9148368655819885
  0.4012220832959744  0.8961882864381782  0.0206735537783761
  0.0184345762480278  0.3418976288734159  0.0303123561902855
  0.5392114924492586  0.4219660677138994  0.9668310404128552
  0.5878471877976617  0.0564830055225824  0.5261632111099364
  0.0612340006760717  0.5547199818248630  0.4769955317404080
  0.1188154788698726  0.4611159741816012  0.7552644880255989
  0.6032651268004964  0.8306836330750229  0.7825251004845130
  0.6997938813393819  0.1145289297833950  0.2670174134778747
  0.5799056753596622  0.5658690949008928  0.5412733270077554
  0.8257048165679700  0.6073152539548815  0.2323570878381760
  0.3180134699192659  0.2583830043308848  0.3206525017207661
  0.1862377366801692  0.9544392246143321  0.6879394271653941
 
  0.00000000E+00  0.00000000E+00  0.00000000E+00
  0.00000000E+00  0.00000000E+00  0.00000000E+00
  0.00000000E+00  0.00000000E+00  0.00000000E+00
  0.00000000E+00  0.00000000E+00  0.00000000E+00
  0.00000000E+00  0.00000000E+00  0.00000000E+00
  0.00000000E+00  0.00000000E+00  0.00000000E+00
  0.00000000E+00  0.00000000E+00  0.00000000E+00
  0.00000000E+00  0.00000000E+00  0.00000000E+00
  0.00000000E+00  0.00000000E+00  0.00000000E+00
  0.00000000E+00  0.00000000E+00  0.00000000E+00
  0.00000000E+00  0.00000000E+00  0.00000000E+00
  0.00000000E+00  0.00000000E+00  0.00000000E+00
  0.00000000E+00  0.00000000E+00  0.00000000E+00
  0.00000000E+00  0.00000000E+00  0.00000000E+00
  0.00000000E+00  0.00000000E+00  0.00000000E+00
  0.00000000E+00  0.00000000E+00  0.00000000E+00
  0.00000000E+00  0.00000000E+00  0.00000000E+00
  0.00000000E+00  0.00000000E+00  0.00000000E+00
  0.00000000E+00  0.00000000E+00  0.00000000E+00
  0.00000000E+00  0.00000000E+00  0.00000000E+00
