Ti4 O4 F8                               
   1.00000000000000     
     5.6070374910448368   -0.0064754982246017    0.0688980548349363
    -2.8091248239894946    4.8655694769533628   -0.1379511266621494
     0.1214484744368920   -0.2106586782586201    9.4841837176949362
   Ti   O    F 
     4     4     8
Direct
  0.3443423311168758  0.7161126070653474  0.6067763254375099
  0.6603048714408000  0.3196936839377590  0.3917422046436893
  0.6557054588483359  0.3718034959022761  0.1067841819942964
  0.3396944547966751  0.6593785698706581  0.8917482058426256
  0.5002363934800879  0.5089147310856165  0.9969436885525547
  0.4997524014701306  0.0086725493306208  0.4969403007133690
  0.7908400673393785  0.6038190752004827  0.2576936447513766
  0.2091659296982611  0.8129789095740614  0.7576880618857490
  0.5027550228535651  0.0009503582115498  0.0036930370626200
  0.9980646363132513  0.4934376244944507  0.9993024621530485
  0.0019412470011594  0.4953804510932263  0.4993085993272833
  0.4972261631003371  0.4981761525208875  0.5036894680601336
  0.2020930505238609  0.3722609740428716  0.7457945112021542
  0.3579383361463410  0.1631070752786388  0.2480524316570933
  0.6420809834828697  0.8051662671445398  0.7480505021757541
  0.7978586523880495  0.1701474752470066  0.2457923745407283
 
  0.00000000E+00  0.00000000E+00  0.00000000E+00
  0.00000000E+00  0.00000000E+00  0.00000000E+00
  0.00000000E+00  0.00000000E+00  0.00000000E+00
  0.00000000E+00  0.00000000E+00  0.00000000E+00
  0.00000000E+00  0.00000000E+00  0.00000000E+00
  0.00000000E+00  0.00000000E+00  0.00000000E+00
  0.00000000E+00  0.00000000E+00  0.00000000E+00
  0.00000000E+00  0.00000000E+00  0.00000000E+00
  0.00000000E+00  0.00000000E+00  0.00000000E+00
  0.00000000E+00  0.00000000E+00  0.00000000E+00
  0.00000000E+00  0.00000000E+00  0.00000000E+00
  0.00000000E+00  0.00000000E+00  0.00000000E+00
  0.00000000E+00  0.00000000E+00  0.00000000E+00
  0.00000000E+00  0.00000000E+00  0.00000000E+00
  0.00000000E+00  0.00000000E+00  0.00000000E+00
  0.00000000E+00  0.00000000E+00  0.00000000E+00
