Mn4 O4 F8                               
   1.00000000000000     
     4.7742987274125621    0.0579041648419227   -0.0290020465578480
     0.0590056429795928    5.0608534635780664    0.0471023947086075
    -0.0321402765448526    0.1268668781365634    7.1972462195057965
   Mn   O    F 
     4     4     8
Direct
  0.4988702675880187  0.0243337549701239  0.9995012637301494
  0.9968794251667863  0.4748224419791521  0.9989674486180725
  0.5101114664309984  0.9969241276333435  0.4988625354325290
  0.9980392905252442  0.5046407102621796  0.5002407783931205
  0.6850913381906477  0.3043980976797444  0.0672210023200329
  0.1844818647413303  0.1896883885333411  0.9248349913327623
  0.8358781684594524  0.8346474520632545  0.4424334630546961
  0.1656955067257191  0.1714639131576162  0.5598082721697145
  0.3093061908131374  0.6974688878665980  0.9450361213682021
  0.8124201195103840  0.8015653747407622  0.0590744259712041
  0.3504215428728839  0.6859813952845349  0.5663694152359092
  0.6502448637069995  0.3180072018814767  0.4381024376478828
  0.1301849866213714  0.4589021178397089  0.2406436416088507
  0.8668073836883688  0.5340774282147659  0.7590963507372224
  0.6260049959689789  0.0361166316603127  0.7479926082554350
  0.3795625889896719  0.9669620762330926  0.2518152441242167
 
  0.00000000E+00  0.00000000E+00  0.00000000E+00
  0.00000000E+00  0.00000000E+00  0.00000000E+00
  0.00000000E+00  0.00000000E+00  0.00000000E+00
  0.00000000E+00  0.00000000E+00  0.00000000E+00
  0.00000000E+00  0.00000000E+00  0.00000000E+00
  0.00000000E+00  0.00000000E+00  0.00000000E+00
  0.00000000E+00  0.00000000E+00  0.00000000E+00
  0.00000000E+00  0.00000000E+00  0.00000000E+00
  0.00000000E+00  0.00000000E+00  0.00000000E+00
  0.00000000E+00  0.00000000E+00  0.00000000E+00
  0.00000000E+00  0.00000000E+00  0.00000000E+00
  0.00000000E+00  0.00000000E+00  0.00000000E+00
  0.00000000E+00  0.00000000E+00  0.00000000E+00
  0.00000000E+00  0.00000000E+00  0.00000000E+00
  0.00000000E+00  0.00000000E+00  0.00000000E+00
  0.00000000E+00  0.00000000E+00  0.00000000E+00
