Na4 V4 O8 F4                            
   1.00000000000000     
     5.2895008146198386   -0.1363660428979262   -0.0010487820264109
    -0.1396633563535878    5.3363961310883807   -0.0017101881352273
     0.0029571307391784    0.0030687268204157    7.6513104190184400
   Na   V    O    F 
     4     4     8     4
Direct
  0.9845911844426425  0.0344691012540821  0.2454679187480480
  0.0153886542997270  0.9657258967474647  0.7455798775843903
  0.4852141028431802  0.4774979572908435  0.7364240629590029
  0.5168233839903706  0.5211573633974567  0.2375080249507633
  0.4832750189197128  0.0063598385743049  0.9999708407621952
  0.0086478254697440  0.4756219937239194  0.9769461895369957
  0.5164481811977595  0.9936418218812975  0.4999510532650220
  0.9912943438839434  0.5247269622617452  0.4770894474039622
  0.7258226892082007  0.2511947104194263  0.0405188968190728
  0.3038019050805403  0.7160944017565143  0.9733774927034631
  0.2222494754969588  0.2147523651055252  0.9584372191896264
  0.2737866547609329  0.7489434412572749  0.5405949639164902
  0.6961609143838743  0.2839125048943103  0.4734916964169855
  0.7772787867806983  0.7852802701401629  0.4583669752589117
  0.0711508545788462  0.4781069532446480  0.2619260967626289
  0.9286725334667878  0.5221129664907309  0.7618708450791090
  0.7894339418804606  0.7675868845533813  0.0530934182135496
  0.2103010131616685  0.2326749098015242  0.5530268912920988
  0.5950218700959766  0.0068806261119647  0.7531530120044962
  0.4046366660579750  0.9932590310934160  0.2532050771331740
 
  0.00000000E+00  0.00000000E+00  0.00000000E+00
  0.00000000E+00  0.00000000E+00  0.00000000E+00
  0.00000000E+00  0.00000000E+00  0.00000000E+00
  0.00000000E+00  0.00000000E+00  0.00000000E+00
  0.00000000E+00  0.00000000E+00  0.00000000E+00
  0.00000000E+00  0.00000000E+00  0.00000000E+00
  0.00000000E+00  0.00000000E+00  0.00000000E+00
  0.00000000E+00  0.00000000E+00  0.00000000E+00
  0.00000000E+00  0.00000000E+00  0.00000000E+00
  0.00000000E+00  0.00000000E+00  0.00000000E+00
  0.00000000E+00  0.00000000E+00  0.00000000E+00
  0.00000000E+00  0.00000000E+00  0.00000000E+00
  0.00000000E+00  0.00000000E+00  0.00000000E+00
  0.00000000E+00  0.00000000E+00  0.00000000E+00
  0.00000000E+00  0.00000000E+00  0.00000000E+00
  0.00000000E+00  0.00000000E+00  0.00000000E+00
  0.00000000E+00  0.00000000E+00  0.00000000E+00
  0.00000000E+00  0.00000000E+00  0.00000000E+00
  0.00000000E+00  0.00000000E+00  0.00000000E+00
  0.00000000E+00  0.00000000E+00  0.00000000E+00
