Iron(III) fluoride                      
   1.00000000000000     
     5.4458813012113669    0.0003623981989881   -0.0001892492466528
    -2.7226333994638119    4.7171943537865797    0.0004886513004104
    -0.0000551300989366    0.0000780789314937    6.6732636039935285
   Fe   F 
     3     9
Direct
  0.0000334724985110 -0.0000049944781526  0.9997242752682782
  0.3331377948033858  0.6665982531875111  0.6663913254114503
  0.6664794356486067  0.3332236884282238  0.3333454718513700
  0.5079507859591231  0.5079725687808615  0.5000677652707481
  0.4922372578818611  0.9997452566935688  0.4998415334766616
  0.9994029453724032  0.4918130299064146  0.5003008934610541
  0.8369746944191709  0.6663724010339440  0.1663626088015244
  0.3332124651931799  0.1697337324624940  0.1667016611940135
  0.8305215767721374  0.1637844391508957  0.1667304555678875
  0.6660947214588877  0.8361907532841009  0.8336972873906644
  0.1698103561727280  0.3336333142953779  0.8336283644830231
  0.1641445238200076  0.8309375872547630  0.8332083578233247
 
  0.00000000E+00  0.00000000E+00  0.00000000E+00
  0.00000000E+00  0.00000000E+00  0.00000000E+00
  0.00000000E+00  0.00000000E+00  0.00000000E+00
  0.00000000E+00  0.00000000E+00  0.00000000E+00
  0.00000000E+00  0.00000000E+00  0.00000000E+00
  0.00000000E+00  0.00000000E+00  0.00000000E+00
  0.00000000E+00  0.00000000E+00  0.00000000E+00
  0.00000000E+00  0.00000000E+00  0.00000000E+00
  0.00000000E+00  0.00000000E+00  0.00000000E+00
  0.00000000E+00  0.00000000E+00  0.00000000E+00
  0.00000000E+00  0.00000000E+00  0.00000000E+00
  0.00000000E+00  0.00000000E+00  0.00000000E+00
