Mn8 O8 F16                              
   1.00000000000000     
     7.3135941628493297   -0.0770630221335107   -0.0106563881821358
    -0.0645349989240486    6.9902371850278273   -0.1325915516530896
    -0.0131949638467123   -0.1593925588623239    6.9019709843494583
   Mn   O    F 
     8     8    16
Direct
  0.0030168505794170  0.0017998678193496  0.0049140702010395
  0.0034161425645050  0.0011890127765688  0.4935423375355541
 -0.0014933165838250  0.4970704525106500  0.9873792716406831
  0.9817579324291379  0.4976030906891558  0.5142943484135303
  0.5025224984229621 -0.0055241246803446 -0.0020944950212553
  0.5027157237927711  0.0057272507975610  0.4979024635816347
  0.4976665689846183  0.5043558379029608  0.0004348594294547
  0.5123989621146074  0.4949812304821514  0.5020326757168985
  0.0599162420451712  0.9350795497074145  0.2459859458188624
  0.7474355795528639  0.5424111427924044  0.5843422703976811
  0.4457346545293235  0.2522884602883609  0.0815588344354917
  0.9467084256486237  0.0648590018125640  0.7520018102858282
  0.0531258694960631  0.4151830740478704  0.7466197833964566
  0.5558957538945807  0.2466990049437833  0.4087520857315853
  0.5519943798509604  0.7501259433605427  0.9142890689021308
  0.4465250014287858  0.7545875132222685  0.5856360345451694
  0.5687617537013092  0.0787421189705973  0.7527269791577658
  0.2686852119130614  0.0757216488125098  0.5477026841884887
  0.2508697437338036  0.4695377246064493  0.4338670687477871
  0.7615157657812872  0.4147335546048678  0.9651145275327014
 -0.0693755494738492  0.7348661690639745  0.9248438140228059
  0.9417874781711180  0.5668010695654184  0.2535371925671500
  0.4356146486595027  0.9211242117622545  0.2457480893480387
  0.5634261664988270  0.5859600615959988  0.2624630605333740
  0.4398908357435710  0.4118294671256262  0.7394371792023428
  0.2658713064393095 -0.0342246371371033  0.9186573630642334
  0.2331282351509546  0.5851760081131414  0.0336430956928973
  0.7375689178724955  0.0365195996735419  0.0790927375253238
  0.7352026742396894  0.9287420913818207  0.4519380356130244
  0.0684713878510990  0.2673327027641991  0.0753563619483183
  0.9334307237703345  0.2540086606890589  0.4221998828513879
  0.0558134311969189  0.7446932399343800  0.5760805629936222
 
  0.00000000E+00  0.00000000E+00  0.00000000E+00
  0.00000000E+00  0.00000000E+00  0.00000000E+00
  0.00000000E+00  0.00000000E+00  0.00000000E+00
  0.00000000E+00  0.00000000E+00  0.00000000E+00
  0.00000000E+00  0.00000000E+00  0.00000000E+00
  0.00000000E+00  0.00000000E+00  0.00000000E+00
  0.00000000E+00  0.00000000E+00  0.00000000E+00
  0.00000000E+00  0.00000000E+00  0.00000000E+00
  0.00000000E+00  0.00000000E+00  0.00000000E+00
  0.00000000E+00  0.00000000E+00  0.00000000E+00
  0.00000000E+00  0.00000000E+00  0.00000000E+00
  0.00000000E+00  0.00000000E+00  0.00000000E+00
  0.00000000E+00  0.00000000E+00  0.00000000E+00
  0.00000000E+00  0.00000000E+00  0.00000000E+00
  0.00000000E+00  0.00000000E+00  0.00000000E+00
  0.00000000E+00  0.00000000E+00  0.00000000E+00
  0.00000000E+00  0.00000000E+00  0.00000000E+00
  0.00000000E+00  0.00000000E+00  0.00000000E+00
  0.00000000E+00  0.00000000E+00  0.00000000E+00
  0.00000000E+00  0.00000000E+00  0.00000000E+00
  0.00000000E+00  0.00000000E+00  0.00000000E+00
  0.00000000E+00  0.00000000E+00  0.00000000E+00
  0.00000000E+00  0.00000000E+00  0.00000000E+00
  0.00000000E+00  0.00000000E+00  0.00000000E+00
  0.00000000E+00  0.00000000E+00  0.00000000E+00
  0.00000000E+00  0.00000000E+00  0.00000000E+00
  0.00000000E+00  0.00000000E+00  0.00000000E+00
  0.00000000E+00  0.00000000E+00  0.00000000E+00
  0.00000000E+00  0.00000000E+00  0.00000000E+00
  0.00000000E+00  0.00000000E+00  0.00000000E+00
  0.00000000E+00  0.00000000E+00  0.00000000E+00
  0.00000000E+00  0.00000000E+00  0.00000000E+00
