Na4 Mn4 O8 F4                           
   1.00000000000000     
     5.3826543507203608   -0.0325400146577532    0.0000097034419218
    -2.7195054322040897    4.6456393970675505   -0.0000005208053698
     0.0000128948043392    0.0000038759949575    8.9920378542209320
   Na   Mn   O    F 
     4     4     8     4
Direct
  0.0004129870401357  0.0004572074543461  0.0000015266142412
  0.0004369317741038  0.0004416242395280  0.4999969740110188
  0.3273827289816396  0.6591400562861196  0.2499973444622015
  0.6591224370963928  0.3272505081016490  0.7499984990498518
  0.3284724741688478  0.6925462267093607  0.6094463232174689
  0.6925883922302276  0.3284658426837552  0.3905525865582860
  0.6925695924514983  0.3285059591965762  0.1094571037387198
  0.3284172644614713  0.6925550196627697  0.8905578987746807
  0.4207542330665319  0.0048492051728743  0.9999472008815289
  0.0048269342670650  0.4207637616626698  0.0000616807914469
  0.4207748343054192  0.0048292531664202  0.5000527832409318
  0.0048588838570538  0.4207538918451732  0.4999330958060142
  0.8716665108120623  0.6180983125343289  0.2500060704148694
  0.6180712381942755  0.8716416638008866  0.7500065359219477
  0.7480895557689706  0.1162826934927921  0.2499918425361827
  0.1162109945367718  0.7480501829123583  0.7499884485373229
  0.5799600524207875  0.5799845923465554  0.0000044782277442
  0.5799922792248964  0.5799729368770983  0.5000015871843999
  0.2448175311553982  0.3605612244666929  0.7499963648772408
  0.3605741441864510  0.2448498373880454  0.2500016551538877
 
  0.00000000E+00  0.00000000E+00  0.00000000E+00
  0.00000000E+00  0.00000000E+00  0.00000000E+00
  0.00000000E+00  0.00000000E+00  0.00000000E+00
  0.00000000E+00  0.00000000E+00  0.00000000E+00
  0.00000000E+00  0.00000000E+00  0.00000000E+00
  0.00000000E+00  0.00000000E+00  0.00000000E+00
  0.00000000E+00  0.00000000E+00  0.00000000E+00
  0.00000000E+00  0.00000000E+00  0.00000000E+00
  0.00000000E+00  0.00000000E+00  0.00000000E+00
  0.00000000E+00  0.00000000E+00  0.00000000E+00
  0.00000000E+00  0.00000000E+00  0.00000000E+00
  0.00000000E+00  0.00000000E+00  0.00000000E+00
  0.00000000E+00  0.00000000E+00  0.00000000E+00
  0.00000000E+00  0.00000000E+00  0.00000000E+00
  0.00000000E+00  0.00000000E+00  0.00000000E+00
  0.00000000E+00  0.00000000E+00  0.00000000E+00
  0.00000000E+00  0.00000000E+00  0.00000000E+00
  0.00000000E+00  0.00000000E+00  0.00000000E+00
  0.00000000E+00  0.00000000E+00  0.00000000E+00
  0.00000000E+00  0.00000000E+00  0.00000000E+00
