Na4 Co4 O8 F4                           
   1.00000000000000     
     5.3238569955978461   -0.1436109889035888   -0.2254655364910330
    -2.7435868049530256    4.7159003787049754    0.0428903293811671
    -0.1488215903248295   -0.0137087663198698    9.2180957524667342
   Na   Co   O    F 
     4     4     8     4
Direct
  0.0459212861081627  0.9877564422394018  0.9510848746046409
  0.9805212577593956  0.0268966028292280  0.5142724599772062
  0.3169264102341423  0.6724945045114730  0.2847215125704615
  0.6762504933901961  0.3085744427458154  0.7605802805359493
  0.2771826089393160  0.6994611251712819  0.6201878823589830
  0.6169351880890945  0.2974686187727740  0.3876603852367588
  0.6982302444315129  0.2986811965196449  0.1118049347259332
  0.3794987790424613  0.6320127068576640  0.9509384932184889
  0.6175388539864336  0.0089325071771647  0.9821785412440438
  0.0962973770892448  0.4925265140949689  0.0673783977484226
  0.6279172343928758  0.4993096621815308  0.9726644284829603
  0.3852929814785480  0.9786653877937385  0.4715805937803089
  0.9362550612037601  0.4775895539473429  0.5397727378556253
  0.7581895438497960  0.5683996693736485  0.2568374507389591
  0.1965863488991129  0.4699346908693025  0.7816278870184769
  0.7848356623841717  0.1504483192179999  0.2755328319903709
  0.4311550702877124  0.4819288461784749  0.4789311199052028
  0.3093327735769130  0.0996438224751819  0.1697899545371516
  0.6654766453978030  0.8990684789074828  0.6878744831226067
  0.1996561794593698  0.9502069081358885  0.7345807503474358
 
  0.00000000E+00  0.00000000E+00  0.00000000E+00
  0.00000000E+00  0.00000000E+00  0.00000000E+00
  0.00000000E+00  0.00000000E+00  0.00000000E+00
  0.00000000E+00  0.00000000E+00  0.00000000E+00
  0.00000000E+00  0.00000000E+00  0.00000000E+00
  0.00000000E+00  0.00000000E+00  0.00000000E+00
  0.00000000E+00  0.00000000E+00  0.00000000E+00
  0.00000000E+00  0.00000000E+00  0.00000000E+00
  0.00000000E+00  0.00000000E+00  0.00000000E+00
  0.00000000E+00  0.00000000E+00  0.00000000E+00
  0.00000000E+00  0.00000000E+00  0.00000000E+00
  0.00000000E+00  0.00000000E+00  0.00000000E+00
  0.00000000E+00  0.00000000E+00  0.00000000E+00
  0.00000000E+00  0.00000000E+00  0.00000000E+00
  0.00000000E+00  0.00000000E+00  0.00000000E+00
  0.00000000E+00  0.00000000E+00  0.00000000E+00
  0.00000000E+00  0.00000000E+00  0.00000000E+00
  0.00000000E+00  0.00000000E+00  0.00000000E+00
  0.00000000E+00  0.00000000E+00  0.00000000E+00
  0.00000000E+00  0.00000000E+00  0.00000000E+00
