Na4 Co4 O8 F4                           
   1.00000000000000     
     5.2735778414844887   -0.0536652195352013   -0.3737974098076766
    -2.7307924559485981    4.7265490548891318    0.3061257637829033
    -0.4043644367462882    0.3779013760584294    9.1930316460900112
   Na   Co   O    F 
     4     4     8     4
Direct
  0.9537635959250496  0.9747732144490042  0.0570972921378944
  0.0226701681415521 -0.0146204954798963  0.4902538249183476
  0.3223608712394796  0.6325315578188393  0.2382090958274432
  0.7073268088894372  0.2683923288997470  0.7141396018864236
  0.3867275177337771  0.6881860354707456  0.6099811363701610
  0.7150263220477073  0.3721419936009496  0.3817317440524933
  0.6200244098451105  0.2872937636781761  0.0439633805125787
  0.3024614820374898  0.6551065466174643  0.8857943173030371
  0.3613316856888293  0.9164961846080762  0.0130143061932281
  0.9057838900002688  0.4445783764512731  0.9294795860919738
  0.3965781185040672  0.4462502097403599  0.0291741453621446
  0.5810037818896209 -0.0071599840451065  0.5039829312444981
  0.0607451638282140  0.5075621761321869  0.4645329961363088
  0.2458532505676951  0.4052698197134259  0.7460601086017020
  0.7997392919462739  0.2683985370615987  0.2150374053816943
  0.2165767945068640  0.8258915788067995  0.7163886741502454
  0.5897420049949740  0.5092843893396158  0.5423879402468130
  0.7931156174978847  0.7351280985350392  0.2771633717216835
  0.3271141669746079  0.2186246650916646  0.3139783056652667
  0.6920550577411030  0.8658710035100289  0.8276298361960606
 
  0.00000000E+00  0.00000000E+00  0.00000000E+00
  0.00000000E+00  0.00000000E+00  0.00000000E+00
  0.00000000E+00  0.00000000E+00  0.00000000E+00
  0.00000000E+00  0.00000000E+00  0.00000000E+00
  0.00000000E+00  0.00000000E+00  0.00000000E+00
  0.00000000E+00  0.00000000E+00  0.00000000E+00
  0.00000000E+00  0.00000000E+00  0.00000000E+00
  0.00000000E+00  0.00000000E+00  0.00000000E+00
  0.00000000E+00  0.00000000E+00  0.00000000E+00
  0.00000000E+00  0.00000000E+00  0.00000000E+00
  0.00000000E+00  0.00000000E+00  0.00000000E+00
  0.00000000E+00  0.00000000E+00  0.00000000E+00
  0.00000000E+00  0.00000000E+00  0.00000000E+00
  0.00000000E+00  0.00000000E+00  0.00000000E+00
  0.00000000E+00  0.00000000E+00  0.00000000E+00
  0.00000000E+00  0.00000000E+00  0.00000000E+00
  0.00000000E+00  0.00000000E+00  0.00000000E+00
  0.00000000E+00  0.00000000E+00  0.00000000E+00
  0.00000000E+00  0.00000000E+00  0.00000000E+00
  0.00000000E+00  0.00000000E+00  0.00000000E+00
