Mn2 O2 F4                               
    1.000000000000000     
     3.8480938036159307   -0.0014940046046281   -0.0000010373017129
    -0.0014949206622442    3.8422062928003267   -0.0000001333070794
     0.0000083996923823   -0.0000004964854867    7.1719209278814846
   Mn   O    F 
     2     2     4
Direct
  0.5000007972673357  0.5000000681499783  0.2566851961873828
  0.5000003690567522  0.4999999875239224  0.7566572192823101
  0.4999996147872672  0.4999994540959006  0.0059713684687474
  0.4999998462378069  0.4999994251125952  0.5059514546748705
  0.4999977831081112  0.0000003729458557  0.2543888928873367
  0.4999978593178486  0.0000000125437203  0.7545044564891082
  0.0000021621292757  0.5000003608380683  0.2544693584738273
  0.0000015680956025  0.5000003187899592  0.7543720535363949
 
  0.00000000E+00  0.00000000E+00  0.00000000E+00
  0.00000000E+00  0.00000000E+00  0.00000000E+00
  0.00000000E+00  0.00000000E+00  0.00000000E+00
  0.00000000E+00  0.00000000E+00  0.00000000E+00
  0.00000000E+00  0.00000000E+00  0.00000000E+00
  0.00000000E+00  0.00000000E+00  0.00000000E+00
  0.00000000E+00  0.00000000E+00  0.00000000E+00
  0.00000000E+00  0.00000000E+00  0.00000000E+00
