Na4 Ni4 O8 F4                           
   1.00000000000000     
     5.0535778152034112    0.0480682437112450   -0.0303050845335316
     0.0348679507925845    5.0746977995562510    0.0134014590703867
     0.0543838811432079   -0.0859242522707511    7.8918579972588860
   Na   Ni   O    F 
     4     4     8     4
Direct
  0.9986223660247830  0.0424128385252374  0.2472468295075601
  0.9827706362262703  0.9876072878730611  0.7574538080326647
  0.4942131025781720  0.4592655668277033  0.7506055496253055
  0.4905391279555076  0.5226947972744682  0.2524991552212370
  0.5112615816246873  0.9934159943972531  0.0091002951698016
  0.9880256944868577  0.5083089114171813  0.9938804755929951
  0.4992474501958597  0.0056409047787795  0.4909975636477739
  0.9997462176416221  0.4978059657821490  0.5136860547860138
  0.6703852514711386  0.3340726255146862  0.0230180145479437
  0.3267856838909893  0.6817261273120891  0.9732008656178621
  0.8339465851062826  0.8340225755208692  0.0176210181714040
  0.7021605602550380  0.3112210019246433  0.4751090246054162
  0.8309508405606607  0.8175899795279236  0.4707535871380273
  0.1643775727152104  0.1674557671063184  0.5265862293336880
  0.9516711512919542  0.5119670809119938  0.7570065900447958
  0.4561166124492146  0.9883408371719753  0.2468589112143462
  0.1825454257930872  0.1812202232870277  0.9798223518600366
  0.3362324295555297  0.6567556038050029  0.5192266610066909
  0.0488628279991730  0.4888769160092465  0.2466744401972747
  0.5315388821779621  0.0095989950323982  0.7486525746791486
 
  0.00000000E+00  0.00000000E+00  0.00000000E+00
  0.00000000E+00  0.00000000E+00  0.00000000E+00
  0.00000000E+00  0.00000000E+00  0.00000000E+00
  0.00000000E+00  0.00000000E+00  0.00000000E+00
  0.00000000E+00  0.00000000E+00  0.00000000E+00
  0.00000000E+00  0.00000000E+00  0.00000000E+00
  0.00000000E+00  0.00000000E+00  0.00000000E+00
  0.00000000E+00  0.00000000E+00  0.00000000E+00
  0.00000000E+00  0.00000000E+00  0.00000000E+00
  0.00000000E+00  0.00000000E+00  0.00000000E+00
  0.00000000E+00  0.00000000E+00  0.00000000E+00
  0.00000000E+00  0.00000000E+00  0.00000000E+00
  0.00000000E+00  0.00000000E+00  0.00000000E+00
  0.00000000E+00  0.00000000E+00  0.00000000E+00
  0.00000000E+00  0.00000000E+00  0.00000000E+00
  0.00000000E+00  0.00000000E+00  0.00000000E+00
  0.00000000E+00  0.00000000E+00  0.00000000E+00
  0.00000000E+00  0.00000000E+00  0.00000000E+00
  0.00000000E+00  0.00000000E+00  0.00000000E+00
  0.00000000E+00  0.00000000E+00  0.00000000E+00
