Ni4 O4 F8                               
   1.00000000000000     
     4.7929291139866317    0.0626312838684365   -0.0296002674710731
     0.1060488340593541    5.0508253431477073   -0.0287240914562883
    -0.0178978343454315   -0.0704163586300634    6.9809530964933346
   Ni   O    F 
     4     4     8
Direct
  0.5062949074126437  0.9924287486971788 -0.0030493554636890
  0.0051903278103603  0.4957493323749253 -0.0070297686395283
  0.5038661854514661  0.0014068672076106  0.4995121871573895
 -0.0013300786245790  0.5014026478192749  0.5043832117971000
  0.8483329047552878  0.5436217166457283  0.7390201059910980
  0.3247183698811058  0.6826811794137339  0.9568293980021904
  0.8402947133238868  0.8282747744835555  0.4334216562068687
  0.1604524740996570  0.1718781833550479  0.5621936179895372
  0.1381934337580408  0.4502945618122618  0.2644993451411962
  0.6503097081939738  0.0312527918421380  0.7372366089752905
  0.3673834070296506  0.9639393077923805  0.2619225309141865
  0.6525489330844830  0.3367437104897097  0.0494897124476905
  0.1676223986871450  0.1657804165957160  0.8993469524837524
  0.8418470875276211  0.8278319749516859  0.0896762309438191
  0.3045323167299289  0.6705570795655605  0.5830946303110522
  0.6897429108793203  0.3361567069534990  0.4294529357420598
 
  0.00000000E+00  0.00000000E+00  0.00000000E+00
  0.00000000E+00  0.00000000E+00  0.00000000E+00
  0.00000000E+00  0.00000000E+00  0.00000000E+00
  0.00000000E+00  0.00000000E+00  0.00000000E+00
  0.00000000E+00  0.00000000E+00  0.00000000E+00
  0.00000000E+00  0.00000000E+00  0.00000000E+00
  0.00000000E+00  0.00000000E+00  0.00000000E+00
  0.00000000E+00  0.00000000E+00  0.00000000E+00
  0.00000000E+00  0.00000000E+00  0.00000000E+00
  0.00000000E+00  0.00000000E+00  0.00000000E+00
  0.00000000E+00  0.00000000E+00  0.00000000E+00
  0.00000000E+00  0.00000000E+00  0.00000000E+00
  0.00000000E+00  0.00000000E+00  0.00000000E+00
  0.00000000E+00  0.00000000E+00  0.00000000E+00
  0.00000000E+00  0.00000000E+00  0.00000000E+00
  0.00000000E+00  0.00000000E+00  0.00000000E+00
