Sodium tetraoxomanganate(III)           
   1.00000000000000     
     5.7640851225077103    0.0000000394419313   -0.0000002857735352
     0.0000000360217214    7.7017790705608276   -0.0000043822219767
    -0.0000002888508731   -0.0000033962379070    5.9701746139022962
   Na   Mn   O 
    10     2     8
Direct
  0.5629521615429525  0.1784464364504146  0.0708532687242283
  0.0629522148691350  0.3215535288034275  0.9291467256331600
  0.0629522315267010  0.6784464535955692  0.9291466126964139
  0.5629521815070007  0.8215535390159587  0.0708533598272751
  0.2546665103895762  0.3008363218434198  0.3926148033250456
  0.7546665072511871  0.1991636768661920  0.6073851850786056
  0.7546664745037788  0.8008363503234222  0.6073850913627226
  0.2546664918338877  0.6991636617469368  0.3926148887808125
  0.2606979499039710  0.0000000198139816  0.6767048440685457
  0.7606978802709961  0.4999999917417739  0.3232951159847133
  0.0044804429247876  0.9999999930100785  0.1729967901432303
  0.5044804418621922  0.5000000113349259  0.8270032876456170
  0.3133306500324551  0.9999999973789429  0.2842885513722919
  0.8133306561100397  0.5000000084232283  0.7157114764428911
  0.8847118157543719  0.0000000017956410  0.8730376849015045
  0.3847118358280071  0.4999999996980478  0.1269623067827936
  0.4044703603719242  0.2736857612895776  0.7423008151519213
  0.9044703413601809  0.2263142436437633  0.2576991993611486
  0.9044713566049438  0.7736849814187536  0.2576959281920779
  0.4044713715519208  0.7263150218059451  0.7423040795250131
 
  0.00000000E+00  0.00000000E+00  0.00000000E+00
  0.00000000E+00  0.00000000E+00  0.00000000E+00
  0.00000000E+00  0.00000000E+00  0.00000000E+00
  0.00000000E+00  0.00000000E+00  0.00000000E+00
  0.00000000E+00  0.00000000E+00  0.00000000E+00
  0.00000000E+00  0.00000000E+00  0.00000000E+00
  0.00000000E+00  0.00000000E+00  0.00000000E+00
  0.00000000E+00  0.00000000E+00  0.00000000E+00
  0.00000000E+00  0.00000000E+00  0.00000000E+00
  0.00000000E+00  0.00000000E+00  0.00000000E+00
  0.00000000E+00  0.00000000E+00  0.00000000E+00
  0.00000000E+00  0.00000000E+00  0.00000000E+00
  0.00000000E+00  0.00000000E+00  0.00000000E+00
  0.00000000E+00  0.00000000E+00  0.00000000E+00
  0.00000000E+00  0.00000000E+00  0.00000000E+00
  0.00000000E+00  0.00000000E+00  0.00000000E+00
  0.00000000E+00  0.00000000E+00  0.00000000E+00
  0.00000000E+00  0.00000000E+00  0.00000000E+00
  0.00000000E+00  0.00000000E+00  0.00000000E+00
  0.00000000E+00  0.00000000E+00  0.00000000E+00
