Vanadium fluoride                       
   1.00000000000000     
     5.3784788790954217    0.0000048441678492   -0.0000023761916408
     0.0000141270882694   16.0781074819860024   -0.0000469166813553
    -0.0000032482992711   -0.0000216183637629    7.4150555687804296
   V    F 
     8    40
Direct
  0.2500035824767737  0.1191670678146497  0.1067945977148723
  0.7500052928432341  0.8808324306411601  0.8932058209601645
  0.7500059494870548  0.6191688581313479  0.3932037986131079
  0.2500039312045797  0.3808328759378384  0.6067953097448260
  0.7500054235967860  0.1429557262262520  0.4581957738299601
  0.2500063078476390  0.8570433650089754  0.5418039538554722
  0.2500060575495758  0.6429568509067488  0.0418052499058826
  0.7500066218545237  0.3570430278333418  0.9581969092451831
  0.2500104856307874  0.0358130662163434  0.2577925338026478
  0.7500125507650968  0.9641879344071900  0.7422127141045153
  0.7500136782502385  0.5358150818880351  0.2422031454473512
  0.2500093562076593  0.4641880145631606  0.7577928693269370
  0.2499822627182397  0.2199847906522356  0.0211204579477027
  0.7499790419244842  0.7800141934225615  0.9788777831531341
  0.7499722914810744  0.7199872138804039  0.4788762550538644
  0.2499833850976691  0.2800151889642297  0.5211196378711803
  0.4874837240052200  0.0831619513769947  0.9731738883457469
  0.5125102678696304  0.9168467751323469  0.0267989298932868
  0.5125138964547552  0.5831524992206567  0.5267951607853171
  0.4874842273094038  0.4168377155244833  0.4731752095898463
  0.9874928457545507  0.9168338735292556  0.0268247697294225
  0.0125024633481894  0.0831533585813563  0.9732067003105457
  0.0125012872787745  0.4168463505964988  0.4732084846192698
  0.9874974734060488  0.5831697757797080  0.5268210688897593
  0.4990870064724179  0.1654861881727113  0.2711793165728018
  0.5009310200848134  0.8345145767308796  0.7288012052827929
  0.5009254718916776  0.6654868001645867  0.2288035830464805
  0.4990874817652987  0.3345153184666073  0.7711792248861112
  0.9990845524796436  0.8345141902803676  0.7288185411530254
  0.0009302904515672  0.1654862953842586  0.2711981509632896
  0.0009329155520840  0.3345141447928928  0.7712000519603881
  0.9990841832984064  0.6654887010527397  0.2288177353238986
  0.7499893553267324  0.0436738706455719  0.3635012617020038
  0.2499947910043325  0.9563255761020010  0.6364955678820666
  0.2499879750931486  0.5436746870079552  0.1364976384279933
  0.7499961034147163  0.4563247961233142  0.8635079180542898
  0.7499851786706522  0.2510423372083438  0.4730207991279706
  0.2499795621970849  0.7489569305406681  0.5269806239046619
  0.2499826376619927  0.7510424741123886  0.0269765232942153
  0.7499793436157576  0.2489571109834244  0.9730165926719118
  0.5134894553311969  0.1257114599553544  0.6086187060622871
  0.4865200443431011  0.8742826102621275  0.3913732034429646
  0.4865248342232886  0.6257113368927378  0.8913804944613943
  0.5134892046163344  0.3742891779764019  0.1086191541105644
  0.0134898495088884  0.8742892806991135  0.3913819983149845
  0.9865244984119057  0.1257113238863739  0.6086208032799755
  0.9865204696380612  0.3742821556618518  0.1086291093141285
  0.0134913705849009  0.6257106936615745  0.8913807370198106
 
  0.00000000E+00  0.00000000E+00  0.00000000E+00
  0.00000000E+00  0.00000000E+00  0.00000000E+00
  0.00000000E+00  0.00000000E+00  0.00000000E+00
  0.00000000E+00  0.00000000E+00  0.00000000E+00
  0.00000000E+00  0.00000000E+00  0.00000000E+00
  0.00000000E+00  0.00000000E+00  0.00000000E+00
  0.00000000E+00  0.00000000E+00  0.00000000E+00
  0.00000000E+00  0.00000000E+00  0.00000000E+00
  0.00000000E+00  0.00000000E+00  0.00000000E+00
  0.00000000E+00  0.00000000E+00  0.00000000E+00
  0.00000000E+00  0.00000000E+00  0.00000000E+00
  0.00000000E+00  0.00000000E+00  0.00000000E+00
  0.00000000E+00  0.00000000E+00  0.00000000E+00
  0.00000000E+00  0.00000000E+00  0.00000000E+00
  0.00000000E+00  0.00000000E+00  0.00000000E+00
  0.00000000E+00  0.00000000E+00  0.00000000E+00
  0.00000000E+00  0.00000000E+00  0.00000000E+00
  0.00000000E+00  0.00000000E+00  0.00000000E+00
  0.00000000E+00  0.00000000E+00  0.00000000E+00
  0.00000000E+00  0.00000000E+00  0.00000000E+00
  0.00000000E+00  0.00000000E+00  0.00000000E+00
  0.00000000E+00  0.00000000E+00  0.00000000E+00
  0.00000000E+00  0.00000000E+00  0.00000000E+00
  0.00000000E+00  0.00000000E+00  0.00000000E+00
  0.00000000E+00  0.00000000E+00  0.00000000E+00
  0.00000000E+00  0.00000000E+00  0.00000000E+00
  0.00000000E+00  0.00000000E+00  0.00000000E+00
  0.00000000E+00  0.00000000E+00  0.00000000E+00
  0.00000000E+00  0.00000000E+00  0.00000000E+00
  0.00000000E+00  0.00000000E+00  0.00000000E+00
  0.00000000E+00  0.00000000E+00  0.00000000E+00
  0.00000000E+00  0.00000000E+00  0.00000000E+00
  0.00000000E+00  0.00000000E+00  0.00000000E+00
  0.00000000E+00  0.00000000E+00  0.00000000E+00
  0.00000000E+00  0.00000000E+00  0.00000000E+00
  0.00000000E+00  0.00000000E+00  0.00000000E+00
  0.00000000E+00  0.00000000E+00  0.00000000E+00
  0.00000000E+00  0.00000000E+00  0.00000000E+00
  0.00000000E+00  0.00000000E+00  0.00000000E+00
  0.00000000E+00  0.00000000E+00  0.00000000E+00
  0.00000000E+00  0.00000000E+00  0.00000000E+00
  0.00000000E+00  0.00000000E+00  0.00000000E+00
  0.00000000E+00  0.00000000E+00  0.00000000E+00
  0.00000000E+00  0.00000000E+00  0.00000000E+00
  0.00000000E+00  0.00000000E+00  0.00000000E+00
  0.00000000E+00  0.00000000E+00  0.00000000E+00
  0.00000000E+00  0.00000000E+00  0.00000000E+00
  0.00000000E+00  0.00000000E+00  0.00000000E+00
