Mn4 O4 F8                               
   1.00000000000000     
     4.8092837793490171    0.1520583296210837   -0.0253042537792514
     0.1438543858577916    5.1189158694515280   -0.0151810791390197
    -0.0314674441365199    0.0292572389137116    7.2209756442288207
   Mn   O    F 
     4     4     8
Direct
  0.5026165177846328  0.9918506227510201  0.9982477982016059
  0.9926382915587926  0.5031529003341907  0.0002397134000183
  0.4954411638901698  0.0095489954710176  0.4998134544902609
  0.0065448729621534  0.4998789858356348  0.5000217663433302
  0.1709522959137993  0.1773041499273352  0.9314611869238982
  0.8220495000072300  0.8079442571765586  0.0719999721678991
  0.8287565479852529  0.8192480535692009  0.4320942449345295
  0.1829595304858679  0.1908111210698058  0.5728127639185983
  0.6872132240473382  0.3220668341637793  0.0601459755895610
  0.3081926439806569  0.6685898671025162  0.9372259203157398
  0.3397413770996744  0.7013507314551511  0.5630492947589892
  0.6632453734819345  0.3093477676000247  0.4357252839000196
  0.1318864461479357  0.4534214314705733  0.2373737493269244
  0.8638289208418036  0.5430888206937697  0.7610333765806819
  0.6374698425120012  0.0294966023117032  0.7371559669271214
  0.3664634513007563  0.9728988590677184  0.2615995322208221
 
  0.00000000E+00  0.00000000E+00  0.00000000E+00
  0.00000000E+00  0.00000000E+00  0.00000000E+00
  0.00000000E+00  0.00000000E+00  0.00000000E+00
  0.00000000E+00  0.00000000E+00  0.00000000E+00
  0.00000000E+00  0.00000000E+00  0.00000000E+00
  0.00000000E+00  0.00000000E+00  0.00000000E+00
  0.00000000E+00  0.00000000E+00  0.00000000E+00
  0.00000000E+00  0.00000000E+00  0.00000000E+00
  0.00000000E+00  0.00000000E+00  0.00000000E+00
  0.00000000E+00  0.00000000E+00  0.00000000E+00
  0.00000000E+00  0.00000000E+00  0.00000000E+00
  0.00000000E+00  0.00000000E+00  0.00000000E+00
  0.00000000E+00  0.00000000E+00  0.00000000E+00
  0.00000000E+00  0.00000000E+00  0.00000000E+00
  0.00000000E+00  0.00000000E+00  0.00000000E+00
  0.00000000E+00  0.00000000E+00  0.00000000E+00
