V8 O8 F16                               
   1.00000000000000     
     7.4268324772434360    0.0000168818110042    0.0132642430379111
     0.0000393360440101    7.6749326088669267   -0.0000278160524355
    -0.0141828418207539    0.0000302699336971    7.6463600851008291
   V    O    F 
     8     8    16
Direct
  0.0330898854318161 -0.0000002208957822  0.9991464092306407
  0.9669686570745771  0.0000010023317297  0.4990958197574893
  0.0240884039703847  0.5000007691484616  0.9997519975321911
  0.9757216875409126  0.4999917077824993  0.4997595318644782
  0.5335938929011231  0.0000021801954627  0.9994764707939001
  0.4664625258319110 -0.0000014910335167  0.4994865128852825
  0.5053808090045714  0.5000013937124825  0.0351905132350152
  0.4945831491432058  0.4999995274466519  0.5351973389309773
  0.2454753537224307 -0.0000103434264610  0.4981628331327424
  0.7527501504182350  0.4999863915550029  0.5247348783280524
  0.5249971073809544  0.4999967820814570  0.2477728545421775
  0.4745593557380500  0.5000070811523405  0.7476972973684459
  0.2545408130681645  0.9999918454795973  0.0005071590103938
  0.2470532298513519  0.5000157749620443  0.0247307127745001
  0.7547018969277389  0.0000103971700947  0.9982002782145366
  0.7456164768107260  0.0000027597959304  0.5004740217665333
 -0.0015509608538633  0.9999177023517433  0.2487353282439291
  0.4988601252114165  0.9999889260696340  0.7492492712991328
  0.2418605485872313  0.5000102413084485  0.4675064238549372
  0.7580157538566349  0.4999835425097576  0.9675625647781223
 -0.0037075776836620  0.7504206366418316  0.9955674548438639
  0.5038538946110104  0.2509185241016265  0.9961490275942421
  0.0018193083437593  0.0001126293260558  0.7486911927728384
  0.9662617894793217  0.5000729152099229  0.2460445171783442
  0.0332498619024422  0.4998970829113946  0.7460531780076807
  0.5015943293057801  0.0000166536058656  0.2492932932805748
 -0.0036952933211782  0.2495796490517661  0.9957783726417268
  0.0036829369505338  0.2495772263923210  0.4956409622569893
  0.0036706961489135  0.7504233127177993  0.4958409177530165
  0.4962934117171908  0.2508942702325847  0.4961775601523401
  0.5038883517613117  0.7490858023850504  0.9961584126406370
  0.4963194291670106  0.7491053277261746  0.4961668933342817
 
  0.00000000E+00  0.00000000E+00  0.00000000E+00
  0.00000000E+00  0.00000000E+00  0.00000000E+00
  0.00000000E+00  0.00000000E+00  0.00000000E+00
  0.00000000E+00  0.00000000E+00  0.00000000E+00
  0.00000000E+00  0.00000000E+00  0.00000000E+00
  0.00000000E+00  0.00000000E+00  0.00000000E+00
  0.00000000E+00  0.00000000E+00  0.00000000E+00
  0.00000000E+00  0.00000000E+00  0.00000000E+00
  0.00000000E+00  0.00000000E+00  0.00000000E+00
  0.00000000E+00  0.00000000E+00  0.00000000E+00
  0.00000000E+00  0.00000000E+00  0.00000000E+00
  0.00000000E+00  0.00000000E+00  0.00000000E+00
  0.00000000E+00  0.00000000E+00  0.00000000E+00
  0.00000000E+00  0.00000000E+00  0.00000000E+00
  0.00000000E+00  0.00000000E+00  0.00000000E+00
  0.00000000E+00  0.00000000E+00  0.00000000E+00
  0.00000000E+00  0.00000000E+00  0.00000000E+00
  0.00000000E+00  0.00000000E+00  0.00000000E+00
  0.00000000E+00  0.00000000E+00  0.00000000E+00
  0.00000000E+00  0.00000000E+00  0.00000000E+00
  0.00000000E+00  0.00000000E+00  0.00000000E+00
  0.00000000E+00  0.00000000E+00  0.00000000E+00
  0.00000000E+00  0.00000000E+00  0.00000000E+00
  0.00000000E+00  0.00000000E+00  0.00000000E+00
  0.00000000E+00  0.00000000E+00  0.00000000E+00
  0.00000000E+00  0.00000000E+00  0.00000000E+00
  0.00000000E+00  0.00000000E+00  0.00000000E+00
  0.00000000E+00  0.00000000E+00  0.00000000E+00
  0.00000000E+00  0.00000000E+00  0.00000000E+00
  0.00000000E+00  0.00000000E+00  0.00000000E+00
  0.00000000E+00  0.00000000E+00  0.00000000E+00
  0.00000000E+00  0.00000000E+00  0.00000000E+00
