Na4 Co4 O8 F4                           
   1.00000000000000     
     5.3740677743325813   -0.1940281822753407   -0.0633303581485778
    -0.2256733561812970    5.4024214910061632   -0.0422039397549724
    -0.1049209674641734   -0.0992492105392064    7.3305637699442894
   Na   Co   O    F 
     4     4     8     4
Direct
  0.0290430063989470  0.0334373299807864  0.2507999314061518
  0.0053138982168560  0.9640008850750649  0.7392118903786282
  0.4723272075475307  0.4551204082673957  0.7557587789775083
  0.5055160317797703  0.5214864406096105  0.2646540890662671
  0.5215506259716031  0.9506417599072401 -0.0004697975239928
  0.9859318269320648  0.5113886236333159  0.9831891165007167
  0.5121602281315532  0.9941964225660854  0.5061652618973217
  0.0202426342961594  0.5112883230644730  0.5111207177326204
  0.8944740538520075  0.5396898996273288  0.7452618981775109
  0.5752078586359470  0.0071358056152751  0.7412608499783951
  0.4635855168627375  0.0016197643611871  0.2664526465597488
  0.2740911497267292  0.7311304584840295  0.9648328511099725
  0.1487461898108033  0.2624395912250763  0.9493708924750638
  0.8040403131652641  0.7644389556186548  0.0417589757488005
  0.3024393012449746  0.7048524018774422  0.5282914213778555
  0.7185201906887484  0.2921423362108478  0.4823725888443700
  0.0705629712933632  0.4615858482311109  0.2463049073466233
  0.6726795440019617  0.2916078315858778  0.0304493883019065
  0.8186580673856453  0.7935988417815576  0.4495781507597877
  0.2049093840573319  0.2081980722776401  0.5436354408847462
 
  0.00000000E+00  0.00000000E+00  0.00000000E+00
  0.00000000E+00  0.00000000E+00  0.00000000E+00
  0.00000000E+00  0.00000000E+00  0.00000000E+00
  0.00000000E+00  0.00000000E+00  0.00000000E+00
  0.00000000E+00  0.00000000E+00  0.00000000E+00
  0.00000000E+00  0.00000000E+00  0.00000000E+00
  0.00000000E+00  0.00000000E+00  0.00000000E+00
  0.00000000E+00  0.00000000E+00  0.00000000E+00
  0.00000000E+00  0.00000000E+00  0.00000000E+00
  0.00000000E+00  0.00000000E+00  0.00000000E+00
  0.00000000E+00  0.00000000E+00  0.00000000E+00
  0.00000000E+00  0.00000000E+00  0.00000000E+00
  0.00000000E+00  0.00000000E+00  0.00000000E+00
  0.00000000E+00  0.00000000E+00  0.00000000E+00
  0.00000000E+00  0.00000000E+00  0.00000000E+00
  0.00000000E+00  0.00000000E+00  0.00000000E+00
  0.00000000E+00  0.00000000E+00  0.00000000E+00
  0.00000000E+00  0.00000000E+00  0.00000000E+00
  0.00000000E+00  0.00000000E+00  0.00000000E+00
  0.00000000E+00  0.00000000E+00  0.00000000E+00
