Na15 Ti16 O16 F32                       
   1.00000000000000     
    11.1151824565165374    0.1330228480504048   -0.0262273076777443
     0.1640775930670182   11.2922664419037861   -0.0198759429181992
     0.0156277839139410    0.0135243919325169    7.8400243290710394
   Na   Ti   O    F 
    15    16    16    32
Direct
  0.5017573361224307  0.4992302184106278  0.1780882931861419
  0.9982053129374870  0.0143343695403794  0.2519765634097871
  0.9951053025825444  0.5155291490125549  0.2527398779704794
  0.4981334783162559  0.0125141711879675  0.2510039200572187
  0.0034830034364507  0.4831570438988506  0.7447683445581258
  1.0004447228401165  0.9856867309655918  0.7465728778667607
  0.4990426056268804  0.9895275523391083  0.7434520459972446
  0.2485677206653197  0.2288102334757647  0.7481482730960076
  0.2546745642160557  0.7192484530231774  0.7471087932897404
  0.7434775623099260  0.2295844064318823  0.7506343405524045
  0.7461825837960945  0.7233165543516961  0.7436235463717040
  0.2527466119577047  0.2725003431039371  0.2516038573888769
  0.2506362508771710  0.7632663648249650  0.2453608144300498
  0.7425119048241520  0.2704735651502129  0.2507094468929407
  0.7415810845602803  0.7634531577679520  0.2512367161616272
  0.2366781015110603  0.0026323895035584  0.0136355244253769
  0.2338954157921007  0.5031087133484302  0.0091811789437172
  0.7401124548716904  0.0052966137366543  0.0128635191319466
  0.7410541534060628  0.5066369138387358  0.0089039637393279
  0.0011452181902236  0.2393210494850854  0.9791850065305393
  0.0037254380986520  0.7426711812298324  0.9785924659978861
  0.5004880799070157  0.2371365048213314  0.9762252959127076
  0.5061016324377327  0.7436077809276941  0.9761021265289994
  0.2371291640018587  0.0035042422295564  0.4850530320141758
  0.2397253404153387  0.5046910450179800  0.4846146772009887
  0.7383749573825207  0.0060189392477373  0.4837949940433237
  0.7349025648541261  0.5049369647825225  0.4829177131314507
  0.0019390586009470  0.2402047475965311  0.5171664985542387
  0.0041916541512115  0.7408416805054171  0.5193600922496926
  0.5014758049931118  0.2429152201484101  0.5167676326181737
  0.5037760182073935  0.7406051794361146  0.5172518015618223
  0.1041054801564058  0.1043013902377532  0.9675146435572950
  0.1044179227898390  0.6077535933579551  0.9635307926133977
  0.6076502721762941  0.1051333098979720  0.9666491029593693
  0.6137607891842725  0.6140663602600491  0.9726400855334438
  0.1043167823731294  0.1048717843988822  0.5299992586498044
  0.1055178339701529  0.6061978579317702  0.5327032082155156
  0.6060749728288789  0.1066838738961424  0.5255493288651532
  0.6100547360245370  0.6120265247468546  0.5237005798317992
  0.4615572409237632  0.2464342587757098  0.7466056076877610
  0.4655620596466060  0.7652990166517465  0.7472147495715843
  0.9591515525228926  0.2550559986015416  0.7480809903232373
  0.9598437484015238  0.7601509595457990  0.7493941420641272
  0.2148145488454548  0.4924230086051807  0.2471363580598742
  0.2163649133348948  0.9831985369984351  0.2493794615617236
  0.7211409748866033  0.4880677486961890  0.2465571395817811
  0.7202477568451450  0.9850779656222075  0.2478194851137315
  0.3530399476511865  0.1419700549276453  0.0519978786060384
  0.3564950189389002  0.6430960321085279  0.0416031426480817
  0.8489979304841848  0.1524014216703930  0.0530404389267393
  0.8551659569835586  0.6506367884168702  0.0535687306894146
  0.1448755350015458  0.3514693887020555  0.9455490440254484
  0.1565085221833267  0.8471719425121942  0.9476033595396823
  0.6470669498154784  0.3522956129107518  0.9609864511991695
  0.6567948986686901  0.8522474132873770  0.9475479729680940
  0.3804062568387924  0.3790402635901881  0.0366306228525633
  0.4000641804635385  0.8986747895802958  0.0329006840576605
  0.9017047010080085  0.3996327706045045  0.0308405707890814
  0.9064009640478992  0.9045058514493891  0.0314491297002044
  0.1500632129477852  0.3502596309999850  0.5443978157566516
  0.1536161019262478  0.8496252831364638  0.5524821607085889
  0.6546828801971081  0.3468528203171622  0.5357350346985810
  0.6543428667914918  0.8518733008297823  0.5440360302865499
  0.3509647636307187  0.1469783918821569  0.4485541464673725
  0.3485016287798742  0.6527129351055639  0.4583099713397187
  0.8510627281939394  0.1499188202123584  0.4449182133403946
  0.8529235467399054  0.6492247038427146  0.4493056204332947
  0.3911872061899727  0.3897008942281482  0.4517395380061421
  0.4010213693057018  0.9015196843242927  0.4662892195547299
  0.9010279696634329  0.3989677455871198  0.4642124457469379
  0.9035424000215552  0.9016241309247196  0.4670431412846855
  0.0368965712881959  0.2504119933187257  0.2479962460597288
  0.0376919536079431  0.7530018285758645  0.2493852810243441
  0.5333473607831892  0.2487497062153003  0.2455146490550692
  0.5309422933827702  0.7594219009243720  0.2477075114489426
  0.2908555582839723  0.0154283960528720  0.7495688769687834
  0.2821874850784569  0.5074336571960130  0.7487036530543492
  0.7939557061136990  0.0183500473192755  0.7480768992010248
  0.7952301248666406  0.5135520832672871  0.7460898777028515
 
             NaN             NaN             NaN
             NaN             NaN             NaN
             NaN             NaN             NaN
             NaN             NaN             NaN
             NaN             NaN             NaN
             NaN             NaN             NaN
             NaN             NaN             NaN
             NaN             NaN             NaN
             NaN             NaN             NaN
             NaN             NaN             NaN
             NaN             NaN             NaN
             NaN             NaN             NaN
             NaN             NaN             NaN
             NaN             NaN             NaN
             NaN             NaN             NaN
             NaN             NaN             NaN
             NaN             NaN             NaN
             NaN             NaN             NaN
             NaN             NaN             NaN
             NaN             NaN             NaN
             NaN             NaN             NaN
             NaN             NaN             NaN
             NaN             NaN             NaN
             NaN             NaN             NaN
             NaN             NaN             NaN
             NaN             NaN             NaN
             NaN             NaN             NaN
             NaN             NaN             NaN
             NaN             NaN             NaN
             NaN             NaN             NaN
             NaN             NaN             NaN
             NaN             NaN             NaN
             NaN             NaN             NaN
             NaN             NaN             NaN
             NaN             NaN             NaN
             NaN             NaN             NaN
             NaN             NaN             NaN
             NaN             NaN             NaN
             NaN             NaN             NaN
             NaN             NaN             NaN
             NaN             NaN             NaN
             NaN             NaN             NaN
             NaN             NaN             NaN
             NaN             NaN             NaN
             NaN             NaN             NaN
             NaN             NaN             NaN
             NaN             NaN             NaN
             NaN             NaN             NaN
             NaN             NaN             NaN
             NaN             NaN             NaN
             NaN             NaN             NaN
             NaN             NaN             NaN
             NaN             NaN             NaN
             NaN             NaN             NaN
             NaN             NaN             NaN
             NaN             NaN             NaN
             NaN             NaN             NaN
             NaN             NaN             NaN
             NaN             NaN             NaN
             NaN             NaN             NaN
             NaN             NaN             NaN
             NaN             NaN             NaN
             NaN             NaN             NaN
             NaN             NaN             NaN
             NaN             NaN             NaN
             NaN             NaN             NaN
             NaN             NaN             NaN
             NaN             NaN             NaN
             NaN             NaN             NaN
             NaN             NaN             NaN
             NaN             NaN             NaN
             NaN             NaN             NaN
             NaN             NaN             NaN
             NaN             NaN             NaN
             NaN             NaN             NaN
             NaN             NaN             NaN
             NaN             NaN             NaN
             NaN             NaN             NaN
             NaN             NaN             NaN
