Na15 Ti16 O16 F32
1.0
  11.1151824565165374    0.1330228480504048   -0.0262273076777443
   0.1640775930670182   11.2922664419037861   -0.0198759429181992
   0.0156277839139410    0.0135243919325169    7.8400243290710394
Na Ti O F
15 16 16 32
direct
   0.4970262950993024    0.5074157732528497    0.1664342720583266 Na
   0.9969035695292949    0.0144229981489763    0.2503789296773506 Na
   0.9965694718428876    0.5142353782282514    0.2496805085197082 Na
   0.4967936280259435    0.0165041342119180    0.2502217672313351 Na
   0.0011944636922567    0.4844972350017861    0.7502707848039926 Na
   0.9999458244979962    0.9842284844686779    0.7500185120205056 Na
   0.4993905265157246    0.9886193300419026    0.7497368922151038 Na
   0.2490654836390012    0.2273158672419785    0.7499385796160989 Na
   0.2521146538335151    0.7210846029186254    0.7497819495335125 Na
   0.7470086992173153    0.2268850288790008    0.7497035453558543 Na
   0.7466778738904994    0.7232237897947337    0.7501089303132725 Na
   0.2540284214331154    0.2745923710865440    0.2504554345058428 Na
   0.2483151984390446    0.7665446708622010    0.2494810670812421 Na
   0.7447572806295627    0.2691676148123510    0.2497787427113883 Na
   0.7431873053465492    0.7657575916085606    0.2487796775288370 Na
   0.2374219938262656    0.0040623372430717    0.0143019563596282 Ti
   0.2387937471227957    0.5043389556673592    0.0129665022964443 Ti
   0.7372385892931429    0.0051711857958833    0.0145734260201857 Ti
   0.7357243196692868    0.5041263153461502    0.0132812651092131 Ti
   0.0028480329918913    0.2401567562759144    0.9808535762114914 Ti
   0.0031357787554795    0.7402043946686578    0.9803005375533436 Ti
   0.5021741970997747    0.2423807706743635    0.9797595302824220 Ti
   0.5033499220880269    0.7406105472389201    0.9798134943448071 Ti
   0.2374931940612283    0.0040835083319531    0.4862601135018455 Ti
   0.2386927976882568    0.5046380459348978    0.4871546109940799 Ti
   0.7373112309692782    0.0054164444236530    0.4861591433773559 Ti
   0.7360862389639846    0.5044136706652247    0.4858853603487406 Ti
   0.0030755917460072    0.2403343649132739    0.5190033648156503 Ti
   0.0030147253775620    0.7402816181953377    0.5198565657807207 Ti
   0.5024369035934718    0.2428592034499311    0.5203130183556550 Ti
   0.5036195070133197    0.7407109433466419    0.5196639553769126 Ti
   0.1042160693485365    0.1041873555268402    0.9667109843335498 O
   0.1048523116323886    0.6055763763565281    0.9666909878064971 O
   0.6053296118932554    0.1056048841597575    0.9686993010331640 O
   0.6079072843913202    0.6093466377934661    0.9751533382422560 O
   0.1044327172021560    0.1043856060346910    0.5337222252688417 O
   0.1044754377525885    0.6054600991302395    0.5336812718159620 O
   0.6057700679851373    0.1062657238203647    0.5319064080716204 O
   0.6077231551464359    0.6098294185845965    0.5246745262030830 O
   0.4615984792126834    0.2519722043957048    0.7500536224774369 O
   0.4642256650432985    0.7631220754053776    0.7507173188451595 O
   0.9615136902173624    0.2581166509434279    0.7498835762816128 O
   0.9606492584684839    0.7591107499316067    0.7501598862372938 O
   0.2165797431627178    0.4918934090574938    0.2500979260547578 O
   0.2172703579837660    0.9856633840070870    0.2503161371717635 O
   0.7208134026968231    0.4857209234062781    0.2498071394406629 O
   0.7178733662166711    0.9865466833180642    0.2504564962854698 O
   0.3506827216620086    0.1487997672177528    0.0496451600545416 F
   0.3500820051628863    0.6506269517967551    0.0442978678655811 F
   0.8506841264519323    0.1497375707838331    0.0515846756178159 F
   0.8514214970125820    0.6491114390044648    0.0494256649656226 F
   0.1522633306496432    0.3489557744484436    0.9544637318862984 F
   0.1543405664093201    0.8483641997535060    0.9510966581713578 F
   0.6551177455910544    0.3462052926403803    0.9594970911027142 F
   0.6546154886840124    0.8498094521572419    0.9538540049985220 F
   0.3942036394981573    0.3923040495723322    0.0433374181886187 F
   0.4010254718664227    0.9009892018099294    0.0339542579766428 F
   0.9019725358847690    0.3995677427833256    0.0337624413792901 F
   0.9021890777584844    0.9006468138631489    0.0344184089840147 F
   0.1528718143324232    0.3487969485162239    0.5449334168827148 F
   0.1542829802363358    0.8484998280444502    0.5496223054645549 F
   0.6550727288282040    0.3470534292702956    0.5404579434549704 F
   0.6539532152970966    0.8508872472083907    0.5483656593568222 F
   0.3509938146779242    0.1487249117590220    0.4510044549336710 F
   0.3493306960190796    0.6514870554872376    0.4568448077022573 F
   0.8506989364570152    0.1499355724360441    0.4488475322317796 F
   0.8508280230718573    0.6498994689338823    0.4504411469272828 F
   0.3946234498143475    0.3928075108746956    0.4568374783300224 F
   0.4015484320308830    0.9010998707765207    0.4669037469523047 F
   0.9022861301348279    0.3998155241318896    0.4660178322896885 F
   0.9024315925744667    0.9010873962044071    0.4667997481689438 F
   0.0365172051400580    0.2492387711692653    0.2498593611974311 F
   0.0351688049903365    0.7507508922474668    0.2500623764371508 F
   0.5346266721268723    0.2458988147434517    0.2499586328797627 F
   0.5304374673472224    0.7560486354389674    0.2496265154584590 F
   0.2920338994874514    0.0145345972488237    0.7501862678932261 F
   0.2839153014513017    0.5096173354028986    0.7499562118006959 F
   0.7928791990811784    0.0157666523633088    0.7503372285782168 F
   0.7926253460244308    0.5134951673105282    0.7496742923990231 F
