Mn4 O4 F8                               
   1.00000000000000     
     4.9258954900423815   -0.1427381280332111   -0.0303673679711564
    -0.1330235630565807    5.2051983227702427   -0.0120011862494594
    -0.0301211952490834   -0.0583480733905060    7.2264988133094148
   Mn   O    F 
     4     4     8
Direct
  0.5122006092023526  0.0075800985028215  0.0018601377478739
  0.9855363211527318  0.4841392759728663  0.0017191102300042
  0.5149483956301731  0.0186183508886227  0.4994887682529903
  0.9921499758615679  0.4921528835150907  0.4993469915482815
  0.6289224075278094  0.0297515783014585  0.7478422117662188
  0.3879566833149941  0.9621085614330304  0.2541256761026486
  0.6814841448729373  0.3169202228852638  0.0626089014958002
  0.6789999240394611  0.3150758454923143  0.4405003512235752
  0.1283581282416620  0.4621194728362430  0.2383576661202176
  0.8708898147052692  0.5214462883603626  0.7602580190136777
  0.3081606733375158  0.6939763286524964  0.9386970115863251
  0.1596618953690075  0.1995626778907061  0.9351823860239429
  0.8362083554109540  0.7899545868992045  0.0635541853523830
  0.3103847608834892  0.7021279068124385  0.5591992720812087
  0.8043009615612406  0.8224201582643815  0.4432119268963511
  0.1998369488888416  0.1820457632926917  0.5540473845584940
 
  0.00000000E+00  0.00000000E+00  0.00000000E+00
  0.00000000E+00  0.00000000E+00  0.00000000E+00
  0.00000000E+00  0.00000000E+00  0.00000000E+00
  0.00000000E+00  0.00000000E+00  0.00000000E+00
  0.00000000E+00  0.00000000E+00  0.00000000E+00
  0.00000000E+00  0.00000000E+00  0.00000000E+00
  0.00000000E+00  0.00000000E+00  0.00000000E+00
  0.00000000E+00  0.00000000E+00  0.00000000E+00
  0.00000000E+00  0.00000000E+00  0.00000000E+00
  0.00000000E+00  0.00000000E+00  0.00000000E+00
  0.00000000E+00  0.00000000E+00  0.00000000E+00
  0.00000000E+00  0.00000000E+00  0.00000000E+00
  0.00000000E+00  0.00000000E+00  0.00000000E+00
  0.00000000E+00  0.00000000E+00  0.00000000E+00
  0.00000000E+00  0.00000000E+00  0.00000000E+00
  0.00000000E+00  0.00000000E+00  0.00000000E+00
