Na4 Mn4 O8 F4                           
   1.00000000000000     
     5.2387975899526626    0.0848662888665874   -0.0292882546072134
     0.0871835267706027    5.3448503663345353    0.0258851216751028
    -0.0442749720515767    0.0127570064424779    7.3700920070531746
   Na   Mn   O    F 
     4     4     8     4
Direct
  0.9908344131634735  0.0448081534336476  0.2519941281721551
  0.0066247211305636  0.9693118666302217  0.7598040981211754
  0.4883431896392519  0.4474249068123003  0.7627144913571053
  0.5022296539955219  0.5319574522130321  0.2372308045405310
  0.5032683881114313  0.9783095826341973  0.0124141035041627
  0.9834086472556668  0.5148691549986807  0.0070377790387196
  0.4954935312311464  0.9944568066045958  0.4891330907383342
  0.0055593007349743  0.4900797470428790  0.4962759652251520
  0.0783411046115510  0.4852123123324960  0.2505082854539918
  0.9143281990082542  0.5190435723945760  0.7446972568431083
  0.4148615892352155  0.9813438073150474  0.2443801874485526
  0.7203622366671927  0.2947512982873873  0.0293275375065380
  0.2935113179381668  0.7235553042602449  0.9550494367874587
  0.8000183623931333  0.8027885245416101  0.0418285780747246
  0.8003153662701888  0.7921914432397080  0.4746966098659223
  0.2016750703714020  0.2016250815971133  0.5398766719647469
  0.5746919066252769  0.0193725900273196  0.7499424550574645
  0.2191295290823345  0.2230284112939614  0.9552901431820661
  0.2945095197472089  0.6776132818445032  0.5428931215549997
  0.7124939527880529  0.3082567024964643  0.4549052555630974
 
  0.00000000E+00  0.00000000E+00  0.00000000E+00
  0.00000000E+00  0.00000000E+00  0.00000000E+00
  0.00000000E+00  0.00000000E+00  0.00000000E+00
  0.00000000E+00  0.00000000E+00  0.00000000E+00
  0.00000000E+00  0.00000000E+00  0.00000000E+00
  0.00000000E+00  0.00000000E+00  0.00000000E+00
  0.00000000E+00  0.00000000E+00  0.00000000E+00
  0.00000000E+00  0.00000000E+00  0.00000000E+00
  0.00000000E+00  0.00000000E+00  0.00000000E+00
  0.00000000E+00  0.00000000E+00  0.00000000E+00
  0.00000000E+00  0.00000000E+00  0.00000000E+00
  0.00000000E+00  0.00000000E+00  0.00000000E+00
  0.00000000E+00  0.00000000E+00  0.00000000E+00
  0.00000000E+00  0.00000000E+00  0.00000000E+00
  0.00000000E+00  0.00000000E+00  0.00000000E+00
  0.00000000E+00  0.00000000E+00  0.00000000E+00
  0.00000000E+00  0.00000000E+00  0.00000000E+00
  0.00000000E+00  0.00000000E+00  0.00000000E+00
  0.00000000E+00  0.00000000E+00  0.00000000E+00
  0.00000000E+00  0.00000000E+00  0.00000000E+00
