Ti12 O4                                 
   1.00000000000000     
     5.1847983944903797   -0.0000339127973801   -0.0000138222839268
    -2.5924285647885572    4.4901448455432593   -0.0000012167596396
    -0.0000258563982569   -0.0000178647936680    9.6044958006287420
   Ti   O 
    12     4
Direct
  0.6716576750569132  0.0055439249630638  0.3829834089245594
  0.3338826206233847  0.3283338878838435  0.3829835003488640
  0.9944450292515725  0.6661049517323576  0.3829834658300229
  0.3283336833644270  0.3338832863734353  0.8829827925684981
  0.0055427698306616  0.6716565083874642  0.8829824900574579
  0.6661059002919956  0.9944449267925819  0.8829826670859759
  0.3283420216308031  0.9944556726643867  0.6170178679354379
  0.6661171754724862  0.6716668505062913  0.6170174330049250
  0.0055557422292694  0.3338941927649017  0.6170173733064033
  0.6716664411981199  0.6661167601668083  0.1170167895655325
  0.9944563078842137  0.3283423990824446  0.1170168744226885
  0.3338941172134398  0.0055562279331269  0.1170167629720993
  0.6666663899738268  0.3333334194809296  0.2499998746350443
  0.3333342232247603  0.6666676302046071  0.7499996483774396
  0.0000006192396071  0.9999996727650640  0.2499996342517932
  0.9999992835145193  0.9999996882986935  0.7499994167132655
 
  0.00000000E+00  0.00000000E+00  0.00000000E+00
  0.00000000E+00  0.00000000E+00  0.00000000E+00
  0.00000000E+00  0.00000000E+00  0.00000000E+00
  0.00000000E+00  0.00000000E+00  0.00000000E+00
  0.00000000E+00  0.00000000E+00  0.00000000E+00
  0.00000000E+00  0.00000000E+00  0.00000000E+00
  0.00000000E+00  0.00000000E+00  0.00000000E+00
  0.00000000E+00  0.00000000E+00  0.00000000E+00
  0.00000000E+00  0.00000000E+00  0.00000000E+00
  0.00000000E+00  0.00000000E+00  0.00000000E+00
  0.00000000E+00  0.00000000E+00  0.00000000E+00
  0.00000000E+00  0.00000000E+00  0.00000000E+00
  0.00000000E+00  0.00000000E+00  0.00000000E+00
  0.00000000E+00  0.00000000E+00  0.00000000E+00
  0.00000000E+00  0.00000000E+00  0.00000000E+00
  0.00000000E+00  0.00000000E+00  0.00000000E+00
