Na2 Co2 O4 F2                           
   1.00000000000000     
     3.8724167163044072    0.0000050290790532    0.0011591559566547
     0.0000035408448316    3.8715156439810747    0.0000173774584698
     0.0011230036324653    0.0000172657419554    7.2147423218086333
   Na   Co   O    F 
     2     2     4     2
Direct
 -0.0000748572776711 -0.0000018537498125  0.9858626301209226
  0.0001284377979939 -0.0000010025623633  0.5218606324437820
  0.5000070517362399  0.4999966083585606  0.2515833527408115
  0.5001154371774610  0.5000423114760434  0.7513308659915917
  0.5003301304799151  0.5000016516507506  0.0031135878170135
  0.4999705427924013  0.4999838179997250  0.5051114170307316
  0.4997821582510981 -0.0000065125268663  0.7547818899511740
  0.0000525220639674  0.4999952507282239  0.7548235450849754
  0.4996978381782974  0.9999951879346117  0.2572489294528384
 -0.0000092611997101  0.4999945406911270  0.2572831493661443
 
  0.00000000E+00  0.00000000E+00  0.00000000E+00
  0.00000000E+00  0.00000000E+00  0.00000000E+00
  0.00000000E+00  0.00000000E+00  0.00000000E+00
  0.00000000E+00  0.00000000E+00  0.00000000E+00
  0.00000000E+00  0.00000000E+00  0.00000000E+00
  0.00000000E+00  0.00000000E+00  0.00000000E+00
  0.00000000E+00  0.00000000E+00  0.00000000E+00
  0.00000000E+00  0.00000000E+00  0.00000000E+00
  0.00000000E+00  0.00000000E+00  0.00000000E+00
  0.00000000E+00  0.00000000E+00  0.00000000E+00
