Co4 O4 F8                               
   1.00000000000000     
     5.4417599308700932    0.0505698103255016    0.0686552452828811
    -2.6799801101834562    4.7352177350466818    0.0674098814385083
     0.1116392430056082    0.2073597149106149    9.2982607436672833
   Co   O    F 
     4     4     8
Direct
  0.3182397050915088  0.6541364782396466  0.6058781778602870
  0.6817103343800925  0.3458526203075745  0.3941203872142188
  0.6543979075485155  0.3184995197149713  0.1058876996202564
  0.3456662378100643  0.6815032262932295  0.8941143822360458
  0.5002238754634414  0.0001015098293628  0.9999591031889230
  0.4995836766905906  0.4997128066916685  0.0000659665237105
  0.0000240332128209  0.5001133013538746  0.5000004121331758
  0.4996464961894261  0.4995449046785123  0.5000174899166657
 -0.0000252182737532  0.5003500505220007  0.9999622965551556
  0.5001910142801138  0.9999356954418296  0.4999301516471262
  0.8139446562087779  0.6278341054021250  0.2453656444662184
  0.1858776801078246  0.3722248887043224  0.7547420103242685
  0.3726722882044853  0.1849391975390466  0.2546627858007584
  0.6274289441934530  0.8148918153622405  0.7453936862684462
  0.8202919769318889  0.1815102661000593  0.2500420790123067
  0.1801263919607496  0.8188496138195355  0.7498577272324436
 
  0.00000000E+00  0.00000000E+00  0.00000000E+00
  0.00000000E+00  0.00000000E+00  0.00000000E+00
  0.00000000E+00  0.00000000E+00  0.00000000E+00
  0.00000000E+00  0.00000000E+00  0.00000000E+00
  0.00000000E+00  0.00000000E+00  0.00000000E+00
  0.00000000E+00  0.00000000E+00  0.00000000E+00
  0.00000000E+00  0.00000000E+00  0.00000000E+00
  0.00000000E+00  0.00000000E+00  0.00000000E+00
  0.00000000E+00  0.00000000E+00  0.00000000E+00
  0.00000000E+00  0.00000000E+00  0.00000000E+00
  0.00000000E+00  0.00000000E+00  0.00000000E+00
  0.00000000E+00  0.00000000E+00  0.00000000E+00
  0.00000000E+00  0.00000000E+00  0.00000000E+00
  0.00000000E+00  0.00000000E+00  0.00000000E+00
  0.00000000E+00  0.00000000E+00  0.00000000E+00
  0.00000000E+00  0.00000000E+00  0.00000000E+00
