Na4 Cr4 O8 F4                           
   1.00000000000000     
     5.3940172772951875    0.0177878614221323   -0.0000158811060188
    -2.6816052054537773    4.6802820060704864   -0.0000735151200565
    -0.0000258141394628   -0.0001518097936456    9.1266196425075190
   Na   Cr   O    F 
     4     4     8     4
Direct
  0.9999927992930182  0.9999658984960789  0.0004732115259571
  0.9999748730032181  0.9999958879434345  0.5006745266678934
  0.3136969654671873  0.6862799163812383  0.2499359301582160
  0.6862829263387553  0.3136823239682087  0.7498815299370563
  0.3244587192344000  0.6755225418827848  0.6109211353011972
  0.6755317270331105  0.3244483867327048  0.3889976052567121
  0.6755283325494759  0.3244499064001545  0.1109111805402279
  0.3244388907751770  0.6755406162273658  0.8890185264647954
  0.5002287189097459  0.9999786561820727  0.0000042662940203
  0.9999870197267740  0.5002307147845073  0.9998715408953984
  0.5002268780655754  0.9999950701954177  0.4998811832314729
  0.9999748080897604  0.5002358393788455  0.5000114375641118
  0.8279774021269901  0.6162284728961964  0.2499222179078942
  0.1720491092667586  0.3837297160183439  0.7499260812081090
  0.3837521229733909  0.1720511955493080  0.2499224397774924
  0.6162473707373266  0.8279910610721330  0.7499264042792007
  0.4996902020265281  0.4996876945543391  0.9999466702133830
  0.4996916823094963  0.4996983468617984  0.4999500909114261
  0.8411055075146976  0.1591857291089482  0.2499076608304449
  0.1591639445586210  0.8411020253661121  0.7499163610349910
 
  0.00000000E+00  0.00000000E+00  0.00000000E+00
  0.00000000E+00  0.00000000E+00  0.00000000E+00
  0.00000000E+00  0.00000000E+00  0.00000000E+00
  0.00000000E+00  0.00000000E+00  0.00000000E+00
  0.00000000E+00  0.00000000E+00  0.00000000E+00
  0.00000000E+00  0.00000000E+00  0.00000000E+00
  0.00000000E+00  0.00000000E+00  0.00000000E+00
  0.00000000E+00  0.00000000E+00  0.00000000E+00
  0.00000000E+00  0.00000000E+00  0.00000000E+00
  0.00000000E+00  0.00000000E+00  0.00000000E+00
  0.00000000E+00  0.00000000E+00  0.00000000E+00
  0.00000000E+00  0.00000000E+00  0.00000000E+00
  0.00000000E+00  0.00000000E+00  0.00000000E+00
  0.00000000E+00  0.00000000E+00  0.00000000E+00
  0.00000000E+00  0.00000000E+00  0.00000000E+00
  0.00000000E+00  0.00000000E+00  0.00000000E+00
  0.00000000E+00  0.00000000E+00  0.00000000E+00
  0.00000000E+00  0.00000000E+00  0.00000000E+00
  0.00000000E+00  0.00000000E+00  0.00000000E+00
  0.00000000E+00  0.00000000E+00  0.00000000E+00
