Trisodium hexatitanate(IV)              
   1.00000000000000     
    14.8936764675519449   -0.0000145396487603   -0.0957418033239938
    -0.0000021476404450    3.7921970352991745   -0.0000010314553193
    -1.8061304110777558   -0.0000019291705979    9.3828060840738168
   Na   Ti   O 
     6    12    26
Direct
  0.4601252462697306  0.0000163798320908  0.1639422935116401
  0.5380045580252398  0.0000003806756281  0.8346967125780443
  0.9601236349509069  0.4999781682922955  0.1639422861077613
  0.0380041933163947  0.4999988235228561  0.8346980145317422
  0.4993021926340975  0.9999984813532102  0.5033256130468153
  0.9993029912694155  0.5000013136426876  0.5033239512067845
  0.1219520808695704  0.0000024361333043  0.0947348869872529
  0.8752470954974702  0.0000586609280607  0.9023370151096747
  0.6219543285896404  0.4999968276500451  0.0947357663528656
  0.3752460349682344  0.4999608851711529  0.9023354576090241
  0.1687185579045182  0.0000021533290519  0.4262985980893997
  0.8321128482600094  0.9999925734939622  0.5774420155866531
  0.6687204244432114  0.4999975530592614  0.4263001829467286
  0.3321127189105076  0.5000062170036537  0.5774419969338337
  0.2180942626460539  0.0000011578908792  0.7586716683801406
  0.7830044335638030  0.9999945029734670  0.2440440569308791
  0.7180963449075528  0.4999988466885774  0.7586702078583344
  0.2830043867085158  0.5000083494886784  0.2440470784717912
  0.2477312566959689  0.0000072828218623  0.2543960262387966
  0.7478270926629835  0.0000025005988250  0.7396335373943091
  0.7477324874801645  0.4999935757841546  0.2543962123353432
  0.2478256749083081  0.4999985964028681  0.7396318305957542
  0.0699843357723593  0.0000020708240308  0.2804649965316714
  0.9343600605397604 -0.0000005253088480  0.7135399684109256
  0.5699837199359168  0.4999941982474467  0.2804640768392934
  0.4343619074903652  0.5000010095120100  0.7135380939130406
  0.2960408703945588  0.0000021371748394  0.5759596351242667
  0.7032003205115508  0.9999959006091830  0.4232163385586538
  0.7960413328907892  0.4999982649039117  0.5759593555906902
  0.2032000331862389  0.5000037887939003  0.4232169745005395
  0.1168618147652265  0.0000011774443387  0.5900099681841390
  0.8827601801662973  0.9999973270272507  0.4106426480361876
  0.6168623668831374  0.4999982467479200  0.5900099731268298
  0.3827610179594667  0.5000035441093762  0.4106433519511333
  0.3472830891673324  0.0000094556420923  0.8811193901671844
  0.6510444116270939  0.9999965505679478  0.1137324299328806
  0.8472842309119359  0.4999876215025991  0.8811202102638080
  0.1510437992151458  0.5000033411686681  0.1137322505877620
  0.1549316637053130  0.0000016586490854  0.8999039898264510
  0.8476810880743945  0.9999663101039927  0.1077117577462643
  0.6549314581411336  0.4999987427009049  0.8999050963267801
  0.3476828086518551  0.5000297248177679  0.1077135077885057
  0.0037279501323999 -0.0000148311288132  0.0041751694939249
  0.5037286713954117  0.5000086191538224  0.0041753802955255
 
  0.00000000E+00  0.00000000E+00  0.00000000E+00
  0.00000000E+00  0.00000000E+00  0.00000000E+00
  0.00000000E+00  0.00000000E+00  0.00000000E+00
  0.00000000E+00  0.00000000E+00  0.00000000E+00
  0.00000000E+00  0.00000000E+00  0.00000000E+00
  0.00000000E+00  0.00000000E+00  0.00000000E+00
  0.00000000E+00  0.00000000E+00  0.00000000E+00
  0.00000000E+00  0.00000000E+00  0.00000000E+00
  0.00000000E+00  0.00000000E+00  0.00000000E+00
  0.00000000E+00  0.00000000E+00  0.00000000E+00
  0.00000000E+00  0.00000000E+00  0.00000000E+00
  0.00000000E+00  0.00000000E+00  0.00000000E+00
  0.00000000E+00  0.00000000E+00  0.00000000E+00
  0.00000000E+00  0.00000000E+00  0.00000000E+00
  0.00000000E+00  0.00000000E+00  0.00000000E+00
  0.00000000E+00  0.00000000E+00  0.00000000E+00
  0.00000000E+00  0.00000000E+00  0.00000000E+00
  0.00000000E+00  0.00000000E+00  0.00000000E+00
  0.00000000E+00  0.00000000E+00  0.00000000E+00
  0.00000000E+00  0.00000000E+00  0.00000000E+00
  0.00000000E+00  0.00000000E+00  0.00000000E+00
  0.00000000E+00  0.00000000E+00  0.00000000E+00
  0.00000000E+00  0.00000000E+00  0.00000000E+00
  0.00000000E+00  0.00000000E+00  0.00000000E+00
  0.00000000E+00  0.00000000E+00  0.00000000E+00
  0.00000000E+00  0.00000000E+00  0.00000000E+00
  0.00000000E+00  0.00000000E+00  0.00000000E+00
  0.00000000E+00  0.00000000E+00  0.00000000E+00
  0.00000000E+00  0.00000000E+00  0.00000000E+00
  0.00000000E+00  0.00000000E+00  0.00000000E+00
  0.00000000E+00  0.00000000E+00  0.00000000E+00
  0.00000000E+00  0.00000000E+00  0.00000000E+00
  0.00000000E+00  0.00000000E+00  0.00000000E+00
  0.00000000E+00  0.00000000E+00  0.00000000E+00
  0.00000000E+00  0.00000000E+00  0.00000000E+00
  0.00000000E+00  0.00000000E+00  0.00000000E+00
  0.00000000E+00  0.00000000E+00  0.00000000E+00
  0.00000000E+00  0.00000000E+00  0.00000000E+00
  0.00000000E+00  0.00000000E+00  0.00000000E+00
  0.00000000E+00  0.00000000E+00  0.00000000E+00
  0.00000000E+00  0.00000000E+00  0.00000000E+00
  0.00000000E+00  0.00000000E+00  0.00000000E+00
  0.00000000E+00  0.00000000E+00  0.00000000E+00
  0.00000000E+00  0.00000000E+00  0.00000000E+00
