Na4 Cr4 O8 F4                           
   1.00000000000000     
     5.2116988608004959    0.1745146879814862    0.0008569182257947
     0.1769427514327640    5.2583145265316782    0.0011658463353084
    -0.0005183851350902   -0.0003594057285893    7.5749977211163513
   Na   Cr   O    F 
     4     4     8     4
Direct
  0.9789582921738044  0.0237866430746895  0.2445772434354503
  0.0207853352466869  0.9764020276383933  0.7449472841012640
  0.4903532610816745  0.4655349370776459  0.7553922635568503
  0.5096724853082709  0.5344558735846850  0.2553978698953482
  0.4814661564429770  0.9808761593069668  0.0206062157811156
  0.0221408315943892  0.5147946384910296  0.9956678849294344
  0.5184933961266011  0.0190531691520831  0.5206129847277546
  0.9778765967830313  0.4852162865524971  0.4956412057619825
  0.2697781799138924  0.7165875947251171  0.9539399732492572
  0.2098543913218765  0.2182312583775534  0.9584647865743612
  0.7688624575265806  0.7624685812580231  0.0331619684378479
  0.7304107646939323  0.2833129915891454  0.4539119514252868
  0.7901170329474867  0.7816965694805135  0.4584039305352390
  0.2312572749891437  0.2377022988460934  0.5331851657025847
  0.5800897971024306  0.0174549786339535  0.7459484146440116
  0.4199063050420904  0.9824060643205453  0.2459781432015369
  0.7128266458192581  0.2756834292327310  0.0456290159068512
  0.2871165300625049  0.7244298351078886  0.5457030808350812
  0.0877669096294022  0.4859497347424780  0.2464071721047471
  0.9122673561939664  0.5139569288079532  0.7464234451940025
 
  0.00000000E+00  0.00000000E+00  0.00000000E+00
  0.00000000E+00  0.00000000E+00  0.00000000E+00
  0.00000000E+00  0.00000000E+00  0.00000000E+00
  0.00000000E+00  0.00000000E+00  0.00000000E+00
  0.00000000E+00  0.00000000E+00  0.00000000E+00
  0.00000000E+00  0.00000000E+00  0.00000000E+00
  0.00000000E+00  0.00000000E+00  0.00000000E+00
  0.00000000E+00  0.00000000E+00  0.00000000E+00
  0.00000000E+00  0.00000000E+00  0.00000000E+00
  0.00000000E+00  0.00000000E+00  0.00000000E+00
  0.00000000E+00  0.00000000E+00  0.00000000E+00
  0.00000000E+00  0.00000000E+00  0.00000000E+00
  0.00000000E+00  0.00000000E+00  0.00000000E+00
  0.00000000E+00  0.00000000E+00  0.00000000E+00
  0.00000000E+00  0.00000000E+00  0.00000000E+00
  0.00000000E+00  0.00000000E+00  0.00000000E+00
  0.00000000E+00  0.00000000E+00  0.00000000E+00
  0.00000000E+00  0.00000000E+00  0.00000000E+00
  0.00000000E+00  0.00000000E+00  0.00000000E+00
  0.00000000E+00  0.00000000E+00  0.00000000E+00
