Na4 Co4 O8 F4                           
    1.000000000000000     
     5.4259256987175668   -0.0120422971979429    0.0224277921128961
     0.0021650695651026    5.4782097651614947    0.0118052251280140
     0.1247478779241840    0.0019867648959547    7.2110473182823673
   Na   Co   O    F 
     4     4     8     4
Direct
  0.0087503321925685  0.0559562405366249  0.2429151120996935
  0.0036788573687123  0.9811418778246287  0.7534445630099315
  0.4916464265996028  0.4430539861170987  0.7490846408986626
  0.4922834316687512  0.5219428793771046  0.2583377987577036
  0.5031160350640915  0.9834608793309054  0.9983123498135273
  0.9883989044508505  0.5411693514768936  0.0005772540978647
  0.5320013242751934  0.0009440464493364  0.4936386350788473
  0.9872572440961097  0.4922435684866640  0.4955326585696603
  0.2955156029413842  0.7042976541011413  0.9652790219772861
  0.8035285210724946  0.7973364907006851  0.0384882179693962
  0.6997527881833148  0.2715381901406179  0.4649674227726717
  0.8074153964706978  0.7870440080157712  0.4651914519095913
  0.0644867321937935  0.4797860747006489  0.2643606271789135
  0.9272271896614093  0.5221002989194973  0.7309595754058752
  0.5608043409771943  0.0097344775741193  0.7649445467011758
  0.4280865427944400  0.9719635547365110  0.2330724792459786
  0.6981491499494727  0.3019878512058711  0.0381606687436338
  0.1865154454395224  0.2242302229836640  0.9617966805857329
  0.3147602145903625  0.7096513368212505  0.5404305973255197
  0.2066255200100268  0.2004170105009805  0.5405056978583347
 
  0.00000000E+00  0.00000000E+00  0.00000000E+00
  0.00000000E+00  0.00000000E+00  0.00000000E+00
  0.00000000E+00  0.00000000E+00  0.00000000E+00
  0.00000000E+00  0.00000000E+00  0.00000000E+00
  0.00000000E+00  0.00000000E+00  0.00000000E+00
  0.00000000E+00  0.00000000E+00  0.00000000E+00
  0.00000000E+00  0.00000000E+00  0.00000000E+00
  0.00000000E+00  0.00000000E+00  0.00000000E+00
  0.00000000E+00  0.00000000E+00  0.00000000E+00
  0.00000000E+00  0.00000000E+00  0.00000000E+00
  0.00000000E+00  0.00000000E+00  0.00000000E+00
  0.00000000E+00  0.00000000E+00  0.00000000E+00
  0.00000000E+00  0.00000000E+00  0.00000000E+00
  0.00000000E+00  0.00000000E+00  0.00000000E+00
  0.00000000E+00  0.00000000E+00  0.00000000E+00
  0.00000000E+00  0.00000000E+00  0.00000000E+00
  0.00000000E+00  0.00000000E+00  0.00000000E+00
  0.00000000E+00  0.00000000E+00  0.00000000E+00
  0.00000000E+00  0.00000000E+00  0.00000000E+00
  0.00000000E+00  0.00000000E+00  0.00000000E+00
