Na8 V8 O16 F8                           
   1.00000000000000     
     7.6676381849400155   -0.0000226435389197    0.0023082671499566
    -0.0000212706210358    7.5203008871048800    0.0000782781850765
     0.0057341384891616    0.0000776398147858    7.6657947687948997
   Na   V    O    F 
     8     8    16     8
Direct
  0.2627801653154709  0.2481385173004612  0.2627305609867227
  0.2526298404885599  0.2408340162290185  0.7366678575922815
  0.2627876561328765  0.7518735833136131  0.2627378876341726
  0.2526224311823350  0.7591682906817371  0.7366893119470886
  0.7387681621753838  0.2555438369453898  0.2528616143946918
  0.7459472614136262  0.2481450051401432  0.7454782027816540
  0.7387835756282983  0.7444720084913495  0.2528501997732937
  0.7459519282677889  0.7518609702031464  0.7454843646963760
  0.0021974251369266  0.0000533301652913  0.0118049293910287
  0.9981423687697544  0.0000227199950220  0.4810754167419893
  0.0104236733101554  0.5000338134428111  0.0015859903034357
  0.0001591496359432  0.5000227049484156  0.5024820118306310
  0.5047838932365346  0.0000129741005613  0.9989459681699914
  0.5006932340490692  0.9997831201239171  0.5003401394385734
  0.4797775668323764  0.5000115953733409  0.9991475080962131
  0.5018206005340766  0.4998844440030680  0.5005716900840844
  0.2361299132182498  0.0000160981163830  0.9969281413401688
  0.2467033230590633  0.9999762340414085  0.5003519583165260
  0.2519039035187736  0.5000335801281611  0.0004748485662742
  0.7630208093772494  0.0000336807559539  0.9970978255235442
  0.7542456806036569  0.9999781746366497  0.5009865322378454
  0.0003410594235442  0.2545922908955039  0.5040894263760218
  0.0003494110107475  0.7454277714289727  0.5040816216382963
  0.4995818698092512  0.2418536176547518  0.0004666737500153
  0.5007541424792232  0.2586826905685579  0.5002441410365340
  0.4996015096724339  0.7581656120080246  0.0004627039424993
  0.5007348319793117  0.7411911755368110  0.5002344958764543
  0.0004666418288593  0.0000329881569110  0.2525852052897384
  0.9989441299065182  0.5000139372056992  0.2388019293224316
  0.9984980607815584  0.5000285504953564  0.7649488712247233
  0.5038195313917307  0.4999940903547191  0.2371802340167039
  0.5056422987397758  0.4999924734330524  0.7636864575698544
  0.2512747212977535  0.5000047984793788  0.5001726418684512
  0.7507057712751363  0.5000114133203862  0.0024213947609340
  0.7503800584627975  0.5000160299836391  0.4991685826825244
  0.9939010285924577  0.2501768672202998  0.9974525207268919
  0.9938685118392089  0.7498944960962300  0.9974745576810995
  0.0008774153962185  0.0000224748537076  0.7497701888320252
  0.5002373430953058  0.0000006353713882  0.2475319334600135
  0.4997491011320049 -0.0000006111992547  0.7519334600982150
 
  0.00000000E+00  0.00000000E+00  0.00000000E+00
  0.00000000E+00  0.00000000E+00  0.00000000E+00
  0.00000000E+00  0.00000000E+00  0.00000000E+00
  0.00000000E+00  0.00000000E+00  0.00000000E+00
  0.00000000E+00  0.00000000E+00  0.00000000E+00
  0.00000000E+00  0.00000000E+00  0.00000000E+00
  0.00000000E+00  0.00000000E+00  0.00000000E+00
  0.00000000E+00  0.00000000E+00  0.00000000E+00
  0.00000000E+00  0.00000000E+00  0.00000000E+00
  0.00000000E+00  0.00000000E+00  0.00000000E+00
  0.00000000E+00  0.00000000E+00  0.00000000E+00
  0.00000000E+00  0.00000000E+00  0.00000000E+00
  0.00000000E+00  0.00000000E+00  0.00000000E+00
  0.00000000E+00  0.00000000E+00  0.00000000E+00
  0.00000000E+00  0.00000000E+00  0.00000000E+00
  0.00000000E+00  0.00000000E+00  0.00000000E+00
  0.00000000E+00  0.00000000E+00  0.00000000E+00
  0.00000000E+00  0.00000000E+00  0.00000000E+00
  0.00000000E+00  0.00000000E+00  0.00000000E+00
  0.00000000E+00  0.00000000E+00  0.00000000E+00
  0.00000000E+00  0.00000000E+00  0.00000000E+00
  0.00000000E+00  0.00000000E+00  0.00000000E+00
  0.00000000E+00  0.00000000E+00  0.00000000E+00
  0.00000000E+00  0.00000000E+00  0.00000000E+00
  0.00000000E+00  0.00000000E+00  0.00000000E+00
  0.00000000E+00  0.00000000E+00  0.00000000E+00
  0.00000000E+00  0.00000000E+00  0.00000000E+00
  0.00000000E+00  0.00000000E+00  0.00000000E+00
  0.00000000E+00  0.00000000E+00  0.00000000E+00
  0.00000000E+00  0.00000000E+00  0.00000000E+00
  0.00000000E+00  0.00000000E+00  0.00000000E+00
  0.00000000E+00  0.00000000E+00  0.00000000E+00
  0.00000000E+00  0.00000000E+00  0.00000000E+00
  0.00000000E+00  0.00000000E+00  0.00000000E+00
  0.00000000E+00  0.00000000E+00  0.00000000E+00
  0.00000000E+00  0.00000000E+00  0.00000000E+00
  0.00000000E+00  0.00000000E+00  0.00000000E+00
  0.00000000E+00  0.00000000E+00  0.00000000E+00
  0.00000000E+00  0.00000000E+00  0.00000000E+00
  0.00000000E+00  0.00000000E+00  0.00000000E+00
