Ti4 O4 F8                               
   1.00000000000000     
     5.2526308168025517    0.0644081617696997    0.0042431134729316
     0.0634660270556834    5.4015497180158780   -0.0018071125357770
     0.0045893773216440   -0.0129710215073966    7.4390127511893862
   Ti   O    F 
     4     4     8
Direct
  0.5144044317692943  0.9912711987662828  0.0152511809602926
  0.9888414315299888  0.5203294498839871  0.9902086715033321
  0.4771435559867568  0.0065219688899326  0.4891213910773715
  0.0024472558735880  0.4824541080919187  0.5162868506216547
  0.9153871406630968  0.5138237746202141  0.7507705653574746
  0.4162026995139131  0.9866067475589481  0.2485976270887598
  0.7987033031131242  0.7955118311254339  0.0418087028382117
  0.2081175031126948  0.2094258210157006  0.5422503480296553
  0.0795701934414294  0.4853290308936343  0.2498164855232444
  0.5797486078930659  0.0083134805637321  0.7480281408902034
  0.7114665820916598  0.2932000777911369  0.0420391535589295
  0.2987325922556189  0.7110017223425289  0.9537728580526986
  0.2204858136482707  0.2213606719233555  0.9582648057359293
  0.2933926819469430  0.7039285466730771  0.5400403553710190
  0.7064329302710943  0.2862615706957630  0.4547585795054245
  0.7889232768894682  0.7846599991643473  0.4589842838857990
 
  0.00000000E+00  0.00000000E+00  0.00000000E+00
  0.00000000E+00  0.00000000E+00  0.00000000E+00
  0.00000000E+00  0.00000000E+00  0.00000000E+00
  0.00000000E+00  0.00000000E+00  0.00000000E+00
  0.00000000E+00  0.00000000E+00  0.00000000E+00
  0.00000000E+00  0.00000000E+00  0.00000000E+00
  0.00000000E+00  0.00000000E+00  0.00000000E+00
  0.00000000E+00  0.00000000E+00  0.00000000E+00
  0.00000000E+00  0.00000000E+00  0.00000000E+00
  0.00000000E+00  0.00000000E+00  0.00000000E+00
  0.00000000E+00  0.00000000E+00  0.00000000E+00
  0.00000000E+00  0.00000000E+00  0.00000000E+00
  0.00000000E+00  0.00000000E+00  0.00000000E+00
  0.00000000E+00  0.00000000E+00  0.00000000E+00
  0.00000000E+00  0.00000000E+00  0.00000000E+00
  0.00000000E+00  0.00000000E+00  0.00000000E+00
