Na4 Mn4 O8 F4                           
   1.00000000000000     
     5.4155094426013664    0.3063528004905258   -0.0147664476044537
     0.3081075021054295    5.4701815338606634    0.0095555692303876
    -0.0234950293315994    0.0137598100483249    7.2208730008089530
   Na   Mn   O    F 
     4     4     8     4
Direct
 -0.0090872297616061  0.0299182917683109  0.2534552437764308
  0.0079060785732949  0.9635443444370709  0.7509516107480739
  0.5085292655623717  0.4535330727919243  0.7485570245107074
  0.4958057943463920  0.5479209038108424  0.2485371410673713
  0.5078359982689529 -0.0040782111616440 -0.0020701878324645
  0.0003992366106850  0.4982302590725723  0.0021586810779106
  0.4936968349109534  0.0053197250283520  0.5038277790936284
 -0.0015266453529602  0.4993074007667618  0.4982318837891008
  0.2074603563153728  0.2017889501174962  0.9620161193582205
  0.7983681067159337  0.7970825630105469  0.0393016104845951
  0.7838770246355969  0.7942087793055775  0.4584993058588784
  0.1989182722958087  0.2006887320099568  0.5395374705033553
  0.0834633449901999  0.4867520801577786  0.2504682388329739
  0.9223021617987948  0.5158266153508261  0.7498486350126793
  0.5848208551385593  0.0322954657271328  0.7489086199781612
  0.4176793036877928  0.9738359870132047  0.2475545451798272
  0.6806549171054147  0.2741182385410335  0.0469034615771294
  0.3294577546039466  0.7231020484632963  0.9512223685537644
  0.3175850096047756  0.7288033406409964  0.5485059701580716
  0.6718535599497150  0.2778014131479628  0.4535844782715863
 
  0.00000000E+00  0.00000000E+00  0.00000000E+00
  0.00000000E+00  0.00000000E+00  0.00000000E+00
  0.00000000E+00  0.00000000E+00  0.00000000E+00
  0.00000000E+00  0.00000000E+00  0.00000000E+00
  0.00000000E+00  0.00000000E+00  0.00000000E+00
  0.00000000E+00  0.00000000E+00  0.00000000E+00
  0.00000000E+00  0.00000000E+00  0.00000000E+00
  0.00000000E+00  0.00000000E+00  0.00000000E+00
  0.00000000E+00  0.00000000E+00  0.00000000E+00
  0.00000000E+00  0.00000000E+00  0.00000000E+00
  0.00000000E+00  0.00000000E+00  0.00000000E+00
  0.00000000E+00  0.00000000E+00  0.00000000E+00
  0.00000000E+00  0.00000000E+00  0.00000000E+00
  0.00000000E+00  0.00000000E+00  0.00000000E+00
  0.00000000E+00  0.00000000E+00  0.00000000E+00
  0.00000000E+00  0.00000000E+00  0.00000000E+00
  0.00000000E+00  0.00000000E+00  0.00000000E+00
  0.00000000E+00  0.00000000E+00  0.00000000E+00
  0.00000000E+00  0.00000000E+00  0.00000000E+00
  0.00000000E+00  0.00000000E+00  0.00000000E+00
