Na4 Cr4 O8 F4                           
   1.00000000000000     
     5.5068268989923652   -0.0738571699125750    0.5261099693196805
    -2.8825930854102935    4.7748308836530935   -0.5447978287536603
     0.7039480738169637   -0.4083979016984711    9.1977528968519184
   Na   Cr   O    F 
     4     4     8     4
Direct
  0.9129790902356333  0.9554696521512265  0.9688777723518586
  0.0736094483373219  0.0533241516136962  0.5006464490692175
  0.3399163136565451  0.6344816153805372  0.2633744068423077
  0.6158286373418246  0.2887711870469896  0.7752335767766235
  0.4123251731580040  0.7213579977631804  0.6146189139560343
  0.7419573891783871  0.3516665559627115  0.4368982011274453
  0.5947271934538756  0.2794950737718040  0.1171631229033521
  0.2317765116718568  0.6204498960709470  0.9065545567706461
  0.4371878860270238  0.8687095655037443  0.0383492505055092
  0.8927690999700814  0.3673195323864650  0.9566504122861437
  0.4845030299717812  0.0353993849742845  0.5053142506370678
  0.0523591300594905  0.4760658201694928  0.5165502789531354
  0.6488764527524495  0.6031878267487648  0.4723866268189147
  0.3667183023828492  0.4819478090019945  0.7523891704676459
  0.8300991450268579  0.2953530684275060  0.2522898315223930
  0.2006060896856624  0.8134955297204145  0.7895140670046944
  0.3555329867103623  0.3088914577233517  0.9990525632692706
  0.7480649352857474  0.6739719859711322  0.1614393547138840
  0.2965287198242918  0.1816194170200560  0.2728243228954642
  0.7636344652699610  0.9890224725916935  0.6998728711283840
 
  0.00000000E+00  0.00000000E+00  0.00000000E+00
  0.00000000E+00  0.00000000E+00  0.00000000E+00
  0.00000000E+00  0.00000000E+00  0.00000000E+00
  0.00000000E+00  0.00000000E+00  0.00000000E+00
  0.00000000E+00  0.00000000E+00  0.00000000E+00
  0.00000000E+00  0.00000000E+00  0.00000000E+00
  0.00000000E+00  0.00000000E+00  0.00000000E+00
  0.00000000E+00  0.00000000E+00  0.00000000E+00
  0.00000000E+00  0.00000000E+00  0.00000000E+00
  0.00000000E+00  0.00000000E+00  0.00000000E+00
  0.00000000E+00  0.00000000E+00  0.00000000E+00
  0.00000000E+00  0.00000000E+00  0.00000000E+00
  0.00000000E+00  0.00000000E+00  0.00000000E+00
  0.00000000E+00  0.00000000E+00  0.00000000E+00
  0.00000000E+00  0.00000000E+00  0.00000000E+00
  0.00000000E+00  0.00000000E+00  0.00000000E+00
  0.00000000E+00  0.00000000E+00  0.00000000E+00
  0.00000000E+00  0.00000000E+00  0.00000000E+00
  0.00000000E+00  0.00000000E+00  0.00000000E+00
  0.00000000E+00  0.00000000E+00  0.00000000E+00
