Cr8 O8 F16                              
   1.00000000000000     
     7.5649919206871736   -0.0002270512886405    0.0049269502182933
    -0.0002897523610296    7.3168779917087807   -0.0000735344414600
     0.0053677645286849   -0.0000315950110890    7.4321367289060420
   Cr   O    F 
     8     8    16
Direct
  0.0002455738052337  0.0000170512863881  0.0002252941905190
 -0.0000165521803445 -0.0000058231667523  0.4995571204686558
  0.0011531309011902  0.5000168521555978 -0.0005359564491601
  0.9745840652590385  0.5000012146910210  0.5251697254233754
  0.5000222847489117 -0.0000089499339655 -0.0001513906369603
  0.4998270213206336  0.0000078658089965  0.4998394976135162
  0.5004934165171742  0.4999898544596241 -0.0000781558012938
  0.4995950999748546  0.5000097744584654  0.4994500403975222
  0.0000693748699993  0.0000052604676087  0.2647834818331185
  0.7581808673706787  0.5000079125377311  0.4944131611167085
  0.5005024778085277  0.2373534176325205  0.9994006222623982
  0.0001754549680667  0.0000044345243524  0.7339003382724532
  0.0043942678734793  0.5000080407657229  0.7446658514697859
  0.4999574602782609  0.2622257686098255  0.4996832249795534
  0.5005037688684756  0.7626291694023792  0.9993960974442322
  0.4999405120607853  0.7377823916464803  0.4996887012749369
  0.5001146063095743 -0.0000111546031119  0.7500349602193538
  0.2495816344262494 -0.0000012170546882  0.4991633497524344
  0.2473110349170433  0.4999761754158397  0.4966684137186190
  0.7511569547311779  0.5000000011053102 -0.0004378563258170
  0.0001316179574949  0.7497616016135626  0.0014399889533332
  0.0061478436430384  0.5000010294275055  0.2540359341545714
  0.5001991246044228 -0.0000142900006483  0.2493390342982316
  0.5001178709421589  0.4999852143402201  0.2493621480590651
  0.5018858256329740  0.4999859931278282  0.7496458621568513
  0.2500938441266565  0.0000033452783802 -0.0010686740041426
  0.2504947444209117  0.5000049825019808 -0.0004192719310012
  0.7503287992508684  0.0000035044717877 -0.0010936563345274
  0.7505279861567996 -0.0000123342171728  0.4997220405063981
  0.0001271034768989  0.2502756762872185  0.0014288917506054
  0.0010649306865008  0.2526829578767668  0.4963861942225808
  0.0010878542722863  0.7473142790832246  0.4963849869440623
 
  0.00000000E+00  0.00000000E+00  0.00000000E+00
  0.00000000E+00  0.00000000E+00  0.00000000E+00
  0.00000000E+00  0.00000000E+00  0.00000000E+00
  0.00000000E+00  0.00000000E+00  0.00000000E+00
  0.00000000E+00  0.00000000E+00  0.00000000E+00
  0.00000000E+00  0.00000000E+00  0.00000000E+00
  0.00000000E+00  0.00000000E+00  0.00000000E+00
  0.00000000E+00  0.00000000E+00  0.00000000E+00
  0.00000000E+00  0.00000000E+00  0.00000000E+00
  0.00000000E+00  0.00000000E+00  0.00000000E+00
  0.00000000E+00  0.00000000E+00  0.00000000E+00
  0.00000000E+00  0.00000000E+00  0.00000000E+00
  0.00000000E+00  0.00000000E+00  0.00000000E+00
  0.00000000E+00  0.00000000E+00  0.00000000E+00
  0.00000000E+00  0.00000000E+00  0.00000000E+00
  0.00000000E+00  0.00000000E+00  0.00000000E+00
  0.00000000E+00  0.00000000E+00  0.00000000E+00
  0.00000000E+00  0.00000000E+00  0.00000000E+00
  0.00000000E+00  0.00000000E+00  0.00000000E+00
  0.00000000E+00  0.00000000E+00  0.00000000E+00
  0.00000000E+00  0.00000000E+00  0.00000000E+00
  0.00000000E+00  0.00000000E+00  0.00000000E+00
  0.00000000E+00  0.00000000E+00  0.00000000E+00
  0.00000000E+00  0.00000000E+00  0.00000000E+00
  0.00000000E+00  0.00000000E+00  0.00000000E+00
  0.00000000E+00  0.00000000E+00  0.00000000E+00
  0.00000000E+00  0.00000000E+00  0.00000000E+00
  0.00000000E+00  0.00000000E+00  0.00000000E+00
  0.00000000E+00  0.00000000E+00  0.00000000E+00
  0.00000000E+00  0.00000000E+00  0.00000000E+00
  0.00000000E+00  0.00000000E+00  0.00000000E+00
  0.00000000E+00  0.00000000E+00  0.00000000E+00
