Manganese fluoride                      
   1.00000000000000     
     4.8737998008999996    0.0000000000000000    0.0000000000000000
     0.0000000000000000    4.8737998008999996    0.0000000000000000
     0.0000000000000000    0.0000000000000000    3.3106999397000001
   Mn   F 
     2     4
Direct
  0.0000000000000000  0.0000000000000000  0.0000000000000000
  0.5000000000000000  0.5000000000000000  0.5000000000000000
  0.3052999969999988  0.3052999969999988  0.0000000000000000
  0.6947000030000012  0.6947000030000012  0.0000000000000000
  0.1947000030000012  0.8052999969999988  0.5000000000000000
  0.8052999969999988  0.1947000030000012  0.5000000000000000
 
  0.00000000E+00  0.00000000E+00  0.00000000E+00
  0.00000000E+00  0.00000000E+00  0.00000000E+00
  0.00000000E+00  0.00000000E+00  0.00000000E+00
  0.00000000E+00  0.00000000E+00  0.00000000E+00
  0.00000000E+00  0.00000000E+00  0.00000000E+00
  0.00000000E+00  0.00000000E+00  0.00000000E+00
