Ni8 O8 F16                              
   1.00000000000000     
     7.4721147811134552    0.0005576018152253    0.0000112452899252
     0.0006082566840003    7.5615395689638198   -0.0061652226788687
     0.0000076429788869   -0.0019082849761520    7.4689694098117032
   Ni   O    F 
     8     8    16
Direct
  0.9998643499406299  0.9999851225175433  0.9999942756285876
  0.9986373899884171  0.0000001266486933  0.5000738957241211
  0.0008266225912195  0.5000085313966522  0.9999886337680692
  0.0017882001130829  0.5000046917132437  0.4999931988722608
  0.5000882236072073  0.9999964272407880  0.0000080897961894
  0.5011730023950207  0.9999855059239167  0.5001518359051147
  0.5007116952935888  0.5000155491944156  0.9999845978345760
  0.4979916336175805  0.5000016132226861  0.4999933672449401
  0.2500450915515415  0.4999842712137763  0.4999661618238704
  0.0028233115495695  0.5001800131959371  0.2507385328801561
  0.0028399373936097  0.4998269251689607  0.7492205118455573
  0.4973216963424889  0.5002237075042402  0.2510145648426843
  0.4973080034326145  0.4998119455817829  0.7489437385570810
  0.2499217372969582  0.0000052685406970  0.9999956325520998
  0.7499434303405934  0.0000090700171995  0.9999913589921334
  0.7498051772493994  0.9999785615693710  0.5000147846328531
  0.9927947531982966  0.9989338007347968  0.2586227772717393
  0.5066345159084520  0.0009503940439686  0.7415420805305430
  0.2498128019091368  0.9999828372262130  0.4999905027640708
  0.7504876162417702  0.5000387097238175  0.9999736919410225
  0.7497657615543005  0.5000100149111191  0.4999836957866037
  0.0005592203449680  0.7530864200528171  0.0016719245430039
  0.4994204784417917  0.2470161388189638  0.9982639110181353
  0.9928097812789076  0.0010495111379356  0.7414218486567350
  0.5066486625716635  0.9990027384008044  0.2585474012220033
  0.2506494162061230  0.4999785897827422  0.9999631174929036
  0.0005563373365334  0.2469252063401655  0.9982844817803098
  0.0005123848853898  0.2413857605799734  0.5006438858164159
  0.0005363549125477  0.7585975764473503  0.4993301034154953
  0.4991501501806681  0.2412429698007870  0.5006428930391920
  0.4994356285731811  0.7530555992002803  0.0017033138234055
  0.4991366337527481  0.7587264021483620  0.4993411899981410
 
  0.00000000E+00  0.00000000E+00  0.00000000E+00
  0.00000000E+00  0.00000000E+00  0.00000000E+00
  0.00000000E+00  0.00000000E+00  0.00000000E+00
  0.00000000E+00  0.00000000E+00  0.00000000E+00
  0.00000000E+00  0.00000000E+00  0.00000000E+00
  0.00000000E+00  0.00000000E+00  0.00000000E+00
  0.00000000E+00  0.00000000E+00  0.00000000E+00
  0.00000000E+00  0.00000000E+00  0.00000000E+00
  0.00000000E+00  0.00000000E+00  0.00000000E+00
  0.00000000E+00  0.00000000E+00  0.00000000E+00
  0.00000000E+00  0.00000000E+00  0.00000000E+00
  0.00000000E+00  0.00000000E+00  0.00000000E+00
  0.00000000E+00  0.00000000E+00  0.00000000E+00
  0.00000000E+00  0.00000000E+00  0.00000000E+00
  0.00000000E+00  0.00000000E+00  0.00000000E+00
  0.00000000E+00  0.00000000E+00  0.00000000E+00
  0.00000000E+00  0.00000000E+00  0.00000000E+00
  0.00000000E+00  0.00000000E+00  0.00000000E+00
  0.00000000E+00  0.00000000E+00  0.00000000E+00
  0.00000000E+00  0.00000000E+00  0.00000000E+00
  0.00000000E+00  0.00000000E+00  0.00000000E+00
  0.00000000E+00  0.00000000E+00  0.00000000E+00
  0.00000000E+00  0.00000000E+00  0.00000000E+00
  0.00000000E+00  0.00000000E+00  0.00000000E+00
  0.00000000E+00  0.00000000E+00  0.00000000E+00
  0.00000000E+00  0.00000000E+00  0.00000000E+00
  0.00000000E+00  0.00000000E+00  0.00000000E+00
  0.00000000E+00  0.00000000E+00  0.00000000E+00
  0.00000000E+00  0.00000000E+00  0.00000000E+00
  0.00000000E+00  0.00000000E+00  0.00000000E+00
  0.00000000E+00  0.00000000E+00  0.00000000E+00
  0.00000000E+00  0.00000000E+00  0.00000000E+00
