Ni8 O8 F16                              
   1.00000000000000     
     7.0626994097992881   -0.3022073274141832    0.0143858191125260
    -0.2750835465559515    7.1188785630550360    0.0693090234455321
    -0.1621286464923976    0.1454794507664787    6.9510704178709970
   Ni   O    F 
     8     8    16
Direct
  0.0019077480539001  0.0013649186581774  0.0029842303824486
  0.0022031875010521  0.0007622572621196  0.4987986751496699
  0.9977171410005606  0.5042718685441699  0.0007269066109892
 -0.0001816541223592  0.4999895073883628  0.4982524208728465
  0.5005455461446666 -0.0082037291758863  0.0042619066742724
  0.5020960729655933 -0.0029519605076368  0.4983845239819708
  0.4914595564484451  0.4929426448643760  0.0043857129659362
  0.4953889913926349  0.4957822786734359  0.5025146562225677
  0.0738115993599523  0.0837959127300812  0.2591172187193825
  0.2329284291031808  0.4797765061536964  0.4035795002046499
  0.7574984225620314  0.5754058613836532  0.9551985961269075
  0.9362314017963531  0.9193222756006728  0.7409902972081227
  0.2358554498081910  0.4351104199150113  0.0616770715801403
  0.7487600050350844  0.9458448767305097  0.0491261959247364
  0.5189668748173356  0.2447751869799120  0.4453728525021491
  0.4823761853938386  0.7504147343673820  0.5548467526878206
  0.5982352044806714  0.0553416099836791  0.7414025256719033
  0.2475362391072530  0.0215013528752065  0.5849943391663074
  0.7659440364096394  0.5272819448640729  0.5889418915166651
  0.0766253255487358  0.7452459341472505  0.0562458201038559
  0.5593857092770190  0.2522405437386820  0.0973732908049857
  0.9025734814389729  0.4381653789163266  0.2675249394510084
  0.0925367696946223  0.5628521914237810  0.7306380583601334
  0.4012967630468910  0.9339201881351716  0.2587625286630709
  0.5597631408352974  0.5965791450273312  0.2505246768287719
  0.4367496317941734  0.3977884902543815  0.7532936028112139
  0.2565996159693190  0.0722259786618002  0.9406633529449443
  0.7567924009516998  0.9762308442035943  0.4034868423674522
  0.9270414640429948  0.2619268317448466  0.9434977913779338
 -0.0224618903111149  0.2593376155303695  0.5744699126282884
  0.0286432555972004  0.7406683554163010  0.4208020829544441
  0.4351738948561344  0.7402900355091597  0.9071608265344193
 
  0.00000000E+00  0.00000000E+00  0.00000000E+00
  0.00000000E+00  0.00000000E+00  0.00000000E+00
  0.00000000E+00  0.00000000E+00  0.00000000E+00
  0.00000000E+00  0.00000000E+00  0.00000000E+00
  0.00000000E+00  0.00000000E+00  0.00000000E+00
  0.00000000E+00  0.00000000E+00  0.00000000E+00
  0.00000000E+00  0.00000000E+00  0.00000000E+00
  0.00000000E+00  0.00000000E+00  0.00000000E+00
  0.00000000E+00  0.00000000E+00  0.00000000E+00
  0.00000000E+00  0.00000000E+00  0.00000000E+00
  0.00000000E+00  0.00000000E+00  0.00000000E+00
  0.00000000E+00  0.00000000E+00  0.00000000E+00
  0.00000000E+00  0.00000000E+00  0.00000000E+00
  0.00000000E+00  0.00000000E+00  0.00000000E+00
  0.00000000E+00  0.00000000E+00  0.00000000E+00
  0.00000000E+00  0.00000000E+00  0.00000000E+00
  0.00000000E+00  0.00000000E+00  0.00000000E+00
  0.00000000E+00  0.00000000E+00  0.00000000E+00
  0.00000000E+00  0.00000000E+00  0.00000000E+00
  0.00000000E+00  0.00000000E+00  0.00000000E+00
  0.00000000E+00  0.00000000E+00  0.00000000E+00
  0.00000000E+00  0.00000000E+00  0.00000000E+00
  0.00000000E+00  0.00000000E+00  0.00000000E+00
  0.00000000E+00  0.00000000E+00  0.00000000E+00
  0.00000000E+00  0.00000000E+00  0.00000000E+00
  0.00000000E+00  0.00000000E+00  0.00000000E+00
  0.00000000E+00  0.00000000E+00  0.00000000E+00
  0.00000000E+00  0.00000000E+00  0.00000000E+00
  0.00000000E+00  0.00000000E+00  0.00000000E+00
  0.00000000E+00  0.00000000E+00  0.00000000E+00
  0.00000000E+00  0.00000000E+00  0.00000000E+00
  0.00000000E+00  0.00000000E+00  0.00000000E+00
