Mn4 O4 F8                               
   1.00000000000000     
     4.8407254395372830   -0.0285948812664416   -0.0156209465383046
    -0.0282689520492779    5.0407249020968079   -0.0235743579487246
     0.0087596233720570   -0.0129131334345493    7.1944781162861267
   Mn   O    F 
     4     4     8
Direct
  0.4832695488712764  0.9883603969458563  0.0008663349329106
  0.0137654424572713  0.5117780914710189  0.0118867897502537
  0.5086413227247123  0.9941577571892438  0.5003315459569312
  0.9969897661901239  0.5079476890059099  0.4846311015978679
  0.3176857890353091  0.6804459290730760  0.9395553674909995
  0.8334752875760860  0.8299895993392067  0.4420781523170580
  0.1716125689086278  0.1774664715299529  0.5572039363110662
  0.1218710291372126  0.4599515332908027  0.2524561669847859
  0.6792811095516518  0.3091565615556460  0.0575513604611878
  0.1614153055895304  0.1905031104212538  0.9382957198688957
  0.8285905892071620  0.8130456809963248  0.0668437377486560
  0.3304043574130408  0.6801531043144384  0.5607336891255179
  0.6673731677048372  0.3227756316850069  0.4376498487847470
  0.8891268178925763  0.5322717657977423  0.7458910482124183
  0.6199063035463849  0.0425002045695585  0.7386280927547685
  0.3765915941941900  0.9594964728149545  0.2653971077019354
 
  0.00000000E+00  0.00000000E+00  0.00000000E+00
  0.00000000E+00  0.00000000E+00  0.00000000E+00
  0.00000000E+00  0.00000000E+00  0.00000000E+00
  0.00000000E+00  0.00000000E+00  0.00000000E+00
  0.00000000E+00  0.00000000E+00  0.00000000E+00
  0.00000000E+00  0.00000000E+00  0.00000000E+00
  0.00000000E+00  0.00000000E+00  0.00000000E+00
  0.00000000E+00  0.00000000E+00  0.00000000E+00
  0.00000000E+00  0.00000000E+00  0.00000000E+00
  0.00000000E+00  0.00000000E+00  0.00000000E+00
  0.00000000E+00  0.00000000E+00  0.00000000E+00
  0.00000000E+00  0.00000000E+00  0.00000000E+00
  0.00000000E+00  0.00000000E+00  0.00000000E+00
  0.00000000E+00  0.00000000E+00  0.00000000E+00
  0.00000000E+00  0.00000000E+00  0.00000000E+00
  0.00000000E+00  0.00000000E+00  0.00000000E+00
