Tetrasodium trioxocobaltate(II)         
   1.00000000000000     
     8.0518838840757141    0.0250123545901689   -0.0028882521455214
    -2.2135366926507007    5.7536375859732534    0.0134862242922617
     0.0224677431527491   -2.8252688469391716    4.9443995393058477
   Na   Co   O 
     8     2     6
Direct
  0.5991607451642531  0.6576569584535310  0.7673311333933365
  0.7855777037883954  0.8135601030007428  0.3949655101398835
  0.2865652629303143  0.8168405497413278  0.7275819230885310
  0.0994012264540436  0.6597219609050337  0.1981799219287126
  0.3814367712109770  0.4608720491415823  0.2286082833252842
  0.6966787455125002  0.2679234435658391  0.9427550916380868
  0.8811785900048076  0.4588203618454021  0.5394157493734626
  0.1964224717195089  0.2692996016084099  0.6328246275080492
  0.0008702284145616  0.0021026787734946  0.0072907254225109
  0.5026153383922058  0.0038525216927795  0.3018597432157321
  0.8582580870524775  0.6674821590917387  0.9805881531306592
  0.3588422049830104  0.6692212123284929  0.9941586639966519
  0.5444747281452770  0.9045227942393480  0.5560300111371661
  0.0436839406638578  0.9036196855429356  0.6535965366153282
  0.5901491289364728  0.3318325837219664  0.3277273692744188
  0.0898848546273381  0.3304713413473839  0.3089865618121850
 
  0.00000000E+00  0.00000000E+00  0.00000000E+00
  0.00000000E+00  0.00000000E+00  0.00000000E+00
  0.00000000E+00  0.00000000E+00  0.00000000E+00
  0.00000000E+00  0.00000000E+00  0.00000000E+00
  0.00000000E+00  0.00000000E+00  0.00000000E+00
  0.00000000E+00  0.00000000E+00  0.00000000E+00
  0.00000000E+00  0.00000000E+00  0.00000000E+00
  0.00000000E+00  0.00000000E+00  0.00000000E+00
  0.00000000E+00  0.00000000E+00  0.00000000E+00
  0.00000000E+00  0.00000000E+00  0.00000000E+00
  0.00000000E+00  0.00000000E+00  0.00000000E+00
  0.00000000E+00  0.00000000E+00  0.00000000E+00
  0.00000000E+00  0.00000000E+00  0.00000000E+00
  0.00000000E+00  0.00000000E+00  0.00000000E+00
  0.00000000E+00  0.00000000E+00  0.00000000E+00
  0.00000000E+00  0.00000000E+00  0.00000000E+00
