Cr2 O2 F4                               
   1.00000000000000     
    -2.3641636639594803   -4.1070103769337223   -0.0028761740354089
    -4.8143440271925835    0.0415448139202590   -0.0055516658657728
    -2.4593092491039990   -1.3038773016293115   -4.3271745572601867
   Cr   O    F 
     2     2     4
Direct
  0.9680063262041900  0.0111192269787102  0.9959912095566352
  0.5242277978787628  0.5073445155028778  0.4968933024690367
  0.6271613758679219  0.8717884526086328  0.2515133483980145
  0.7406704736762825  0.3816839640389532  0.7632102750445049
  0.2544480506826750  0.6174994680189628  0.2469732741000299
  0.3791518563231675  0.1174029343752872  0.7479505630091796
  0.1118784726403013  0.7508120831932964  0.7451993017859876
  0.8944556467267003  0.2423493552832730  0.2522687256366190
 
  0.00000000E+00  0.00000000E+00  0.00000000E+00
  0.00000000E+00  0.00000000E+00  0.00000000E+00
  0.00000000E+00  0.00000000E+00  0.00000000E+00
  0.00000000E+00  0.00000000E+00  0.00000000E+00
  0.00000000E+00  0.00000000E+00  0.00000000E+00
  0.00000000E+00  0.00000000E+00  0.00000000E+00
  0.00000000E+00  0.00000000E+00  0.00000000E+00
  0.00000000E+00  0.00000000E+00  0.00000000E+00
