Na4 Ni4 O8 F4                           
   1.00000000000000     
     5.4580311930853567    0.0207788929982599   -0.1919602226478258
    -2.7047412392941839    4.5562499601525541    0.0422313086510784
    -0.2961870418644571   -0.0918762093899924    9.1810740571013003
   Na   Ni   O    F 
     4     4     8     4
Direct
  0.0001232640202396 -0.0000152461842474  0.0000231154718003
  0.9999080032367874 -0.0000443408426537  0.4999526239135673
  0.2820535819284977  0.6341077887050970  0.2704233801183861
  0.7179244732501865  0.3658704058068148  0.7295824357070576
  0.3409111665283933  0.6745913955869972  0.6164863153635876
  0.6590450553938899  0.3255031714525462  0.3835010485554444
  0.6540796484310216  0.3266770426774713  0.1132449487269005
  0.3457925947227669  0.6731184110046887  0.8868018297763494
  0.5002428719483365  0.9999513198381619  0.0000867757617696
  0.4999928289388793  0.4998612740512177  0.9998396429014760
  0.4999217009425891  0.0003829634959151  0.5002074495659713
 -0.0000804410349755  0.4999701831127401  0.5000282402422124
  0.7950529518473161  0.6198948666904943  0.2532474887415168
  0.2049150142392863  0.3800523165979172  0.7467040681084587
  0.7885256973555911  0.1693435740528782  0.2542694752825738
  0.2114129333984344  0.8305782966035090  0.7458562977316681
  0.0001505910922323  0.4998848826560343  0.0000986897383765
  0.5000065071579196  0.5004534782878999  0.4997151488200438
  0.3057898006786473  0.1527882309899564  0.2498057857580158
  0.6942317559239676  0.8470299854165544  0.7501252397148104
 
  0.00000000E+00  0.00000000E+00  0.00000000E+00
  0.00000000E+00  0.00000000E+00  0.00000000E+00
  0.00000000E+00  0.00000000E+00  0.00000000E+00
  0.00000000E+00  0.00000000E+00  0.00000000E+00
  0.00000000E+00  0.00000000E+00  0.00000000E+00
  0.00000000E+00  0.00000000E+00  0.00000000E+00
  0.00000000E+00  0.00000000E+00  0.00000000E+00
  0.00000000E+00  0.00000000E+00  0.00000000E+00
  0.00000000E+00  0.00000000E+00  0.00000000E+00
  0.00000000E+00  0.00000000E+00  0.00000000E+00
  0.00000000E+00  0.00000000E+00  0.00000000E+00
  0.00000000E+00  0.00000000E+00  0.00000000E+00
  0.00000000E+00  0.00000000E+00  0.00000000E+00
  0.00000000E+00  0.00000000E+00  0.00000000E+00
  0.00000000E+00  0.00000000E+00  0.00000000E+00
  0.00000000E+00  0.00000000E+00  0.00000000E+00
  0.00000000E+00  0.00000000E+00  0.00000000E+00
  0.00000000E+00  0.00000000E+00  0.00000000E+00
  0.00000000E+00  0.00000000E+00  0.00000000E+00
  0.00000000E+00  0.00000000E+00  0.00000000E+00
