Manganese(IV) fluoride - alpha          
   1.00000000000000     
    12.5850060018720864    0.0001266286621968   -0.0000005268305468
    -0.0001741767660071   12.5855088799403934   -0.0000001083531381
    -0.0000002206591608   -0.0000000609075181    5.9463836471605012
   Mn   F 
    16    64
Direct
  0.1300290939928175  0.3697809257318241  0.4842918776822458
  0.8699958103860581  0.6302148125994833  0.5157840370497340
  0.3699958012067270  0.6302147645432399  0.9842158968127492
  0.6300290936873978  0.3697809566838259  0.0157081405228183
  0.3802091485191355  0.3800172254945338  0.7342220475116505
  0.6197811947033571  0.6199739346731761  0.2657148881522957
  0.1197812002635033  0.6199739120525649  0.2342855106219233
  0.8802091507318295  0.3800172373891542  0.7657775420210982
  0.6300290807826059  0.8697809263401837  0.9842918958234890
  0.3699958012972075  0.1302148056857675  0.0157840382084586
  0.8699958007587512  0.1302147735600911  0.4842159240825552
  0.1300291061013610  0.8697809609788578  0.5157081719854801
  0.8802091456603449  0.8800172291165680  0.2342220734944007
  0.1197811973310721  0.1199739340841717  0.7657148816868968
  0.6197811997495037  0.1199739195127734  0.7342855128329546
  0.3802091529842002  0.8800172427140538  0.2657775670322238
  0.1317335034999942  0.2236643223222501  0.5280250400956987
  0.8683978492845341  0.7763267518608430  0.4719164256316830
  0.3683977570889709  0.7763267129911213  0.0280833312734003
  0.6317335879112989  0.2236643394336824  0.9719751997018804
  0.5263432232590475  0.3816739884666802  0.7779791807221912
  0.4736838535981818  0.6182891158810193  0.2218945258549141
  0.9736838481611230  0.6182891571853091  0.2781055650641449
  0.0263432344283174  0.3816739532530491  0.7220207255438496
  0.6317335108681306  0.7236643183632125  0.0280250558017627
  0.3683978504258292  0.2763267379011651  0.9719164199869184
  0.8683977706682739  0.2763267247247967  0.5280833287550095
  0.1317336039274011  0.7236643448233693  0.4719751980196349
  0.0263432224960809  0.8816739875732580  0.2779792015304636
  0.9736838505054308  0.1182891146416338  0.7218945308104310
  0.4736838376118300  0.1182891445626524  0.7781055499419196
  0.5263432281525553  0.8816739472421062  0.2220207382660320
  0.1302037578591211  0.0170844400478813  0.5265215604238804
  0.8698017598495795  0.9828967957309800  0.4733651733564699
  0.3698017010957528  0.9828968199224946  0.0266345334275400
  0.6302038137723045  0.0170844060722359  0.9734787349543765
  0.7329264419962485  0.3802063186627436  0.7765198009631789
  0.2671015921207669  0.6198149873079188  0.2233773969603874
  0.7671015823822316  0.6198151281811874  0.2766226476784226
  0.2329264459262887  0.3802061945896043  0.7234801466172343
  0.6302037696867018  0.5170844371136454  0.0265215753815156
  0.3698017653858514  0.4828967866054867  0.9733651702837207
  0.8698017112172991  0.4828968288307749  0.5266345362529989
  0.1302038136337202  0.5170844071514082  0.4734787426125635
  0.2329264322145761  0.8802063271941378  0.2765198031248772
  0.7671015873376987  0.1198150052500822  0.7233773959321397
  0.2671015798683314  0.1198151302815091  0.7766226336033171
  0.7329264535005819  0.8802062075717956  0.2234801468734418
  0.0281179091627521  0.3616835188936349  0.2932999568335646
  0.9718866618249322  0.6382173873663461  0.7068604015925501
  0.4718866602226583  0.6382173766858514  0.7931395935262060
  0.5281179188642895  0.3616835220176071  0.2067000534133712
  0.3882298383365637  0.2781114357642025  0.5432148011670535
  0.6116783039361735  0.7218756958116543  0.4567386308564565
  0.1116783489872901  0.7218756963619555  0.0432618432344682
  0.8882298123299890  0.2781114510061045  0.9567847200192929
  0.5281179066499675  0.8616835193382570  0.7932999640737606
  0.4718866664762231  0.1382173768118662  0.2068603935821258
  0.9718866586276889  0.1382173776645885  0.2931395831207979
  0.0281179170859645  0.8616835146881314  0.7067000648787669
  0.8882298461457765  0.7781114526383988  0.0432148262063521
  0.1116782987750113  0.2218757014713617  0.9567386138544691
  0.6116783295737491  0.2218756839893388  0.5432618392331747
  0.3882297857794086  0.7781114352728125  0.4567847379779977
  0.2296144096482706  0.3631209509804805  0.2876054282484120
  0.7703478711513299  0.6370415042279944  0.7123401397075995
  0.2703478700569093  0.6370414294704432  0.7876597549834230
  0.7296144133211229  0.3631210032693204  0.2123946427000760
  0.3869041781334488  0.4796395766305395  0.5376364025320299
  0.6130135984046845  0.5203663315849880  0.4623598086210379
  0.1130135335415545  0.5203663218194734  0.0376405397119015
  0.8869042347459981  0.4796395809247684  0.9623632630798369
  0.7296144132933620  0.8631209461072586  0.7876054386239417
  0.2703478640167774  0.1370415011198958  0.2123401278534871
  0.7703478716302072  0.1370414460127591  0.2876597700647139
  0.2296144075866380  0.8631210142417416  0.7123946466706315
  0.8869041903200170  0.9796395792085590  0.0376364047335400
  0.1130135946122692  0.0203663321718608  0.9623598084982632
  0.6130135463281263  0.0203663124133087  0.5376405310421219
  0.3869042305409565  0.9796395771341579  0.4623632483915827
 
  0.00000000E+00  0.00000000E+00  0.00000000E+00
  0.00000000E+00  0.00000000E+00  0.00000000E+00
  0.00000000E+00  0.00000000E+00  0.00000000E+00
  0.00000000E+00  0.00000000E+00  0.00000000E+00
  0.00000000E+00  0.00000000E+00  0.00000000E+00
  0.00000000E+00  0.00000000E+00  0.00000000E+00
  0.00000000E+00  0.00000000E+00  0.00000000E+00
  0.00000000E+00  0.00000000E+00  0.00000000E+00
  0.00000000E+00  0.00000000E+00  0.00000000E+00
  0.00000000E+00  0.00000000E+00  0.00000000E+00
  0.00000000E+00  0.00000000E+00  0.00000000E+00
  0.00000000E+00  0.00000000E+00  0.00000000E+00
  0.00000000E+00  0.00000000E+00  0.00000000E+00
  0.00000000E+00  0.00000000E+00  0.00000000E+00
  0.00000000E+00  0.00000000E+00  0.00000000E+00
  0.00000000E+00  0.00000000E+00  0.00000000E+00
  0.00000000E+00  0.00000000E+00  0.00000000E+00
  0.00000000E+00  0.00000000E+00  0.00000000E+00
  0.00000000E+00  0.00000000E+00  0.00000000E+00
  0.00000000E+00  0.00000000E+00  0.00000000E+00
  0.00000000E+00  0.00000000E+00  0.00000000E+00
  0.00000000E+00  0.00000000E+00  0.00000000E+00
  0.00000000E+00  0.00000000E+00  0.00000000E+00
  0.00000000E+00  0.00000000E+00  0.00000000E+00
  0.00000000E+00  0.00000000E+00  0.00000000E+00
  0.00000000E+00  0.00000000E+00  0.00000000E+00
  0.00000000E+00  0.00000000E+00  0.00000000E+00
  0.00000000E+00  0.00000000E+00  0.00000000E+00
  0.00000000E+00  0.00000000E+00  0.00000000E+00
  0.00000000E+00  0.00000000E+00  0.00000000E+00
  0.00000000E+00  0.00000000E+00  0.00000000E+00
  0.00000000E+00  0.00000000E+00  0.00000000E+00
  0.00000000E+00  0.00000000E+00  0.00000000E+00
  0.00000000E+00  0.00000000E+00  0.00000000E+00
  0.00000000E+00  0.00000000E+00  0.00000000E+00
  0.00000000E+00  0.00000000E+00  0.00000000E+00
  0.00000000E+00  0.00000000E+00  0.00000000E+00
  0.00000000E+00  0.00000000E+00  0.00000000E+00
  0.00000000E+00  0.00000000E+00  0.00000000E+00
  0.00000000E+00  0.00000000E+00  0.00000000E+00
  0.00000000E+00  0.00000000E+00  0.00000000E+00
  0.00000000E+00  0.00000000E+00  0.00000000E+00
  0.00000000E+00  0.00000000E+00  0.00000000E+00
  0.00000000E+00  0.00000000E+00  0.00000000E+00
  0.00000000E+00  0.00000000E+00  0.00000000E+00
  0.00000000E+00  0.00000000E+00  0.00000000E+00
  0.00000000E+00  0.00000000E+00  0.00000000E+00
  0.00000000E+00  0.00000000E+00  0.00000000E+00
  0.00000000E+00  0.00000000E+00  0.00000000E+00
  0.00000000E+00  0.00000000E+00  0.00000000E+00
  0.00000000E+00  0.00000000E+00  0.00000000E+00
  0.00000000E+00  0.00000000E+00  0.00000000E+00
  0.00000000E+00  0.00000000E+00  0.00000000E+00
  0.00000000E+00  0.00000000E+00  0.00000000E+00
  0.00000000E+00  0.00000000E+00  0.00000000E+00
  0.00000000E+00  0.00000000E+00  0.00000000E+00
  0.00000000E+00  0.00000000E+00  0.00000000E+00
  0.00000000E+00  0.00000000E+00  0.00000000E+00
  0.00000000E+00  0.00000000E+00  0.00000000E+00
  0.00000000E+00  0.00000000E+00  0.00000000E+00
  0.00000000E+00  0.00000000E+00  0.00000000E+00
  0.00000000E+00  0.00000000E+00  0.00000000E+00
  0.00000000E+00  0.00000000E+00  0.00000000E+00
  0.00000000E+00  0.00000000E+00  0.00000000E+00
  0.00000000E+00  0.00000000E+00  0.00000000E+00
  0.00000000E+00  0.00000000E+00  0.00000000E+00
  0.00000000E+00  0.00000000E+00  0.00000000E+00
  0.00000000E+00  0.00000000E+00  0.00000000E+00
  0.00000000E+00  0.00000000E+00  0.00000000E+00
  0.00000000E+00  0.00000000E+00  0.00000000E+00
  0.00000000E+00  0.00000000E+00  0.00000000E+00
  0.00000000E+00  0.00000000E+00  0.00000000E+00
  0.00000000E+00  0.00000000E+00  0.00000000E+00
  0.00000000E+00  0.00000000E+00  0.00000000E+00
  0.00000000E+00  0.00000000E+00  0.00000000E+00
  0.00000000E+00  0.00000000E+00  0.00000000E+00
  0.00000000E+00  0.00000000E+00  0.00000000E+00
  0.00000000E+00  0.00000000E+00  0.00000000E+00
  0.00000000E+00  0.00000000E+00  0.00000000E+00
  0.00000000E+00  0.00000000E+00  0.00000000E+00
