Na4 Ti4 O8 F4                           
   1.00000000000000     
     5.3872005291389202    0.1176650761401237    0.0078568032076556
     0.1193064449529624    5.4699010743312648   -0.0111899988594535
     0.0129560042911984   -0.0175079798918521    7.6042400238502470
   Na   Ti   O    F 
     4     4     8     4
Direct
  0.0024509996471441  0.0135512337747901  0.2596827721860210
  0.0042426354054809  0.9804218212507834  0.7371073898104260
  0.4822896490364671  0.4540898471848914  0.7336653979604937
  0.5060766646645100  0.5483839410393486  0.2637982716708576
  0.5027708118986456 -0.0008856976433602  0.9987914818382426
  0.9932839014403293  0.4996742678161664  0.9865397662504011
  0.5135271473824871  0.0157937102368903  0.4922076707601963
  0.9761210690537528  0.4845290964254965  0.5085732083421647
  0.2082689807655647  0.2170946044605117  0.9742481115631412
  0.7975474628794768  0.7861333480417022  0.0383878576299700
  0.7174751860625720  0.2853156541882677  0.4518339541420811
  0.7891409821607508  0.7803343261237848  0.4670015256050298
  0.2175346902874669  0.2237415984078688  0.5299988382718885
  0.9137323289013226  0.5029049305988322  0.7544133010426725
  0.5670247303130800  0.0224670557656846  0.7557504178537947
  0.4302293071394130  0.9702910324221108  0.2471811466724962
  0.7077998697370000  0.2964971194278646  0.0561446377791052
  0.2959690530858177  0.7014474271423300  0.9508938682183250
  0.2835063237223330  0.7147019438221438  0.5447807346390208
  0.0910082064163855  0.5035127395138851  0.2489996477636719
 
  0.00000000E+00  0.00000000E+00  0.00000000E+00
  0.00000000E+00  0.00000000E+00  0.00000000E+00
  0.00000000E+00  0.00000000E+00  0.00000000E+00
  0.00000000E+00  0.00000000E+00  0.00000000E+00
  0.00000000E+00  0.00000000E+00  0.00000000E+00
  0.00000000E+00  0.00000000E+00  0.00000000E+00
  0.00000000E+00  0.00000000E+00  0.00000000E+00
  0.00000000E+00  0.00000000E+00  0.00000000E+00
  0.00000000E+00  0.00000000E+00  0.00000000E+00
  0.00000000E+00  0.00000000E+00  0.00000000E+00
  0.00000000E+00  0.00000000E+00  0.00000000E+00
  0.00000000E+00  0.00000000E+00  0.00000000E+00
  0.00000000E+00  0.00000000E+00  0.00000000E+00
  0.00000000E+00  0.00000000E+00  0.00000000E+00
  0.00000000E+00  0.00000000E+00  0.00000000E+00
  0.00000000E+00  0.00000000E+00  0.00000000E+00
  0.00000000E+00  0.00000000E+00  0.00000000E+00
  0.00000000E+00  0.00000000E+00  0.00000000E+00
  0.00000000E+00  0.00000000E+00  0.00000000E+00
  0.00000000E+00  0.00000000E+00  0.00000000E+00
