Ni8 O8 F16                              
   1.00000000000000     
     7.4558475978126735    0.0016014571107810   -0.0032843751651967
    -0.0002836128430728    7.5326370445455986   -0.0047641793167167
    -0.0031429238202442   -0.0066968028222992    7.5123139478287646
   Ni   O    F 
     8     8    16
Direct
 -0.0000287311622112 -0.0001411690305757  0.0005818153113038
  0.0000402874680036 -0.0000022994854784  0.5003854659487630
  0.0000114718259679  0.5000107954797481 -0.0007458435001674
 -0.0000261052054753  0.4999860368469179  0.4996635722658139
  0.4998487410023141 -0.0000026855884752 -0.0015947007668406
  0.5000988441850599  0.0003708808186919  0.5023304667389835
  0.5000264086420265  0.5000370942287660  0.0012219273839294
  0.4997350458666006  0.5004229180936062  0.4985524019973022
  0.5001563507250724 -0.0008787309731951  0.7449398281247862
  0.7506689628068355  0.5001523503752853  0.0006049725679824
  0.5000679440103405  0.4993459201242415  0.2569025531173757
  0.2483590503047838  0.0001123260568430 -0.0000614784725174
  0.2493427067767013  0.4998527577207383  0.0006890626188812
  0.7517355347526792  0.0005638558062622 -0.0004226785146009
 -0.0001232280787687  0.2511254503328421  0.4995223920188147
  0.0003185646913258  0.7488566201889791  0.5000353574735156
  0.9999716548102100 -0.0009845672923806  0.2505232009914909
  0.2548616291608703  0.0004793504480047  0.5067610056202481
  0.2561469065914018  0.4991259513758619  0.4935343893767354
  0.7435059893782623  0.5009103931513127  0.4936928885409793
 -0.0000378155237690  0.7457371903311798  0.0002382185183620
  0.4986298836851146  0.2506675421172800 -0.0004733978477013
  0.0001680321534913  0.0009580339776420  0.7506858139322637
 -0.0000334073543836  0.4999131970005601  0.2533749810432311
 -0.0000237153485569  0.5000996335088217  0.7454153260097914
  0.4999777872565839  0.9994752118773457  0.2562468120338658
  0.4998507447854289  0.5002282128660193  0.7421168990569438
  0.7451025748268260 -0.0003228670808258  0.5065009078751823
  0.0001392024786880  0.2542365691602298 -0.0008030918555282
  0.4994896521940287  0.2424168898806253  0.4994702742236658
  0.5014883359769764  0.7493070719056237  0.0010279045226074
  0.5005306963175572  0.7579400657775236  0.4990827536445367
 
  0.00000000E+00  0.00000000E+00  0.00000000E+00
  0.00000000E+00  0.00000000E+00  0.00000000E+00
  0.00000000E+00  0.00000000E+00  0.00000000E+00
  0.00000000E+00  0.00000000E+00  0.00000000E+00
  0.00000000E+00  0.00000000E+00  0.00000000E+00
  0.00000000E+00  0.00000000E+00  0.00000000E+00
  0.00000000E+00  0.00000000E+00  0.00000000E+00
  0.00000000E+00  0.00000000E+00  0.00000000E+00
  0.00000000E+00  0.00000000E+00  0.00000000E+00
  0.00000000E+00  0.00000000E+00  0.00000000E+00
  0.00000000E+00  0.00000000E+00  0.00000000E+00
  0.00000000E+00  0.00000000E+00  0.00000000E+00
  0.00000000E+00  0.00000000E+00  0.00000000E+00
  0.00000000E+00  0.00000000E+00  0.00000000E+00
  0.00000000E+00  0.00000000E+00  0.00000000E+00
  0.00000000E+00  0.00000000E+00  0.00000000E+00
  0.00000000E+00  0.00000000E+00  0.00000000E+00
  0.00000000E+00  0.00000000E+00  0.00000000E+00
  0.00000000E+00  0.00000000E+00  0.00000000E+00
  0.00000000E+00  0.00000000E+00  0.00000000E+00
  0.00000000E+00  0.00000000E+00  0.00000000E+00
  0.00000000E+00  0.00000000E+00  0.00000000E+00
  0.00000000E+00  0.00000000E+00  0.00000000E+00
  0.00000000E+00  0.00000000E+00  0.00000000E+00
  0.00000000E+00  0.00000000E+00  0.00000000E+00
  0.00000000E+00  0.00000000E+00  0.00000000E+00
  0.00000000E+00  0.00000000E+00  0.00000000E+00
  0.00000000E+00  0.00000000E+00  0.00000000E+00
  0.00000000E+00  0.00000000E+00  0.00000000E+00
  0.00000000E+00  0.00000000E+00  0.00000000E+00
  0.00000000E+00  0.00000000E+00  0.00000000E+00
  0.00000000E+00  0.00000000E+00  0.00000000E+00
