Na8 Ni8 O16 F8                          
   1.00000000000000     
     7.4587029338300619   -0.0201079980691410   -0.0988296961529950
     0.0623256232317485    7.2885854771362304   -0.0332215791092016
    -0.0534751118159361    0.0329288765767808    7.6723060971614681
   Na   Ni   O    F 
     8     8    16     8
Direct
  0.2501931858643301  0.2661258016251469  0.2460416352003812
  0.2499176145402636  0.2835283322596825  0.7494274323536029
  0.2220430082068365  0.7685466844949793  0.2342813297501106
  0.2655837889997922  0.7652381394021066  0.7248116276274538
  0.7781817034855826  0.2415195245731768  0.2624569925952657
  0.7421778799337652  0.2175669477186570  0.7493145726638150
  0.7364205800537241  0.7309328921751186  0.2629409918681190
  0.7454418389080899  0.7340054012129057  0.7715170239204734
  0.9974009295858229  0.9918622035164046  0.9999487551626299
  0.0229589836207731  0.0016357282279239  0.5118344524376774
  0.9981088511289428  0.5075911396787693  0.9958147532233959
  0.0088602465996900  0.5000603808998882  0.5203081063670779
  0.4946976378136155  0.9952772064211907  0.9986449259284844
  0.4998393459322383  0.0020611357945447  0.4931134302802901
  0.4982935095964260  0.4912493562953802 -0.0031181997365474
  0.5042450508284565  0.5011841111856381  0.4970567306353434
  0.2346138086734811  0.9390381384721853  0.9664441214698652
  0.2771917320658743  0.0577922208894435  0.5576140296067574
  0.2392086416471328  0.5647177671137051 -0.0029009543439019
  0.7537342454868414  0.0478360462378290  0.0310927736476638
  0.7630947733527360  0.4350522534885505  0.9694576637074903
  0.0270226821131110  0.2476913601947336  0.9554853886358976
  0.9563662541801466  0.2518772494945569  0.5495330817023403
  0.9400273476825323  0.7480993645527033  0.0531344006294187
  0.0529655948937193  0.7493775596230022  0.4784104857785452
  0.5738932390591620  0.2488836979421534  0.4813624054671108
  0.4308503538678576  0.7550397157292333  0.4631764294985425
  0.0296846918734342  0.5570615352606686  0.7683810549388861
  0.4576137293685081  0.0126116088688766  0.2600903328323981
  0.5177850095057764  0.9857760028652305  0.7342476242593319
  0.5117058150658491  0.4846314144689358  0.2562733764645324
  0.4986579730929809  0.5062346760174310  0.7382754751895395
  0.2544551791600021  0.4299373014465168  0.4913440406473641
  0.7487616946404261  0.9525793193857155  0.4570664796291041
  0.7568122876414173  0.5761039274712974  0.5153793960990868
  0.4098932562743130  0.2443313134760322  0.9912539083700198
  0.5686341818292704  0.7440711968456806  0.0149159613016130
  0.0449707243613001  0.0471331888319504  0.2573888778234963
  0.9437718885814091  0.9559257808368774  0.7493044026337321
  0.9939207404843555  0.4598123750051841  0.2488746837335858
 
  0.00000000E+00  0.00000000E+00  0.00000000E+00
  0.00000000E+00  0.00000000E+00  0.00000000E+00
  0.00000000E+00  0.00000000E+00  0.00000000E+00
  0.00000000E+00  0.00000000E+00  0.00000000E+00
  0.00000000E+00  0.00000000E+00  0.00000000E+00
  0.00000000E+00  0.00000000E+00  0.00000000E+00
  0.00000000E+00  0.00000000E+00  0.00000000E+00
  0.00000000E+00  0.00000000E+00  0.00000000E+00
  0.00000000E+00  0.00000000E+00  0.00000000E+00
  0.00000000E+00  0.00000000E+00  0.00000000E+00
  0.00000000E+00  0.00000000E+00  0.00000000E+00
  0.00000000E+00  0.00000000E+00  0.00000000E+00
  0.00000000E+00  0.00000000E+00  0.00000000E+00
  0.00000000E+00  0.00000000E+00  0.00000000E+00
  0.00000000E+00  0.00000000E+00  0.00000000E+00
  0.00000000E+00  0.00000000E+00  0.00000000E+00
  0.00000000E+00  0.00000000E+00  0.00000000E+00
  0.00000000E+00  0.00000000E+00  0.00000000E+00
  0.00000000E+00  0.00000000E+00  0.00000000E+00
  0.00000000E+00  0.00000000E+00  0.00000000E+00
  0.00000000E+00  0.00000000E+00  0.00000000E+00
  0.00000000E+00  0.00000000E+00  0.00000000E+00
  0.00000000E+00  0.00000000E+00  0.00000000E+00
  0.00000000E+00  0.00000000E+00  0.00000000E+00
  0.00000000E+00  0.00000000E+00  0.00000000E+00
  0.00000000E+00  0.00000000E+00  0.00000000E+00
  0.00000000E+00  0.00000000E+00  0.00000000E+00
  0.00000000E+00  0.00000000E+00  0.00000000E+00
  0.00000000E+00  0.00000000E+00  0.00000000E+00
  0.00000000E+00  0.00000000E+00  0.00000000E+00
  0.00000000E+00  0.00000000E+00  0.00000000E+00
  0.00000000E+00  0.00000000E+00  0.00000000E+00
  0.00000000E+00  0.00000000E+00  0.00000000E+00
  0.00000000E+00  0.00000000E+00  0.00000000E+00
  0.00000000E+00  0.00000000E+00  0.00000000E+00
  0.00000000E+00  0.00000000E+00  0.00000000E+00
  0.00000000E+00  0.00000000E+00  0.00000000E+00
  0.00000000E+00  0.00000000E+00  0.00000000E+00
  0.00000000E+00  0.00000000E+00  0.00000000E+00
  0.00000000E+00  0.00000000E+00  0.00000000E+00
