Mn4 O4 F8                               
   1.00000000000000     
     4.7727945393129767    0.0004629248548933    0.0044151682993659
     0.0036198982322836    5.0445761941545806   -0.0073909844626876
     0.0012578822025927    0.0044174136936154    7.1376689494196173
   Mn   O    F 
     4     4     8
Direct
  0.4986989115408719  0.0212635774942289  0.0028250485745044
  0.9986213942515503  0.4727747138498414  0.0011780318175020
  0.5272196171482572  0.0018950973011784  0.4991713822280444
  0.9758859285763047  0.5009253422928299  0.4990070109635287
  0.6797904709608734  0.3135676053449657  0.0655219643498865
  0.1827078754470304  0.1837439373619122  0.9334437519839226
  0.6734096454080959  0.3162527224224244  0.4410991470592825
  0.8263314627630147  0.8138887406174599  0.4372987393525981
  0.3138863582816675  0.6907675506329570  0.9447507706825135
  0.8154028608443434  0.8055315473231807  0.0544496288913864
  0.3144375064890545  0.6953168002573342  0.5603546611235862
  0.1849473153612442  0.1936621962743390  0.5573706679053809
  0.1225018713750908  0.4672401908314825  0.2502228544868711
  0.8730804005099978  0.5263866868352105  0.7510357246124675
  0.6321214246302060  0.0255407416584333  0.7512810673452605
  0.3809569564123901  0.9712425495022221  0.2509895486232649
 
  0.00000000E+00  0.00000000E+00  0.00000000E+00
  0.00000000E+00  0.00000000E+00  0.00000000E+00
  0.00000000E+00  0.00000000E+00  0.00000000E+00
  0.00000000E+00  0.00000000E+00  0.00000000E+00
  0.00000000E+00  0.00000000E+00  0.00000000E+00
  0.00000000E+00  0.00000000E+00  0.00000000E+00
  0.00000000E+00  0.00000000E+00  0.00000000E+00
  0.00000000E+00  0.00000000E+00  0.00000000E+00
  0.00000000E+00  0.00000000E+00  0.00000000E+00
  0.00000000E+00  0.00000000E+00  0.00000000E+00
  0.00000000E+00  0.00000000E+00  0.00000000E+00
  0.00000000E+00  0.00000000E+00  0.00000000E+00
  0.00000000E+00  0.00000000E+00  0.00000000E+00
  0.00000000E+00  0.00000000E+00  0.00000000E+00
  0.00000000E+00  0.00000000E+00  0.00000000E+00
  0.00000000E+00  0.00000000E+00  0.00000000E+00
