Na4 Fe4 O8 F4                           
   1.00000000000000     
     5.4887435265181015   -0.0771711061664744   -0.0001395856408834
    -2.8134541961112358    4.6329940159317182    0.0001117810429072
    -0.0002396672472573    0.0001027060052130    9.1528489527964219
   Na   Fe   O    F 
     4     4     8     4
Direct
  0.0111668471907542  0.0116346256245876  0.9391111113542420
  0.0111781023203231  0.0117291949836012  0.5610394726652091
  0.3032612191934475  0.6196578866449048  0.2500090794663247
  0.6515928316126307  0.3367940138700972  0.7500546845042922
  0.3329700376929911  0.6770284089501341  0.6069795098530570
  0.6808665144097492  0.3100113272410492  0.3920627361241569
  0.6809199356983306  0.3098324924294147  0.1078908121696645
  0.3331201596605869  0.6769164691727942  0.8929591466516252
  0.4379068836772802  0.0202927044706478  0.9878815194460711
  0.0339219451731328  0.4388356388171283  0.0068284786613760
  0.4379502940505662  0.0205121628788999  0.5121245579507686
  0.0338559306433860  0.4389650552592285  0.4931078656941185
  0.8659171113079136  0.5885749275478701  0.2499062480183813
  0.2318922860568420  0.3895307062338910  0.7499713757958149
  0.6093041872881634  0.8908453858178124  0.7499962342315019
  0.7052668095215852  0.0801153330607417  0.2500098207255663
  0.6097184999019791  0.5862399087335540  0.9973857742213731
  0.6097142154791633  0.5864518210754691  0.5025991749488594
  0.3442708265126730  0.2386732297154533  0.2500459584920263
  0.0752053626085094  0.7673587074727206  0.7500364390255564
 
  0.00000000E+00  0.00000000E+00  0.00000000E+00
  0.00000000E+00  0.00000000E+00  0.00000000E+00
  0.00000000E+00  0.00000000E+00  0.00000000E+00
  0.00000000E+00  0.00000000E+00  0.00000000E+00
  0.00000000E+00  0.00000000E+00  0.00000000E+00
  0.00000000E+00  0.00000000E+00  0.00000000E+00
  0.00000000E+00  0.00000000E+00  0.00000000E+00
  0.00000000E+00  0.00000000E+00  0.00000000E+00
  0.00000000E+00  0.00000000E+00  0.00000000E+00
  0.00000000E+00  0.00000000E+00  0.00000000E+00
  0.00000000E+00  0.00000000E+00  0.00000000E+00
  0.00000000E+00  0.00000000E+00  0.00000000E+00
  0.00000000E+00  0.00000000E+00  0.00000000E+00
  0.00000000E+00  0.00000000E+00  0.00000000E+00
  0.00000000E+00  0.00000000E+00  0.00000000E+00
  0.00000000E+00  0.00000000E+00  0.00000000E+00
  0.00000000E+00  0.00000000E+00  0.00000000E+00
  0.00000000E+00  0.00000000E+00  0.00000000E+00
  0.00000000E+00  0.00000000E+00  0.00000000E+00
  0.00000000E+00  0.00000000E+00  0.00000000E+00
