Ti8 O8 F16                              
   1.00000000000000     
     7.6518794876408300    0.0042174724783862    0.0015804915327637
     0.0032388130646616    7.7718560774570209   -0.0030568332856081
     0.0014492997014372   -0.0030785844739991    7.7094944772014262
   Ti   O    F 
     8     8    16
Direct
  0.0018221703914847  0.0025263173699130  0.0255213954185436
  0.0018924103458531  0.9962200646742829  0.5280121454976552
  0.9792389859549289  0.5022881775826136  0.9977191038006978
  0.9818842645913932  0.4970411519635718  0.4975782736374015
  0.5019767071666905  0.9999934542611726  0.0187320838319138
  0.5018007073260264  0.0198873788755449  0.4955803615757119
  0.4796559580554032  0.5009897212045615  0.9968834501066439
  0.4795114224385628  0.4957239447535358  0.4978927647070677
  0.0011981749697867  0.0008685736695284  0.2488675922463486
  0.0012417174255788  0.9993288858381675  0.7516847460622671
  0.5015845967705914  0.9993826159366890  0.2442001239434077
  0.2534952363537784  0.5003642387176654  0.9980605772611923
  0.2507392931305787  0.4999657086882010  0.4975720525987413
  0.7527253996457901  0.5010117310602524  0.9985771478352774
  0.7554827186831830  0.4991457077529091  0.4973500884908191
  0.5003036502191662  0.2450056602356625  0.5002411575593442
  0.0072028137473907  0.4989294704765754  0.2465787794524132
  0.0068532832951220  0.4994304300340104  0.7490167579298443
  0.5015726279290149  0.9963272664594029  0.7515389257384513
  0.5066862583283722  0.5046673855531552  0.2450724244852225
  0.5076990951213602  0.5042935377713249  0.7495930368767745
  0.2537442646526600  0.0017942393916570  0.9912268739994374
  0.2522157071721693  0.9906762447861013  0.5008835269032659
  0.7498990172272997  0.0014149325671724  0.9908250840814361
  0.7514800118993819  0.9911461044526604  0.5005486692752115
  0.0026330250518498  0.2510221510246353  0.9984345446329428
  0.0029774217723357  0.2451251088577422  0.4990938269141196
  0.0029064736448348  0.7525765780476661  0.9991799063549038
  0.0029849562184410  0.7487708985284343  0.4985275774921263
  0.5023009979354711  0.2471309286348102  0.9920682008602881
  0.5019618853193890  0.7538675488982278  0.9925412045209967
  0.5023287472161257  0.7530838419321668  0.5003975959095328
 
  0.00000000E+00  0.00000000E+00  0.00000000E+00
  0.00000000E+00  0.00000000E+00  0.00000000E+00
  0.00000000E+00  0.00000000E+00  0.00000000E+00
  0.00000000E+00  0.00000000E+00  0.00000000E+00
  0.00000000E+00  0.00000000E+00  0.00000000E+00
  0.00000000E+00  0.00000000E+00  0.00000000E+00
  0.00000000E+00  0.00000000E+00  0.00000000E+00
  0.00000000E+00  0.00000000E+00  0.00000000E+00
  0.00000000E+00  0.00000000E+00  0.00000000E+00
  0.00000000E+00  0.00000000E+00  0.00000000E+00
  0.00000000E+00  0.00000000E+00  0.00000000E+00
  0.00000000E+00  0.00000000E+00  0.00000000E+00
  0.00000000E+00  0.00000000E+00  0.00000000E+00
  0.00000000E+00  0.00000000E+00  0.00000000E+00
  0.00000000E+00  0.00000000E+00  0.00000000E+00
  0.00000000E+00  0.00000000E+00  0.00000000E+00
  0.00000000E+00  0.00000000E+00  0.00000000E+00
  0.00000000E+00  0.00000000E+00  0.00000000E+00
  0.00000000E+00  0.00000000E+00  0.00000000E+00
  0.00000000E+00  0.00000000E+00  0.00000000E+00
  0.00000000E+00  0.00000000E+00  0.00000000E+00
  0.00000000E+00  0.00000000E+00  0.00000000E+00
  0.00000000E+00  0.00000000E+00  0.00000000E+00
  0.00000000E+00  0.00000000E+00  0.00000000E+00
  0.00000000E+00  0.00000000E+00  0.00000000E+00
  0.00000000E+00  0.00000000E+00  0.00000000E+00
  0.00000000E+00  0.00000000E+00  0.00000000E+00
  0.00000000E+00  0.00000000E+00  0.00000000E+00
  0.00000000E+00  0.00000000E+00  0.00000000E+00
  0.00000000E+00  0.00000000E+00  0.00000000E+00
  0.00000000E+00  0.00000000E+00  0.00000000E+00
  0.00000000E+00  0.00000000E+00  0.00000000E+00
