Cr4 O4 F8                               
   1.00000000000000     
     4.8322615263899253    0.0015230210933192   -0.0237886959283816
    -0.0011066242046348    5.1034029993096484    0.0217249746596204
    -0.0330790705208051    0.0168637128776177    7.2582423799795910
   Cr   O    F 
     4     4     8
Direct
  0.5001181406588668  0.0000796996347097  0.9999435350591018
  0.0002802397988506  0.5002489277186111  0.9999765584235965
  0.4999592654273854 -0.0000725772679660  0.4999526695029967
 -0.0000661424113867  0.4999218207283850  0.5000197033961176
  0.6950311624885130  0.2789910981755689  0.0411647333416985
  0.3052273406594377  0.7208537625889699  0.9588841272275497
  0.7831785287369640  0.8006081352375072  0.4584759733077309
  0.2165222829710775  0.1993397931907558  0.5415341769317138
  0.1253148596032445  0.4781728695871955  0.2506822091319811
  0.8746576858880767  0.5219216039345084  0.7493877108656755
  0.6269860571758229  0.0221470378250955  0.7504174389326386
  0.3729737852599198  0.9779052717603921  0.2494432909673646
  0.1910940759410778  0.1980964145432634  0.9255186497772060
  0.8090708914830385  0.8018729450089861  0.0745254654718012
  0.3087068482075276  0.6975096779874195  0.5749257923307386
  0.6909449781115840  0.3024035193466049  0.4251479653320680
 
  0.00000000E+00  0.00000000E+00  0.00000000E+00
  0.00000000E+00  0.00000000E+00  0.00000000E+00
  0.00000000E+00  0.00000000E+00  0.00000000E+00
  0.00000000E+00  0.00000000E+00  0.00000000E+00
  0.00000000E+00  0.00000000E+00  0.00000000E+00
  0.00000000E+00  0.00000000E+00  0.00000000E+00
  0.00000000E+00  0.00000000E+00  0.00000000E+00
  0.00000000E+00  0.00000000E+00  0.00000000E+00
  0.00000000E+00  0.00000000E+00  0.00000000E+00
  0.00000000E+00  0.00000000E+00  0.00000000E+00
  0.00000000E+00  0.00000000E+00  0.00000000E+00
  0.00000000E+00  0.00000000E+00  0.00000000E+00
  0.00000000E+00  0.00000000E+00  0.00000000E+00
  0.00000000E+00  0.00000000E+00  0.00000000E+00
  0.00000000E+00  0.00000000E+00  0.00000000E+00
  0.00000000E+00  0.00000000E+00  0.00000000E+00
