Na8 V8 O16 F8                           
   1.00000000000000     
     7.6333622773473850   -0.0016474936124217   -0.0000013883896634
     0.0003350070783373    7.5368523178312659   -0.0000009717886251
    -0.0000016845712828   -0.0000010816342128    7.6923603548357100
   Na   V    O    F 
     8     8    16     8
Direct
  0.2458891334381168  0.2579980447640662  0.2458389972187924
  0.2458891976782622  0.2579990952836400  0.7541608392748174
  0.2511231058778776  0.7452766328442304  0.2432708253029373
  0.2511146633637003  0.7452753495836735  0.7567252134958634
  0.7542157468199261  0.2499461685606915  0.2551102692797433
  0.7542154877328427  0.2499456026564934  0.7448897322576075
  0.7463580905921771  0.7509794698166623  0.2533457648937479
  0.7463576877700447  0.7509792612405660  0.7466543778291207
  0.0043036370266524 -0.0000691386396881 -0.0000000579690598
  0.0027551440646147  0.9979052937658797  0.4999994668083075
  0.9810957958499548  0.5036118809856230 -0.0000000198687743
  0.0002567817006192  0.4969016423077962  0.4999995780321150
  0.5023876872793940  0.0098951402060374  0.0000000560677741
  0.5000791689241979  0.0042305234866242  0.5000002317269810
  0.5100468818925697  0.4848302428561216  0.0000008599327142
  0.4996595603661906  0.5041212015896643  0.5000014816242564
  0.2614842847695035  0.9935027406065402  0.9999998581194509
  0.2626006644855731  0.0018589632432959  0.5000008969372569
  0.7407820020543169  0.9918164408549932  0.0000005724647500
  0.7377669142974854  0.0018570338454505  0.4999998650432219
  0.7552964424402938  0.4991030767173028 -0.0000000001411616
  0.0028154190090765  0.2407660906893058  0.0000006499360521
  0.9997918148693102  0.2391173930725337  0.4999969523758439
  0.0045051333512112  0.7557377380136436  0.9999990466008672
  0.9996975361528194  0.7608454646541432  0.5000010668093801
  0.4986537984222888  0.2491160536195626  0.0000004174890582
  0.5004682865840930  0.2644111593561099  0.5000000730328746
  0.5005499001714486  0.7406693693206287  0.5000002645407366
  0.0010003299206195  0.5000964200985718  0.2608890177859290
  0.0010014045511292  0.5000938330330331  0.7391105105207675
  0.4982610543378157  0.5067082487148744  0.2376227701292229
  0.4982602619361450  0.5067077917768706  0.7623780930867377
  0.2438302830568501  0.4992142465833075  0.0000011458614061
  0.2492416128594438  0.5009097462398889  0.4999997240141679
  0.7508118080086098  0.5007391536930988  0.5000016485654866
  0.4948489034304914  0.7483573282047892  0.0000003951558759
  0.9997734651903507  0.0003473630347437  0.2501708734266980
  0.9997721136843745  0.0003510224109237  0.7498283711466046
  0.5015180279809233  0.9939238168845664  0.2495921518138767
  0.5015207680586730  0.9939230940237398  0.7504080193779750
 
  0.00000000E+00  0.00000000E+00  0.00000000E+00
  0.00000000E+00  0.00000000E+00  0.00000000E+00
  0.00000000E+00  0.00000000E+00  0.00000000E+00
  0.00000000E+00  0.00000000E+00  0.00000000E+00
  0.00000000E+00  0.00000000E+00  0.00000000E+00
  0.00000000E+00  0.00000000E+00  0.00000000E+00
  0.00000000E+00  0.00000000E+00  0.00000000E+00
  0.00000000E+00  0.00000000E+00  0.00000000E+00
  0.00000000E+00  0.00000000E+00  0.00000000E+00
  0.00000000E+00  0.00000000E+00  0.00000000E+00
  0.00000000E+00  0.00000000E+00  0.00000000E+00
  0.00000000E+00  0.00000000E+00  0.00000000E+00
  0.00000000E+00  0.00000000E+00  0.00000000E+00
  0.00000000E+00  0.00000000E+00  0.00000000E+00
  0.00000000E+00  0.00000000E+00  0.00000000E+00
  0.00000000E+00  0.00000000E+00  0.00000000E+00
  0.00000000E+00  0.00000000E+00  0.00000000E+00
  0.00000000E+00  0.00000000E+00  0.00000000E+00
  0.00000000E+00  0.00000000E+00  0.00000000E+00
  0.00000000E+00  0.00000000E+00  0.00000000E+00
  0.00000000E+00  0.00000000E+00  0.00000000E+00
  0.00000000E+00  0.00000000E+00  0.00000000E+00
  0.00000000E+00  0.00000000E+00  0.00000000E+00
  0.00000000E+00  0.00000000E+00  0.00000000E+00
  0.00000000E+00  0.00000000E+00  0.00000000E+00
  0.00000000E+00  0.00000000E+00  0.00000000E+00
  0.00000000E+00  0.00000000E+00  0.00000000E+00
  0.00000000E+00  0.00000000E+00  0.00000000E+00
  0.00000000E+00  0.00000000E+00  0.00000000E+00
  0.00000000E+00  0.00000000E+00  0.00000000E+00
  0.00000000E+00  0.00000000E+00  0.00000000E+00
  0.00000000E+00  0.00000000E+00  0.00000000E+00
  0.00000000E+00  0.00000000E+00  0.00000000E+00
  0.00000000E+00  0.00000000E+00  0.00000000E+00
  0.00000000E+00  0.00000000E+00  0.00000000E+00
  0.00000000E+00  0.00000000E+00  0.00000000E+00
  0.00000000E+00  0.00000000E+00  0.00000000E+00
  0.00000000E+00  0.00000000E+00  0.00000000E+00
  0.00000000E+00  0.00000000E+00  0.00000000E+00
  0.00000000E+00  0.00000000E+00  0.00000000E+00
