Cr4 O4 F8                               
   1.00000000000000     
     4.9668685879325052   -0.0561547377552131   -0.0498599605077673
    -0.0520631636816908    5.1637018137260089    0.0007520180219644
     0.1014555364751357   -0.0100664674356972    7.1261687046614020
   Cr   O    F 
     4     4     8
Direct
  0.5068347188935592  0.0288753834405678  0.0274194216088539
 -0.0002592487429629  0.5095923009533392  0.9965591515845960
  0.4935269710865041 -0.0001635907911235  0.4995816661289927
  0.9606270153224212  0.4808429836553696  0.5139536607784677
  0.9151861892533066  0.5333735176914673  0.7426289235076105
  0.3928369121983984  0.9720465815235710  0.2387665391841817
  0.6959003286631279  0.2936473054036170  0.0414852445116608
  0.7024623208642892  0.2945317524769436  0.4403118183909080
  0.1081146033171547  0.4788645009264673  0.2526345036893511
  0.6024751155809334  0.0144939942793533  0.7532249406553879
  0.3201956206742635  0.7082480755764291  0.9447741787927542
  0.2001150757412081  0.2036037819251624  0.9452758117560223
  0.8159166013400240  0.8181622160094557  0.0590674251841549
  0.3065566093973098  0.6815478757634358  0.5406245801619829
  0.8021586343344156  0.7957115869305839  0.4441897724159783
  0.1773525320760546  0.1866217342353681  0.5595023616490977
 
  0.00000000E+00  0.00000000E+00  0.00000000E+00
  0.00000000E+00  0.00000000E+00  0.00000000E+00
  0.00000000E+00  0.00000000E+00  0.00000000E+00
  0.00000000E+00  0.00000000E+00  0.00000000E+00
  0.00000000E+00  0.00000000E+00  0.00000000E+00
  0.00000000E+00  0.00000000E+00  0.00000000E+00
  0.00000000E+00  0.00000000E+00  0.00000000E+00
  0.00000000E+00  0.00000000E+00  0.00000000E+00
  0.00000000E+00  0.00000000E+00  0.00000000E+00
  0.00000000E+00  0.00000000E+00  0.00000000E+00
  0.00000000E+00  0.00000000E+00  0.00000000E+00
  0.00000000E+00  0.00000000E+00  0.00000000E+00
  0.00000000E+00  0.00000000E+00  0.00000000E+00
  0.00000000E+00  0.00000000E+00  0.00000000E+00
  0.00000000E+00  0.00000000E+00  0.00000000E+00
  0.00000000E+00  0.00000000E+00  0.00000000E+00
