Na8 Co8 O16 F8                          
   1.00000000000000     
     7.9292615799482249    0.0002868270313596    0.0032248369316483
     0.0083952043711358    7.5973288922428326   -0.0026169408761815
     0.0019954679045843   -0.0025573541805220    7.2588891887708531
   Na   Co   O    F 
     8     8    16     8
Direct
  0.2431510131077564  0.2380135846064677  0.2393386961832115
  0.2441150542045840  0.2381415692513975  0.7595347980495719
  0.2513553341670197  0.7542644248653392  0.2482980575356846
  0.2522714356367936  0.7534743331924062  0.7518725989114107
  0.7571093902965774  0.2455581639821651  0.2491176259839860
  0.7571321592660086  0.2456269436879098  0.7508997166232619
  0.7509764559998295  0.7472696425621295  0.2555364644204285
  0.7499339149676332  0.7478096567566693  0.7414148387523879
  0.9863865570520648  0.9792228881394512  0.9978169218090766
  0.9997132213429336  0.0019367227612483  0.4986977083806227
  0.0037038935687133  0.5099973968410334  0.0000951537674936
  0.0006025199040267  0.4881488131436372  0.5000380469442144
  0.5203482254356955  0.0007375065755962  0.9990011258912882
  0.5000728331261652  0.0017277218504884  0.4986540770330483
  0.4980925588541313  0.5000521613077652  0.0015517936296564
  0.4990641308668347  0.4998968461208025  0.5012690423453581
  0.2748173698611647  0.4987003360551317  0.0016096443515874
  0.7546513478738655  0.0067314875575652  0.9989973928089426
  0.7207478199975869  0.5016973852420769  0.0011879526622170
  0.9976478681636071  0.2538074367625050  0.4996946741374574
  0.0106248050073969  0.7521933272332806  0.9997122388632311
  0.0004546919600342  0.7487308413538284  0.4994624687199016
  0.5013200034177822  0.2664554001166593  0.5002873726743067
  0.4989024271954270  0.7353806096801773  0.5010165406834387
  0.9982924145943498  0.9985500928270911  0.2591868932666463
  0.9987892143217436  0.9982500329984165  0.7384823140790242
  0.9981569481119713  0.5070075228614925  0.2380373489225116
  0.9986202702731070  0.5069375507737016  0.7623738991173347
  0.5009932065307964  0.9996402664852079  0.2504419247549051
  0.5006863250547881  0.0002366474245078  0.7491427267941926
  0.4999421067086962  0.5016575142279106  0.2557673986750249
  0.4994024962499214  0.5008927011727552  0.7470939277788982
  0.2469223995053210  0.0078746730248584  0.9992821137957092
  0.2533528721447668  0.0031846961759500  0.4993223240521019
  0.2458532271160366  0.5024283838676058  0.5014795833795644
  0.7462668388657164  0.0004494287577113  0.4996864232065006
  0.7537004381209010  0.5054982978997006  0.5018025859680486
  0.0083119349234825  0.2502069605954823  0.9997988225566760
  0.4910995078459653  0.2472437677171027  0.0021515983326640
  0.4864147683588334  0.7543662635447742  0.0008451641584282
 
  0.00000000E+00  0.00000000E+00  0.00000000E+00
  0.00000000E+00  0.00000000E+00  0.00000000E+00
  0.00000000E+00  0.00000000E+00  0.00000000E+00
  0.00000000E+00  0.00000000E+00  0.00000000E+00
  0.00000000E+00  0.00000000E+00  0.00000000E+00
  0.00000000E+00  0.00000000E+00  0.00000000E+00
  0.00000000E+00  0.00000000E+00  0.00000000E+00
  0.00000000E+00  0.00000000E+00  0.00000000E+00
  0.00000000E+00  0.00000000E+00  0.00000000E+00
  0.00000000E+00  0.00000000E+00  0.00000000E+00
  0.00000000E+00  0.00000000E+00  0.00000000E+00
  0.00000000E+00  0.00000000E+00  0.00000000E+00
  0.00000000E+00  0.00000000E+00  0.00000000E+00
  0.00000000E+00  0.00000000E+00  0.00000000E+00
  0.00000000E+00  0.00000000E+00  0.00000000E+00
  0.00000000E+00  0.00000000E+00  0.00000000E+00
  0.00000000E+00  0.00000000E+00  0.00000000E+00
  0.00000000E+00  0.00000000E+00  0.00000000E+00
  0.00000000E+00  0.00000000E+00  0.00000000E+00
  0.00000000E+00  0.00000000E+00  0.00000000E+00
  0.00000000E+00  0.00000000E+00  0.00000000E+00
  0.00000000E+00  0.00000000E+00  0.00000000E+00
  0.00000000E+00  0.00000000E+00  0.00000000E+00
  0.00000000E+00  0.00000000E+00  0.00000000E+00
  0.00000000E+00  0.00000000E+00  0.00000000E+00
  0.00000000E+00  0.00000000E+00  0.00000000E+00
  0.00000000E+00  0.00000000E+00  0.00000000E+00
  0.00000000E+00  0.00000000E+00  0.00000000E+00
  0.00000000E+00  0.00000000E+00  0.00000000E+00
  0.00000000E+00  0.00000000E+00  0.00000000E+00
  0.00000000E+00  0.00000000E+00  0.00000000E+00
  0.00000000E+00  0.00000000E+00  0.00000000E+00
  0.00000000E+00  0.00000000E+00  0.00000000E+00
  0.00000000E+00  0.00000000E+00  0.00000000E+00
  0.00000000E+00  0.00000000E+00  0.00000000E+00
  0.00000000E+00  0.00000000E+00  0.00000000E+00
  0.00000000E+00  0.00000000E+00  0.00000000E+00
  0.00000000E+00  0.00000000E+00  0.00000000E+00
  0.00000000E+00  0.00000000E+00  0.00000000E+00
  0.00000000E+00  0.00000000E+00  0.00000000E+00
