Cr4 O4 F8                               
   1.00000000000000     
     4.8493161153376194    0.0704977474006592    0.0121542674402584
     0.0653017783266977    5.0964231375278271    0.0444957602991930
    -0.0106798984989476    0.0291204211645376    7.2290426845675366
   Cr   O    F 
     4     4     8
Direct
  0.5015095608254003  0.9981809709546959  0.9985749298595001
 -0.0003643954572774  0.4990104350241321  0.9974422089663521
  0.4958929028707882  0.0186958602224664  0.4994361105997571
  0.9865702493604208  0.4660077339155124  0.4965992510859304
  0.2028793572050152  0.2198122789684665  0.9583592749406217
  0.8033477652420996  0.7794944812867487  0.0435187788829368
  0.6888704751319418  0.3148814483809783  0.4432477701325676
  0.1893700608394293  0.2037633290765009  0.5672581911520709
  0.1255857001375937  0.4766275052499622  0.2521978099088850
  0.8723721751471474  0.5200573139863041  0.7487621640803424
  0.6253798192024824  0.0298117524085193  0.7489292708876666
  0.3808469313003920  0.9701788554799619  0.2503600759570997
  0.6981316627105243  0.2961212208141896  0.0710318195708791
  0.3065134151026428  0.6996116099976571  0.9288002103042302
  0.3054443883289379  0.6991588692455167  0.5512405015942279
  0.8176499320524619  0.8085863349883879  0.4442416320769468
 
  0.00000000E+00  0.00000000E+00  0.00000000E+00
  0.00000000E+00  0.00000000E+00  0.00000000E+00
  0.00000000E+00  0.00000000E+00  0.00000000E+00
  0.00000000E+00  0.00000000E+00  0.00000000E+00
  0.00000000E+00  0.00000000E+00  0.00000000E+00
  0.00000000E+00  0.00000000E+00  0.00000000E+00
  0.00000000E+00  0.00000000E+00  0.00000000E+00
  0.00000000E+00  0.00000000E+00  0.00000000E+00
  0.00000000E+00  0.00000000E+00  0.00000000E+00
  0.00000000E+00  0.00000000E+00  0.00000000E+00
  0.00000000E+00  0.00000000E+00  0.00000000E+00
  0.00000000E+00  0.00000000E+00  0.00000000E+00
  0.00000000E+00  0.00000000E+00  0.00000000E+00
  0.00000000E+00  0.00000000E+00  0.00000000E+00
  0.00000000E+00  0.00000000E+00  0.00000000E+00
  0.00000000E+00  0.00000000E+00  0.00000000E+00
