Chromium fluoride                       
   1.00000000000000     
     5.2577632723955299    0.0314732587012958    0.0475112136161552
     2.9543450629569250    4.3493363341666038    0.0478832849466506
     2.9359643004319453    1.5657742118848774    4.0690084362975796
   Cr   F 
     2     6
Direct
  0.0000360809068525  0.9999025091710152  0.0000552228851021
  0.4998693779895262  0.4999960821666818  0.5001120590848132
  0.8834564868780248  0.6165342348984311  0.2498767707380480
  0.1166737581079431  0.3832510461467251  0.7500467941419089
  0.2503236915439828  0.8833222139790138  0.6165685341442142
  0.7497976896379654  0.1171603421207479  0.3830437660325856
  0.6169070790443598  0.2495532509139480  0.8833303429243600
  0.3829358658913335  0.7502803506034326  0.1169665400489635
 
  0.00000000E+00  0.00000000E+00  0.00000000E+00
  0.00000000E+00  0.00000000E+00  0.00000000E+00
  0.00000000E+00  0.00000000E+00  0.00000000E+00
  0.00000000E+00  0.00000000E+00  0.00000000E+00
  0.00000000E+00  0.00000000E+00  0.00000000E+00
  0.00000000E+00  0.00000000E+00  0.00000000E+00
  0.00000000E+00  0.00000000E+00  0.00000000E+00
  0.00000000E+00  0.00000000E+00  0.00000000E+00
