Na4 Co4 O8 F4                           
   1.00000000000000     
     4.8979788295137254   -0.0027560794361592    0.0014370814466550
    -0.0027902126803499    4.9017388599671108   -0.0560436066558003
     0.0012734251088774    0.0779539431954651    8.5802335020331491
   Na   Co   O    F 
     4     4     8     4
Direct
  0.0002239622806446  0.0081963885643776  0.2506212033471484
  0.0001699515618656  0.9919442249031746  0.7497614736923114
  0.4999825464082322  0.4919972228452531  0.7494574717150757
  0.5001992859391963  0.5079504409508036  0.2506135668347695
  0.5003798864840839 -0.0001144869230204  0.0002440515537955
  0.0003006951782805  0.4999854345687659  0.0000896858153553
  0.4994249421994191  0.0000617560123325  0.5004824241021868
  0.9994478336459883  0.5000078751196538  0.4995703016311533
  0.6614273671157143  0.3221147146452752  0.0061228012864406
  0.3393743510751640  0.6777592244251990  0.9934487283908997
  0.1614573224517575  0.1777666726376095  0.9940330647369334
  0.8396000022247189  0.8224062830585535  0.0061891456645062
  0.3200736897025421  0.6625629167965214  0.5053091886348726
  0.6788601772088808  0.3373972185063882  0.4943951303757878
  0.8207782754426134  0.8378675927358613  0.4944827045970230
  0.1781081580042621  0.1620709031358893  0.5054376329048321
  0.0126540425482945  0.4964419261458363  0.2499475242304878
  0.9874687018878694  0.5033165108536890  0.7501099207771054
  0.5126133737512885  0.0038517900690258  0.7498302772500902
  0.4874554348891906  0.9964153909488169  0.2498537024592262
 
  0.00000000E+00  0.00000000E+00  0.00000000E+00
  0.00000000E+00  0.00000000E+00  0.00000000E+00
  0.00000000E+00  0.00000000E+00  0.00000000E+00
  0.00000000E+00  0.00000000E+00  0.00000000E+00
  0.00000000E+00  0.00000000E+00  0.00000000E+00
  0.00000000E+00  0.00000000E+00  0.00000000E+00
  0.00000000E+00  0.00000000E+00  0.00000000E+00
  0.00000000E+00  0.00000000E+00  0.00000000E+00
  0.00000000E+00  0.00000000E+00  0.00000000E+00
  0.00000000E+00  0.00000000E+00  0.00000000E+00
  0.00000000E+00  0.00000000E+00  0.00000000E+00
  0.00000000E+00  0.00000000E+00  0.00000000E+00
  0.00000000E+00  0.00000000E+00  0.00000000E+00
  0.00000000E+00  0.00000000E+00  0.00000000E+00
  0.00000000E+00  0.00000000E+00  0.00000000E+00
  0.00000000E+00  0.00000000E+00  0.00000000E+00
  0.00000000E+00  0.00000000E+00  0.00000000E+00
  0.00000000E+00  0.00000000E+00  0.00000000E+00
  0.00000000E+00  0.00000000E+00  0.00000000E+00
  0.00000000E+00  0.00000000E+00  0.00000000E+00
