Na4 Mn4 O8 F4                           
   1.00000000000000     
     5.1550171623505401    0.0903654740213122   -0.0222176849709473
     0.0894322199857116    5.2234010903043373   -0.0187145559219902
    -0.0269892222335708   -0.0295477199318650    7.4602432754740953
   Na   Mn   O    F 
     4     4     8     4
Direct
  0.9867391004546686  0.0417907913233048  0.2509562365596858
  0.0100344376409946  0.9684365403572521  0.7501524692596293
  0.4851158209836011  0.4484208922604099  0.7455372513372658
  0.5127695862692273  0.5411107597757540  0.2458004203496020
  0.4871137691449735  0.9858262291690978  0.0136189771733592
  0.0163973791043125  0.5140470906851496  0.9876929479713816
  0.5145471020195671  0.0134203812947703  0.4854741789818102
  0.9858436175685755  0.4866690943361351  0.5155312332052242
  0.9113976928886285  0.5209649183531034  0.7526485593381678
  0.4130657487652915  0.9828608243311243  0.2512860029660022
  0.3033079919104584  0.7023253750675558  0.9567925295762247
  0.2112292441427346  0.2104740967050637  0.9611250850216254
  0.7945058036909504  0.7900983136758348  0.0430818280247664
  0.7034235659096272  0.2978721954211253  0.4564949768397071
  0.7947973357494708  0.7936824860849633  0.4620532424299531
  0.2095639534607125  0.2120103202591108  0.5427306144907131
  0.0796096500891767  0.4824157266750356  0.2503170191266662
  0.5782387606345770  0.0136420925433113  0.7488063960766679
  0.7095597935111159  0.2861332640095748  0.0399901874419778
  0.2927396460613297  0.7077986076723519  0.5399098438295842
 
  0.00000000E+00  0.00000000E+00  0.00000000E+00
  0.00000000E+00  0.00000000E+00  0.00000000E+00
  0.00000000E+00  0.00000000E+00  0.00000000E+00
  0.00000000E+00  0.00000000E+00  0.00000000E+00
  0.00000000E+00  0.00000000E+00  0.00000000E+00
  0.00000000E+00  0.00000000E+00  0.00000000E+00
  0.00000000E+00  0.00000000E+00  0.00000000E+00
  0.00000000E+00  0.00000000E+00  0.00000000E+00
  0.00000000E+00  0.00000000E+00  0.00000000E+00
  0.00000000E+00  0.00000000E+00  0.00000000E+00
  0.00000000E+00  0.00000000E+00  0.00000000E+00
  0.00000000E+00  0.00000000E+00  0.00000000E+00
  0.00000000E+00  0.00000000E+00  0.00000000E+00
  0.00000000E+00  0.00000000E+00  0.00000000E+00
  0.00000000E+00  0.00000000E+00  0.00000000E+00
  0.00000000E+00  0.00000000E+00  0.00000000E+00
  0.00000000E+00  0.00000000E+00  0.00000000E+00
  0.00000000E+00  0.00000000E+00  0.00000000E+00
  0.00000000E+00  0.00000000E+00  0.00000000E+00
  0.00000000E+00  0.00000000E+00  0.00000000E+00
