Na8 Ni8 O16 F8                          
   1.00000000000000     
     8.1488530235544143    0.0000025161926600    0.0000004867399080
     0.0000025439219215    7.3318300428469874    0.0000001287863421
     0.0000005804753366    0.0000001344036929    7.3490785260624136
   Na   Ni   O    F 
     8     8    16     8
Direct
  0.2497390345863192  0.2500652505938896  0.2499909431417411
  0.2497391274916970  0.2500652648961991  0.7500091050291704
  0.2497391438043695  0.7499348804280920  0.2499908821993807
  0.2497392681893591  0.7499348619779101  0.7500091714264575
  0.7497951913598768  0.2500689804709436  0.2499909888206152
  0.7497951744134740  0.2500689891828039  0.7500089491960421
  0.7497952269169864  0.7499310201957888  0.2499909310962911
  0.7497951643295161  0.7499310160403421  0.7500090128300432
  0.0009782786733916 -0.0000000237327328  0.0000000438875563
  0.0009687042911766  0.0000000082147909  0.5000000597391937
  0.0009915516600076  0.4999999029391792  0.0000000369346654
  0.0009863087196366  0.4999999522535716  0.5000000734400856
  0.5009783100874957 -0.0000001011523348  0.0000000706867891
  0.5009742927242217 -0.0000000943714690  0.5000000060060550
  0.5009789009344006  0.4999996271238926  0.0000001421036125
  0.5009817719038684  0.4999996003778688  0.4999999967733207
 -0.0002550705155898  0.2501476364751750  0.0000000181404894
 -0.0002545408106300  0.2501634051877905  0.4999999523608723
 -0.0002550627796008  0.7498524464853975  0.0000000439149959
 -0.0002545760599904  0.7498366013246631  0.4999999833425093
  0.4997453942582108  0.2501156383703459 -0.0000001741320490
  0.4997458320000483  0.2501215504753142  0.5000000852181138
  0.4997453749543648  0.7498843229152838 -0.0000001627093181
  0.4997458276699940  0.7498782720034951  0.5000000776971348
  0.9996498368978003  0.0000000675463043  0.2499924208138520
  0.9996498347110958  0.0000000741029783  0.7500076600358460
  0.9996483340271968  0.5000001005779154  0.2500016609868531
  0.9996483377008986  0.5000001031882442  0.7499984080531368
  0.4996401179281530 -0.0000001486437095  0.2499715262538429
  0.4996401172495648 -0.0000001602593023  0.7500285082813933
  0.4996375024633433  0.5000003511401144  0.2499735953906476
  0.4996374963330847  0.5000003514397944  0.7500264670855994
  0.2498686824404305  0.0000000619972421  0.9999999593001233
  0.2498486829473483  0.0000001149314201  0.4999999254147666
  0.2498771845953337  0.5000000492014305  0.9999999497340230
  0.2498606790251143  0.4999999635834131  0.4999999275406635
  0.7498668012609468  0.0000000410043652  0.9999999312647802
  0.7498904338397007  0.0000000686372950  0.4999999429109240
  0.7498396521590212  0.4999999965058114  0.9999999374695296
  0.7498576776183700  0.4999999563704828  0.4999999423202585
 
  0.00000000E+00  0.00000000E+00  0.00000000E+00
  0.00000000E+00  0.00000000E+00  0.00000000E+00
  0.00000000E+00  0.00000000E+00  0.00000000E+00
  0.00000000E+00  0.00000000E+00  0.00000000E+00
  0.00000000E+00  0.00000000E+00  0.00000000E+00
  0.00000000E+00  0.00000000E+00  0.00000000E+00
  0.00000000E+00  0.00000000E+00  0.00000000E+00
  0.00000000E+00  0.00000000E+00  0.00000000E+00
  0.00000000E+00  0.00000000E+00  0.00000000E+00
  0.00000000E+00  0.00000000E+00  0.00000000E+00
  0.00000000E+00  0.00000000E+00  0.00000000E+00
  0.00000000E+00  0.00000000E+00  0.00000000E+00
  0.00000000E+00  0.00000000E+00  0.00000000E+00
  0.00000000E+00  0.00000000E+00  0.00000000E+00
  0.00000000E+00  0.00000000E+00  0.00000000E+00
  0.00000000E+00  0.00000000E+00  0.00000000E+00
  0.00000000E+00  0.00000000E+00  0.00000000E+00
  0.00000000E+00  0.00000000E+00  0.00000000E+00
  0.00000000E+00  0.00000000E+00  0.00000000E+00
  0.00000000E+00  0.00000000E+00  0.00000000E+00
  0.00000000E+00  0.00000000E+00  0.00000000E+00
  0.00000000E+00  0.00000000E+00  0.00000000E+00
  0.00000000E+00  0.00000000E+00  0.00000000E+00
  0.00000000E+00  0.00000000E+00  0.00000000E+00
  0.00000000E+00  0.00000000E+00  0.00000000E+00
  0.00000000E+00  0.00000000E+00  0.00000000E+00
  0.00000000E+00  0.00000000E+00  0.00000000E+00
  0.00000000E+00  0.00000000E+00  0.00000000E+00
  0.00000000E+00  0.00000000E+00  0.00000000E+00
  0.00000000E+00  0.00000000E+00  0.00000000E+00
  0.00000000E+00  0.00000000E+00  0.00000000E+00
  0.00000000E+00  0.00000000E+00  0.00000000E+00
  0.00000000E+00  0.00000000E+00  0.00000000E+00
  0.00000000E+00  0.00000000E+00  0.00000000E+00
  0.00000000E+00  0.00000000E+00  0.00000000E+00
  0.00000000E+00  0.00000000E+00  0.00000000E+00
  0.00000000E+00  0.00000000E+00  0.00000000E+00
  0.00000000E+00  0.00000000E+00  0.00000000E+00
  0.00000000E+00  0.00000000E+00  0.00000000E+00
  0.00000000E+00  0.00000000E+00  0.00000000E+00
