Ni4 O4 F8                               
   1.00000000000000     
     4.7892679909848495    0.0502485524888873    0.0272690894435955
     0.0439519219383266    5.0660073652091757   -0.0169795678952230
     0.0424484283086151   -0.0442175848017310    7.0097033219942464
   Ni   O    F 
     4     4     8
Direct
  0.5041078934167944  0.0001995366174609 -0.0000577562099554
  0.9914277164892177  0.5108198376132118  0.0027626331748189
  0.4926505398220520  0.0022936841581155  0.5018895883512443
  0.0032916609103198  0.4930341231888151  0.5010684290074471
  0.8213056055046057  0.8372700930545997  0.0697500888154624
  0.1566531768276500  0.1823806118780394  0.5692674304233677
  0.6429349720104466  0.0338432670461513  0.7572911649235829
  0.3595843355515198  0.9678296504489460  0.2429899048249554
  0.6567118592274138  0.3104922237294213  0.0618249795181378
  0.3413564112284459  0.6960596048291550  0.9391517731492258
  0.1880417602171483  0.1841122101232965  0.9269861339584834
  0.3086491054813142  0.6651227637804356  0.5669299662328845
  0.6983945035311021  0.3213671687225947  0.4323744521212317
  0.8317144844721569  0.8000274198110541  0.4276437331871041
  0.1416921589408708  0.4490733997977696  0.2640163837504223
  0.8614838163689351  0.5460744052009333  0.7361110947715656
 
  0.00000000E+00  0.00000000E+00  0.00000000E+00
  0.00000000E+00  0.00000000E+00  0.00000000E+00
  0.00000000E+00  0.00000000E+00  0.00000000E+00
  0.00000000E+00  0.00000000E+00  0.00000000E+00
  0.00000000E+00  0.00000000E+00  0.00000000E+00
  0.00000000E+00  0.00000000E+00  0.00000000E+00
  0.00000000E+00  0.00000000E+00  0.00000000E+00
  0.00000000E+00  0.00000000E+00  0.00000000E+00
  0.00000000E+00  0.00000000E+00  0.00000000E+00
  0.00000000E+00  0.00000000E+00  0.00000000E+00
  0.00000000E+00  0.00000000E+00  0.00000000E+00
  0.00000000E+00  0.00000000E+00  0.00000000E+00
  0.00000000E+00  0.00000000E+00  0.00000000E+00
  0.00000000E+00  0.00000000E+00  0.00000000E+00
  0.00000000E+00  0.00000000E+00  0.00000000E+00
  0.00000000E+00  0.00000000E+00  0.00000000E+00
