Na4 Ni4 O8 F4                           
   1.00000000000000     
     5.3829232124874062    0.0999828798689829    0.0227517550026886
     0.2187332880016155    5.4651415433557275    0.0609398646544125
     0.0231204533629344   -0.0057389217854152    6.9874939970580314
   Na   Ni   O    F 
     4     4     8     4
Direct
 -0.0034448655213085  0.0509755650072294  0.2328850424139621
  0.0376949491620541  0.9641918059766340  0.7523633022034156
  0.4737861827033703  0.4617582978817510  0.7555332920644763
  0.4922623818646355  0.5317880416398716  0.2428145240843125
  0.5049004174290668  0.9781519676037969 -0.0002803089638537
 -0.0052148875497944  0.5241698003206409  0.0046876327245955
  0.5159846714786755  0.9928476168245837  0.4962143059375738
  0.9825461060410037  0.5051079013640037  0.4916130260370765
  0.2718529851282117  0.7228673623823452  0.9688219249521740
  0.7819819185623129  0.7728339374240081  0.0841943087997912
  0.7088879457550725  0.2749373466685792  0.4800774527753012
  0.8018980245137485  0.7823566038591286  0.4233468274389330
  0.0897123362094795  0.4488604825206193  0.2486287343798042
  0.8856377895774313  0.5479499021227577  0.7481548009689268
  0.6169073440846654 -0.0348118914331298  0.7475062233513433
  0.4074335462394477  0.0122792318909293  0.2513352645619189
  0.7149492976112038  0.2793206715756731  0.0353443852293954
  0.2156090201406436  0.2325030204431207  0.9396190766011866
  0.2925385650925180  0.7210737973285959  0.5339465710893196
  0.2140762714775830  0.2308385385988628  0.5631936133503550
 
  0.00000000E+00  0.00000000E+00  0.00000000E+00
  0.00000000E+00  0.00000000E+00  0.00000000E+00
  0.00000000E+00  0.00000000E+00  0.00000000E+00
  0.00000000E+00  0.00000000E+00  0.00000000E+00
  0.00000000E+00  0.00000000E+00  0.00000000E+00
  0.00000000E+00  0.00000000E+00  0.00000000E+00
  0.00000000E+00  0.00000000E+00  0.00000000E+00
  0.00000000E+00  0.00000000E+00  0.00000000E+00
  0.00000000E+00  0.00000000E+00  0.00000000E+00
  0.00000000E+00  0.00000000E+00  0.00000000E+00
  0.00000000E+00  0.00000000E+00  0.00000000E+00
  0.00000000E+00  0.00000000E+00  0.00000000E+00
  0.00000000E+00  0.00000000E+00  0.00000000E+00
  0.00000000E+00  0.00000000E+00  0.00000000E+00
  0.00000000E+00  0.00000000E+00  0.00000000E+00
  0.00000000E+00  0.00000000E+00  0.00000000E+00
  0.00000000E+00  0.00000000E+00  0.00000000E+00
  0.00000000E+00  0.00000000E+00  0.00000000E+00
  0.00000000E+00  0.00000000E+00  0.00000000E+00
  0.00000000E+00  0.00000000E+00  0.00000000E+00
