Ni4 O4 F8                               
   1.00000000000000     
     4.7216043066857543   -0.0751663412217680   -0.0523468318997843
    -2.4661153823634296    4.1341966570613629   -0.0560347849329662
     0.1455900891895743    0.2989257252352638    9.3578264278628964
   Ni   O    F 
     4     4     8
Direct
  0.3457771599451099  0.6769234589536723  0.6139898781345031
  0.6614660343478078  0.3394610579113030  0.3919090339227794
  0.6599738073763064  0.3254843453287073  0.1093703897430191
  0.3048105113785147  0.6439339846179585  0.8904318388819238
  0.9880733635379498  0.6428469792976307  0.9982041199642757
  0.3912787531806220  0.3790280644594867  0.5215715972392698
  0.6109151348169478  0.6795722375074419  0.7578328693945988
  0.9524761260297456  0.3359837469277307  0.2345495801593771
  0.6280980994477999  0.9627764852968317  0.0010976567376674
  0.3411884242430979  0.3140558120747322  0.9971151878529754
  0.7081973156137509  0.0363196233987023  0.4971770885047381
  0.0515205892793995  0.6814513100365646  0.4903467145635386
  0.6809191046168027  0.6411593278092430  0.2555104060108623
  0.0100933479060343  0.3497194186678622  0.7613699682444052
  0.3538044814874005  0.0388210298542572  0.2447437947046664
  0.3114077467927105  0.9524631178578680  0.7347798759413851
 
  0.00000000E+00  0.00000000E+00  0.00000000E+00
  0.00000000E+00  0.00000000E+00  0.00000000E+00
  0.00000000E+00  0.00000000E+00  0.00000000E+00
  0.00000000E+00  0.00000000E+00  0.00000000E+00
  0.00000000E+00  0.00000000E+00  0.00000000E+00
  0.00000000E+00  0.00000000E+00  0.00000000E+00
  0.00000000E+00  0.00000000E+00  0.00000000E+00
  0.00000000E+00  0.00000000E+00  0.00000000E+00
  0.00000000E+00  0.00000000E+00  0.00000000E+00
  0.00000000E+00  0.00000000E+00  0.00000000E+00
  0.00000000E+00  0.00000000E+00  0.00000000E+00
  0.00000000E+00  0.00000000E+00  0.00000000E+00
  0.00000000E+00  0.00000000E+00  0.00000000E+00
  0.00000000E+00  0.00000000E+00  0.00000000E+00
  0.00000000E+00  0.00000000E+00  0.00000000E+00
  0.00000000E+00  0.00000000E+00  0.00000000E+00
