Na4 Ti4 O8 F4                           
   1.00000000000000     
     5.2517355806421024    0.0000002143222857    0.0000004704972827
     0.0000002287966926    5.3796906408238225   -0.0000003316948498
     0.0000006910317500   -0.0000004931766863    7.8845692845554591
   Na   Ti   O    F 
     4     4     8     4
Direct
  0.9719714159617113  0.0296347388335560  0.2499999992711406
  0.0279250811230799  0.9703028322777545  0.7500000444400801
  0.4719710089012707  0.4703653774093964  0.7500000707848260
  0.5279224281006721  0.5296982462815798  0.2499998241219808
  0.4999921478703883 -0.0000256134779602  0.0000148077736671
 -0.0000091005913984  0.5000253220085961 -0.0000148241475737
  0.4999924641259167 -0.0000254725838693  0.4999850933971642
 -0.0000094074230887  0.5000253022416802  0.5000148275605549
  0.7227458033328062  0.2760600164107371  0.0442445112655889
  0.2772894874874947  0.7238810775186696  0.9557441389913343
  0.2227459002161465  0.2239397964551200  0.9557553551175737
  0.7772897209892528  0.7761181332907379  0.0442558103614795
  0.2772897111829921  0.7238820679039251  0.5442557768710902
  0.7227457984900183  0.2760598684157404  0.4557554484429554
  0.7772889092032802  0.7761187197475251  0.4557443043707971
  0.2227461299508249  0.2239395823151716  0.5442445698437292
  0.0975011476132769  0.4828207849482907  0.2499999307482658
  0.9025493407111841  0.5171075984589720  0.7500002706801493
  0.5975024754591818  0.0171791216941001  0.7499999574132609
  0.4025495372949966  0.9828924998502629  0.2500000826919357
 
  0.00000000E+00  0.00000000E+00  0.00000000E+00
  0.00000000E+00  0.00000000E+00  0.00000000E+00
  0.00000000E+00  0.00000000E+00  0.00000000E+00
  0.00000000E+00  0.00000000E+00  0.00000000E+00
  0.00000000E+00  0.00000000E+00  0.00000000E+00
  0.00000000E+00  0.00000000E+00  0.00000000E+00
  0.00000000E+00  0.00000000E+00  0.00000000E+00
  0.00000000E+00  0.00000000E+00  0.00000000E+00
  0.00000000E+00  0.00000000E+00  0.00000000E+00
  0.00000000E+00  0.00000000E+00  0.00000000E+00
  0.00000000E+00  0.00000000E+00  0.00000000E+00
  0.00000000E+00  0.00000000E+00  0.00000000E+00
  0.00000000E+00  0.00000000E+00  0.00000000E+00
  0.00000000E+00  0.00000000E+00  0.00000000E+00
  0.00000000E+00  0.00000000E+00  0.00000000E+00
  0.00000000E+00  0.00000000E+00  0.00000000E+00
  0.00000000E+00  0.00000000E+00  0.00000000E+00
  0.00000000E+00  0.00000000E+00  0.00000000E+00
  0.00000000E+00  0.00000000E+00  0.00000000E+00
  0.00000000E+00  0.00000000E+00  0.00000000E+00
