Na4 Ni4 O8 F4                           
   1.00000000000000     
     5.4114618615188954   -0.1368486286137958   -0.0791585237512077
    -2.7716922399623445    4.7218478671814808   -0.1258098904197105
    -0.0577767608856479   -0.0202797863594362    8.9579876657563453
   Na   Ni   O    F 
     4     4     8     4
Direct
  0.9927470214578543  0.0122545824324548  0.9377932879418844
  0.0197548075112907  0.9919646698584940  0.5444292472305969
  0.3321183723170843  0.6447880617248127  0.2672202617661720
  0.6844959025125847  0.3391419733287149  0.7306217592185134
  0.3299386207611116  0.6615807306176358  0.6060408859620617
  0.6785995124795805  0.3180237006718169  0.3819254166608329
  0.6645125327262899  0.3447805278702696  0.1082870228674115
  0.3237645626456165  0.6771931901953050  0.9108301079595795
  0.3923096423108294  0.0143252611533244  0.0051657249624686
  0.9566471323026841  0.4053537458393695  0.9831488090924755
  0.5874148891493395  0.5974501346129353  0.0115498752729144
  0.4523269545088177  0.9975608637230806  0.4934058959808417
  0.9876468476473426  0.3715092959865068  0.4897618634628877
  0.8831816978638869  0.6171545907316429  0.2580747822566160
  0.2565932792652685  0.3840018548443959  0.7575051444066134
  0.7276570488690800  0.1226116694753211  0.2327466813934427
  0.6114738854466626  0.5568431899549214  0.5170957153181639
  0.3504894349610949  0.2500012033615668  0.2652469613098005
  0.6598307257192553  0.9186126528229080  0.7564590876206898
  0.1084971295443189  0.7748481007945311  0.7426914693160331
 
  0.00000000E+00  0.00000000E+00  0.00000000E+00
  0.00000000E+00  0.00000000E+00  0.00000000E+00
  0.00000000E+00  0.00000000E+00  0.00000000E+00
  0.00000000E+00  0.00000000E+00  0.00000000E+00
  0.00000000E+00  0.00000000E+00  0.00000000E+00
  0.00000000E+00  0.00000000E+00  0.00000000E+00
  0.00000000E+00  0.00000000E+00  0.00000000E+00
  0.00000000E+00  0.00000000E+00  0.00000000E+00
  0.00000000E+00  0.00000000E+00  0.00000000E+00
  0.00000000E+00  0.00000000E+00  0.00000000E+00
  0.00000000E+00  0.00000000E+00  0.00000000E+00
  0.00000000E+00  0.00000000E+00  0.00000000E+00
  0.00000000E+00  0.00000000E+00  0.00000000E+00
  0.00000000E+00  0.00000000E+00  0.00000000E+00
  0.00000000E+00  0.00000000E+00  0.00000000E+00
  0.00000000E+00  0.00000000E+00  0.00000000E+00
  0.00000000E+00  0.00000000E+00  0.00000000E+00
  0.00000000E+00  0.00000000E+00  0.00000000E+00
  0.00000000E+00  0.00000000E+00  0.00000000E+00
  0.00000000E+00  0.00000000E+00  0.00000000E+00
