Mn4 O4 F8                               
   1.00000000000000     
     5.0131212596975754    0.0172819975637108   -0.0000076746919790
    -0.0106071866955786    5.2855836644167651    0.0000130301288510
    -0.0000164961639171    0.0000278868701339    6.9015225258170041
   Mn   O    F 
     4     4     8
Direct
  0.4986946754592845  0.9979177689811839  0.0041746624934560
  0.9978704504162089  0.5009749442703934  0.9930981791347213
  0.4986680028010672  0.9978635552287480  0.4958271009453095
  0.9978600600049939  0.5009531392301934  0.5069061435731385
  0.1348974445835356  0.4754016763473252  0.2500007393176887
  0.8647958044249651  0.5312944023071926  0.7500005753440919
  0.6205916025455771  0.0186303153672756  0.7499956809096429
  0.3737280958093682  0.9772849494259367  0.2499947266334581
  0.7028464255406531  0.3153760407209859  0.0626372090534373
  0.2999890661097981  0.6821281438678486  0.9357080280194976
  0.1773031075734553  0.2080615731997591  0.9359595771527355
  0.8263157147337523  0.7943232937723919  0.0634190905513125
  0.2999896865750720  0.6820892314662486  0.5642905185696223
  0.7028345715894158  0.3153537089145583  0.4373710147297952
  0.8263217593689104  0.7943101577304377  0.4365724261757333
  0.1772935324639424  0.2080370991695285  0.5640443273963525
 
  0.00000000E+00  0.00000000E+00  0.00000000E+00
  0.00000000E+00  0.00000000E+00  0.00000000E+00
  0.00000000E+00  0.00000000E+00  0.00000000E+00
  0.00000000E+00  0.00000000E+00  0.00000000E+00
  0.00000000E+00  0.00000000E+00  0.00000000E+00
  0.00000000E+00  0.00000000E+00  0.00000000E+00
  0.00000000E+00  0.00000000E+00  0.00000000E+00
  0.00000000E+00  0.00000000E+00  0.00000000E+00
  0.00000000E+00  0.00000000E+00  0.00000000E+00
  0.00000000E+00  0.00000000E+00  0.00000000E+00
  0.00000000E+00  0.00000000E+00  0.00000000E+00
  0.00000000E+00  0.00000000E+00  0.00000000E+00
  0.00000000E+00  0.00000000E+00  0.00000000E+00
  0.00000000E+00  0.00000000E+00  0.00000000E+00
  0.00000000E+00  0.00000000E+00  0.00000000E+00
  0.00000000E+00  0.00000000E+00  0.00000000E+00
