Sodium manganate(III) - alpha           
   1.00000000000000     
     5.6111226429136156    0.0000000085181156   -0.0004101711799990
     0.0000000003060249    2.8873472180654587    0.0000000053372738
    -2.2401036279527817    0.0000000099814835    5.2918887183255645
   Mn   Na   O 
     2     2     4
Direct
  0.0000142796791707  0.0000000002940936  0.0000110647871026
  0.5000143175713418  0.5000000015753585  0.0000110462729026
  0.0000009598649839  0.4999999932456873  0.4999979618165042
  0.5000009625704749  0.0000000032078091  0.4999979593126511
  0.2899681723640413  0.0000000017913067  0.7942666475020772
  0.7100165620663859  0.9999999976886969  0.2057243305202476
  0.7899681625899078  0.4999999971241209  0.7942666420466367
  0.2100165832936938  0.5000000050729199  0.2057243477418709
 
  0.00000000E+00  0.00000000E+00  0.00000000E+00
  0.00000000E+00  0.00000000E+00  0.00000000E+00
  0.00000000E+00  0.00000000E+00  0.00000000E+00
  0.00000000E+00  0.00000000E+00  0.00000000E+00
  0.00000000E+00  0.00000000E+00  0.00000000E+00
  0.00000000E+00  0.00000000E+00  0.00000000E+00
  0.00000000E+00  0.00000000E+00  0.00000000E+00
  0.00000000E+00  0.00000000E+00  0.00000000E+00
