Na4 Ti4 O8 F4                           
   1.00000000000000     
     5.3367760492411511   -0.1048387717094430   -0.0152837394705758
    -0.1048347095904775    5.4309872403954502    0.0159650130488210
    -0.0220127283511689    0.0214907853152420    7.7479930149049343
   Na   Ti   O    F 
     4     4     8     4
Direct
  0.9864579039895022  0.0341706793134664  0.2525278742117251
  0.0188483356087421  0.9525020689197978  0.7522842584062824
  0.4859179309039348  0.4812385403229874  0.7530919712046409
  0.5154542274124404  0.5300335600676243  0.2510407506498245
  0.5228235579134434  0.9875885147450724  0.9862182102975352
  0.9912892662468928  0.5162962087756395  0.0192610866632130
  0.4882471027988465  0.0149609090162236  0.5171901111507892
  0.0182083549761278  0.4804704566242238  0.4877443475620065
  0.7115180055835877  0.2854617097226956  0.0338520904302113
  0.2784638379464577  0.7208731991261643  0.9599171452187985
  0.7852837214480201  0.7855688837079182  0.0481831132012953
  0.2793690742793248  0.7199479572418050  0.5343560860376706
  0.7144177147185661  0.2823119181252920  0.4590859797816216
  0.2121807948489860  0.2142899937232675  0.5486521724871287
  0.0847117499940138  0.4739489952778721  0.2495477797777786
  0.5876253332835041  0.0069484503509731  0.7489828271087755
  0.2101455874217863  0.2162535590006709  0.9512071672680471
  0.7817316419069702  0.7832518057689155  0.4511223397823391
  0.9135765638578738  0.5256814653605449  0.7474673895365064
  0.4137292948609865  0.9882011248088386  0.2482672992238104
 
  0.00000000E+00  0.00000000E+00  0.00000000E+00
  0.00000000E+00  0.00000000E+00  0.00000000E+00
  0.00000000E+00  0.00000000E+00  0.00000000E+00
  0.00000000E+00  0.00000000E+00  0.00000000E+00
  0.00000000E+00  0.00000000E+00  0.00000000E+00
  0.00000000E+00  0.00000000E+00  0.00000000E+00
  0.00000000E+00  0.00000000E+00  0.00000000E+00
  0.00000000E+00  0.00000000E+00  0.00000000E+00
  0.00000000E+00  0.00000000E+00  0.00000000E+00
  0.00000000E+00  0.00000000E+00  0.00000000E+00
  0.00000000E+00  0.00000000E+00  0.00000000E+00
  0.00000000E+00  0.00000000E+00  0.00000000E+00
  0.00000000E+00  0.00000000E+00  0.00000000E+00
  0.00000000E+00  0.00000000E+00  0.00000000E+00
  0.00000000E+00  0.00000000E+00  0.00000000E+00
  0.00000000E+00  0.00000000E+00  0.00000000E+00
  0.00000000E+00  0.00000000E+00  0.00000000E+00
  0.00000000E+00  0.00000000E+00  0.00000000E+00
  0.00000000E+00  0.00000000E+00  0.00000000E+00
  0.00000000E+00  0.00000000E+00  0.00000000E+00
