Tetrasodium pentaoxodiferrate(III)      
   1.00000000000000     
    11.7737665300797847    0.0000023961012954   -0.0695931966916182
     0.0000011104768870    5.6716305984300561    0.0000001298528939
    -2.3311656871469881   -0.0000003066068138    8.7530800124142552
   Na   Fe   O 
    16     8    20
Direct
  0.1231492691952951  0.8841982692339911  0.5182301214111860
  0.8768387352677962  0.1157335569859654  0.4817618580315326
  0.3768383619769580  0.3842663843180247  0.9817618044694711
  0.6231496609469005  0.6158009616547844  0.0182300086581222
  0.3656914909900948  0.1197958727772814  0.4959839042850760
  0.6343186705947588  0.8802234330797631  0.5040106239712543
  0.1343180196300651  0.6197768326956492  0.0040103111282050
  0.8656917353748028  0.3802040698575553  0.9959841707199999
  0.4632584740590744  0.9094795849469577  0.1650348443140359
  0.5367429726320765  0.0905164631793056  0.8349557815440818
  0.0367431023966844  0.4094891543129435  0.3349538180163023
  0.9632584033863125  0.5905171698825242  0.6650358908206044
  0.5309333147455817  0.4273158545526101  0.3381252753934447
  0.4690626430136859  0.5726857631260813  0.6618790040938123
  0.9690627581264977  0.9273147793528338  0.1618791606296028
  0.0309331988147790  0.0726837737579515  0.8381251124836524
  0.6990987212997837  0.1204129563141834  0.1566665466861394
  0.3008993656767345  0.8796075842856155  0.8433367065632780
  0.8008992951863974  0.6203923190024554  0.3433369337987102
  0.1990987456754993  0.3795867953440535  0.6566663330876494
  0.2036716631800530  0.1589216879006727  0.1601327243194604
  0.7963260332380457  0.8410692001884854  0.8398652040406773
  0.2963262265754310  0.6589305406982646  0.3398652522780949
  0.7036715227474843  0.3410784454623439  0.6601326733951467
  0.5557571514729744  0.2651182267471341  0.1092010802706511
  0.4442551063125464  0.7349867864128896  0.8908013271550033
  0.9442549362458266  0.7650133601151268  0.3908012541884176
  0.0557573295010343  0.2348811573160035  0.6092011346460424
  0.4474893456253923  0.7614760459355878  0.4170979372548729
  0.5525098785819935  0.2385477903643007  0.5829117244321225
  0.0525099077688438  0.2614523913942932  0.0829115774395106
  0.9474892324840596  0.7385236888097779  0.9170979584100110
  0.8243604614279292  0.3346086099406236  0.2420997343078994
  0.1756452541608837  0.6653722275857135  0.7579111736718502
  0.6756451282457832  0.8346278309284045  0.2579113417609591
  0.3243606375956603  0.1653911896316984  0.7420997249406938
  0.7384674781350782  0.0215136452072713  0.9787860891041120
  0.2615224865083476  0.9784411659071210  0.0212161874237253
  0.7615226252965002  0.5215584943963947  0.5212164780536028
  0.2384672180781280  0.4784864395118902  0.4787857176176900
  0.3013268160125335  0.4340571339146351  0.1863019351299116
  0.6986749083759278  0.5659378989511552  0.8136908735732789
  0.1986749058280495  0.9340617448136044  0.3136905902072371
  0.8013268076117370  0.0659427102060732  0.6863020962729038
 
  0.00000000E+00  0.00000000E+00  0.00000000E+00
  0.00000000E+00  0.00000000E+00  0.00000000E+00
  0.00000000E+00  0.00000000E+00  0.00000000E+00
  0.00000000E+00  0.00000000E+00  0.00000000E+00
  0.00000000E+00  0.00000000E+00  0.00000000E+00
  0.00000000E+00  0.00000000E+00  0.00000000E+00
  0.00000000E+00  0.00000000E+00  0.00000000E+00
  0.00000000E+00  0.00000000E+00  0.00000000E+00
  0.00000000E+00  0.00000000E+00  0.00000000E+00
  0.00000000E+00  0.00000000E+00  0.00000000E+00
  0.00000000E+00  0.00000000E+00  0.00000000E+00
  0.00000000E+00  0.00000000E+00  0.00000000E+00
  0.00000000E+00  0.00000000E+00  0.00000000E+00
  0.00000000E+00  0.00000000E+00  0.00000000E+00
  0.00000000E+00  0.00000000E+00  0.00000000E+00
  0.00000000E+00  0.00000000E+00  0.00000000E+00
  0.00000000E+00  0.00000000E+00  0.00000000E+00
  0.00000000E+00  0.00000000E+00  0.00000000E+00
  0.00000000E+00  0.00000000E+00  0.00000000E+00
  0.00000000E+00  0.00000000E+00  0.00000000E+00
  0.00000000E+00  0.00000000E+00  0.00000000E+00
  0.00000000E+00  0.00000000E+00  0.00000000E+00
  0.00000000E+00  0.00000000E+00  0.00000000E+00
  0.00000000E+00  0.00000000E+00  0.00000000E+00
  0.00000000E+00  0.00000000E+00  0.00000000E+00
  0.00000000E+00  0.00000000E+00  0.00000000E+00
  0.00000000E+00  0.00000000E+00  0.00000000E+00
  0.00000000E+00  0.00000000E+00  0.00000000E+00
  0.00000000E+00  0.00000000E+00  0.00000000E+00
  0.00000000E+00  0.00000000E+00  0.00000000E+00
  0.00000000E+00  0.00000000E+00  0.00000000E+00
  0.00000000E+00  0.00000000E+00  0.00000000E+00
  0.00000000E+00  0.00000000E+00  0.00000000E+00
  0.00000000E+00  0.00000000E+00  0.00000000E+00
  0.00000000E+00  0.00000000E+00  0.00000000E+00
  0.00000000E+00  0.00000000E+00  0.00000000E+00
  0.00000000E+00  0.00000000E+00  0.00000000E+00
  0.00000000E+00  0.00000000E+00  0.00000000E+00
  0.00000000E+00  0.00000000E+00  0.00000000E+00
  0.00000000E+00  0.00000000E+00  0.00000000E+00
  0.00000000E+00  0.00000000E+00  0.00000000E+00
  0.00000000E+00  0.00000000E+00  0.00000000E+00
  0.00000000E+00  0.00000000E+00  0.00000000E+00
  0.00000000E+00  0.00000000E+00  0.00000000E+00
