Cobalt(III) fluoride                    
   1.00000000000000     
     5.1592735398038458   -0.0466916609107272   -0.0415296014061099
     2.7786624973944543    4.3475227785396120   -0.0394800610999812
     2.7865892424696046    1.5088247786906444    4.0710173568941501
   Co   F 
     2     6
Direct
  0.9997925723854051  0.0000592805074024  0.0001797502659622
  0.4998365102281672  0.5002416109271940  0.4998925759923411
  0.8770592765774610  0.6230479861829783  0.2498506261732014
  0.1232992357346846  0.3765551365659349  0.7500346349215828
  0.2498635820806366  0.8766699132996256  0.6236855818911869
  0.7499966144675222  0.1233280753315845  0.3766629810946875
  0.6230954167512768  0.2501814165436008  0.8765365694898324
  0.3770568217748491  0.7499166106416892  0.1231573101712009
 
  0.00000000E+00  0.00000000E+00  0.00000000E+00
  0.00000000E+00  0.00000000E+00  0.00000000E+00
  0.00000000E+00  0.00000000E+00  0.00000000E+00
  0.00000000E+00  0.00000000E+00  0.00000000E+00
  0.00000000E+00  0.00000000E+00  0.00000000E+00
  0.00000000E+00  0.00000000E+00  0.00000000E+00
  0.00000000E+00  0.00000000E+00  0.00000000E+00
  0.00000000E+00  0.00000000E+00  0.00000000E+00
