V8 O8 F16                               
   1.00000000000000     
     7.5810112416627478   -0.0000004492487469    0.0012655352805305
    -0.0000029212518368    7.6858540417420658    0.0000015753677895
     0.0141403678022046    0.0000029847493014    7.4668677299542381
   V    O    F 
     8     8    16
Direct
  0.0254255382331554  0.0000002514542830  0.0033735248174946
  0.0029259133806969  0.0000002721018966  0.4814205085822091
  0.9964335878161013  0.4999998713749828  0.9738754077754861
  0.9968619990034729  0.4999997552489677  0.4746714325601416
  0.5029253808995210  0.0000003592975891  0.9814221631949150
  0.5254274019757538 -0.0000000071057592  0.5033727043181424
  0.4968582025995963  0.5000000624311390  0.9746707773902876
  0.4964321519576180  0.4999999886438481  0.4738812035817149
  0.0119586960071627  0.0000013140475728  0.2579464169791297
  0.5119580449609247  0.0000003458962123  0.7579474099445170
  0.9955791282437348  0.4999989321676610  0.2547284409104970
  0.9964082331324194  0.5000016565622325  0.7543214507080002
  0.4964083372873576  0.5000005144064844  0.2543210022556505
  0.4955802487833948  0.4999995268212567  0.7547235046483312
  0.2447984281808955  0.0000007087802830  0.9908898459070191
  0.7447990697855529 -0.0000001973618239  0.4908895758378076
  0.2569229401021874  0.0000001681749186  0.5157925678430558
  0.2467654407396663  0.4999994870784445  0.5111109593876817
  0.7467596180805407  0.5000057206490203  0.0111145265042258
  0.7463310834853154  0.5000002223701333  0.5118854531300089
  0.9944818546974568  0.7506084996134603  0.0025519757797875
  0.5019101806275841  0.2504104650026304  0.0093348365590619
  0.9868149728966058  0.9999983408393804  0.7462076380065380
  0.4868141845240152  0.9999989266769627  0.2462072582257726
  0.2463308656604180  0.4999936428059963  0.0118825288203118
  0.7569245836485525  0.0000015335991327  0.0157920762606130
  0.9944764003273834  0.2493901043642409  0.0025495721252751
  0.0019111104324318  0.2504031140602453  0.5093352875888402
  0.0019118619179278  0.7495967487967679  0.5093333158960360
  0.4944769893069487  0.2493828236293637  0.5025551536828637
  0.5019112513047002  0.7495899138140599  0.0093341338269111
  0.4944763000009150  0.7506169337584172  0.5025573469516811
 
  0.00000000E+00  0.00000000E+00  0.00000000E+00
  0.00000000E+00  0.00000000E+00  0.00000000E+00
  0.00000000E+00  0.00000000E+00  0.00000000E+00
  0.00000000E+00  0.00000000E+00  0.00000000E+00
  0.00000000E+00  0.00000000E+00  0.00000000E+00
  0.00000000E+00  0.00000000E+00  0.00000000E+00
  0.00000000E+00  0.00000000E+00  0.00000000E+00
  0.00000000E+00  0.00000000E+00  0.00000000E+00
  0.00000000E+00  0.00000000E+00  0.00000000E+00
  0.00000000E+00  0.00000000E+00  0.00000000E+00
  0.00000000E+00  0.00000000E+00  0.00000000E+00
  0.00000000E+00  0.00000000E+00  0.00000000E+00
  0.00000000E+00  0.00000000E+00  0.00000000E+00
  0.00000000E+00  0.00000000E+00  0.00000000E+00
  0.00000000E+00  0.00000000E+00  0.00000000E+00
  0.00000000E+00  0.00000000E+00  0.00000000E+00
  0.00000000E+00  0.00000000E+00  0.00000000E+00
  0.00000000E+00  0.00000000E+00  0.00000000E+00
  0.00000000E+00  0.00000000E+00  0.00000000E+00
  0.00000000E+00  0.00000000E+00  0.00000000E+00
  0.00000000E+00  0.00000000E+00  0.00000000E+00
  0.00000000E+00  0.00000000E+00  0.00000000E+00
  0.00000000E+00  0.00000000E+00  0.00000000E+00
  0.00000000E+00  0.00000000E+00  0.00000000E+00
  0.00000000E+00  0.00000000E+00  0.00000000E+00
  0.00000000E+00  0.00000000E+00  0.00000000E+00
  0.00000000E+00  0.00000000E+00  0.00000000E+00
  0.00000000E+00  0.00000000E+00  0.00000000E+00
  0.00000000E+00  0.00000000E+00  0.00000000E+00
  0.00000000E+00  0.00000000E+00  0.00000000E+00
  0.00000000E+00  0.00000000E+00  0.00000000E+00
  0.00000000E+00  0.00000000E+00  0.00000000E+00
