Sodium iron(III) fluoride (5/3/14) - alp
   1.00000000000000     
    10.2756122350082570   -0.0000000367363876   -0.0092017948679016
    -0.0000000309633850    7.2367145668534008    0.0000013782881065
    -0.1080456531656891    0.0000013886590201    7.3319559862501436
   Na   Fe   F 
    10     6    28
Direct
  0.2517637859767928  0.1927426549407002  0.2581905188470109
  0.7481941675642180  0.8064869865549309  0.7417974153984461
  0.2481934244295722  0.6935134014626994  0.2417970873817585
  0.7517634953452451  0.3072597169179978  0.7581892864126448
  0.2649072132647446  0.2586133065930664  0.7728110758014392
  0.7351369248015505  0.7413842224468613  0.2272305181389523
  0.2351373013987439  0.7586160944441340  0.7272311179226522
  0.7649070635490252  0.2413862629234567  0.2728105614985199
  0.4993204038873960  0.0000382492689326  0.0003183007500509
  0.9993191390876168  0.4999618812669758  0.5003178490784440
  0.0000845720268485  0.9996830491594451  0.9995379193284774
  0.5000784876670789  0.5003247558997743  0.4995425633305400
  0.9999309829918821 -0.0000170971423293  0.4997001832668404
  0.4999263911875813  0.5000150895708747  0.9996981475286223
  0.5001104603432938  0.0009728644100760  0.5002718649750013
  0.0001128932865072  0.4990231429107896  0.0002697916664054
  0.9431857623780330  0.2466261453460594  0.9341723278212078
  0.0567742975691503  0.7524511760236534  0.0654945415562526
  0.5567737773787388  0.7475489064272168  0.5654945549792175
  0.4431847892415889  0.2533746321915779  0.4341717683726621
  0.9959088396700210  0.0833647310548565  0.2476047009343213
  0.0041741947724014  0.9160708959504102  0.7517423613484830
  0.5041739462804105  0.5839293277474722  0.2517399590957864
  0.4959110913650567  0.4166342518104520  0.7476069724632370
  0.1779454587909357  0.0629295139641361  0.9856776659546830
  0.8222697315688846  0.9366764038088548  0.0144161578917336
  0.3222713711162734  0.5633210641920289  0.5144172336055662
  0.6779466422001327  0.4370692233293192  0.4856758521115176
  0.3810618388267072  0.9951660150705920  0.7007461202198377
  0.6191520667367609  0.0056322756607744  0.2995919982452375
  0.1191526020047987  0.4943671334880553  0.7995922208556828
  0.8810621627259226  0.5048332575128474  0.2007462217525232
  0.1081603517850825  0.7883424887938155  0.4581526471142883
  0.8917011090114277  0.2114997957340382  0.5417819552796450
  0.3917014396079863  0.2885012482890783  0.0417815448473378
  0.6081602663559725  0.7116580060720428  0.9581518311135873
  0.6296496057897768  0.0687577027555764  0.6788859600677069
  0.3707456819014515  0.9317446713099431  0.3217402693743581
  0.8707466883279854  0.5682550233556430  0.8217396309230426
  0.1296478334583981  0.4312420555509306  0.1788845488134442
  0.3531491158128705  0.6604150015187256  0.9681968796945201
  0.6466767621370925  0.3399198647948384  0.0319418881532239
  0.1466765438031300  0.1600798378227774  0.5319415572132954
  0.8531493145749265  0.8395848067958944  0.4681964438717715
 
  0.00000000E+00  0.00000000E+00  0.00000000E+00
  0.00000000E+00  0.00000000E+00  0.00000000E+00
  0.00000000E+00  0.00000000E+00  0.00000000E+00
  0.00000000E+00  0.00000000E+00  0.00000000E+00
  0.00000000E+00  0.00000000E+00  0.00000000E+00
  0.00000000E+00  0.00000000E+00  0.00000000E+00
  0.00000000E+00  0.00000000E+00  0.00000000E+00
  0.00000000E+00  0.00000000E+00  0.00000000E+00
  0.00000000E+00  0.00000000E+00  0.00000000E+00
  0.00000000E+00  0.00000000E+00  0.00000000E+00
  0.00000000E+00  0.00000000E+00  0.00000000E+00
  0.00000000E+00  0.00000000E+00  0.00000000E+00
  0.00000000E+00  0.00000000E+00  0.00000000E+00
  0.00000000E+00  0.00000000E+00  0.00000000E+00
  0.00000000E+00  0.00000000E+00  0.00000000E+00
  0.00000000E+00  0.00000000E+00  0.00000000E+00
  0.00000000E+00  0.00000000E+00  0.00000000E+00
  0.00000000E+00  0.00000000E+00  0.00000000E+00
  0.00000000E+00  0.00000000E+00  0.00000000E+00
  0.00000000E+00  0.00000000E+00  0.00000000E+00
  0.00000000E+00  0.00000000E+00  0.00000000E+00
  0.00000000E+00  0.00000000E+00  0.00000000E+00
  0.00000000E+00  0.00000000E+00  0.00000000E+00
  0.00000000E+00  0.00000000E+00  0.00000000E+00
  0.00000000E+00  0.00000000E+00  0.00000000E+00
  0.00000000E+00  0.00000000E+00  0.00000000E+00
  0.00000000E+00  0.00000000E+00  0.00000000E+00
  0.00000000E+00  0.00000000E+00  0.00000000E+00
  0.00000000E+00  0.00000000E+00  0.00000000E+00
  0.00000000E+00  0.00000000E+00  0.00000000E+00
  0.00000000E+00  0.00000000E+00  0.00000000E+00
  0.00000000E+00  0.00000000E+00  0.00000000E+00
  0.00000000E+00  0.00000000E+00  0.00000000E+00
  0.00000000E+00  0.00000000E+00  0.00000000E+00
  0.00000000E+00  0.00000000E+00  0.00000000E+00
  0.00000000E+00  0.00000000E+00  0.00000000E+00
  0.00000000E+00  0.00000000E+00  0.00000000E+00
  0.00000000E+00  0.00000000E+00  0.00000000E+00
  0.00000000E+00  0.00000000E+00  0.00000000E+00
  0.00000000E+00  0.00000000E+00  0.00000000E+00
  0.00000000E+00  0.00000000E+00  0.00000000E+00
  0.00000000E+00  0.00000000E+00  0.00000000E+00
  0.00000000E+00  0.00000000E+00  0.00000000E+00
  0.00000000E+00  0.00000000E+00  0.00000000E+00
