Ti4 O4 F8                               
   1.00000000000000     
     5.2191073562971884    0.1601432660290829    0.0036746193901013
     0.1599065532836774    5.3397520776957146    0.0026010003445701
     0.0045731719094553   -0.0065062367966379    7.6945297088053382
   Ti   O    F 
     4     4     8
Direct
  0.4999930910043550  0.0000288178702035 -0.0000006019550423
  0.0000228215095254  0.5000238153092472 -0.0000035228624520
  0.4999997359672164 -0.0000028505243483  0.5000002736955258
  0.0000122579012195  0.4999853622696804  0.5000036352958598
  0.2146554752958545  0.2163109332486860  0.9662223498830694
  0.7853093885968392  0.7836637861469676  0.0337808102536287
  0.7834332336743789  0.7817607328730496  0.4657171438265725
  0.2165271580655546  0.2182139462378669  0.5342792477194783
  0.0799084138238992  0.4862671750643557  0.2499043392080837
  0.9201031177380015  0.5137412485359787  0.7500965669826264
  0.5790610120546373  0.0098416485124236  0.7499504395122704
  0.4209337774872844  0.9901610244992868  0.2500523769144052
  0.7071344569092857  0.2910172086458712  0.0385970363059933
  0.2928958552692383  0.7089928758488774  0.9614114813844920
  0.2902826733419103  0.7113380122057426  0.5390222126053551
  0.7097275313608066  0.2886562632560828  0.4609662112301408
 
  0.00000000E+00  0.00000000E+00  0.00000000E+00
  0.00000000E+00  0.00000000E+00  0.00000000E+00
  0.00000000E+00  0.00000000E+00  0.00000000E+00
  0.00000000E+00  0.00000000E+00  0.00000000E+00
  0.00000000E+00  0.00000000E+00  0.00000000E+00
  0.00000000E+00  0.00000000E+00  0.00000000E+00
  0.00000000E+00  0.00000000E+00  0.00000000E+00
  0.00000000E+00  0.00000000E+00  0.00000000E+00
  0.00000000E+00  0.00000000E+00  0.00000000E+00
  0.00000000E+00  0.00000000E+00  0.00000000E+00
  0.00000000E+00  0.00000000E+00  0.00000000E+00
  0.00000000E+00  0.00000000E+00  0.00000000E+00
  0.00000000E+00  0.00000000E+00  0.00000000E+00
  0.00000000E+00  0.00000000E+00  0.00000000E+00
  0.00000000E+00  0.00000000E+00  0.00000000E+00
  0.00000000E+00  0.00000000E+00  0.00000000E+00
