Na8 Mn8 O16 F8                          
   1.00000000000000     
     7.4598134859804430    0.0450692841391707    0.0195505319433151
    -0.0529214161978562    7.2706758013854014    0.0289727386934386
     0.0087776332914090    0.0413758574283783    7.4173371130797801
   Na   Mn   O    F 
     8     8    16     8
Direct
  0.2515603694409654  0.2527326414932229  0.2661670938291346
  0.2402250370522753  0.2681940175970374  0.7726021423334565
  0.2521245695371216  0.7744930619847512  0.2560461676109673
  0.2524026692563464  0.7675972420842891  0.7742937375689796
  0.7485009605157763  0.2326290804487812  0.2199539906498735
  0.7572793992716936  0.2263970696436917  0.7428311465053227
  0.7489475139852310  0.7366969257626791  0.2334817236785485
  0.7521757479877149  0.7408501744933415  0.7318385183655205
 -0.0005069649600155 -0.0003260099769987 -0.0000935968134869
  0.0008961036690547  0.0017869201942713  0.5002251769821726
  0.0007225990696518  0.5015319470325224  0.0008754866288081
  0.0010095500299994  0.5016833113880644  0.4990186810699806
  0.5006168717358653 -0.0003481630730666  0.9843612509715829
  0.4993506241942844  0.0127299188670336  0.5137814801281505
  0.5004327801848838  0.5008080034641804  0.9963563962218157
  0.4999198078871568  0.4851600147468283  0.5008336358232099
  0.2498854706593419  0.0367009409339799  0.9778141592353226
  0.2476346617102551  0.9504702171914042  0.5113228848743971
  0.7538551104059877  0.9665133743391244  0.0265198056224128
  0.7464072898506131  0.0503861065582143  0.4808815207545982
  0.9644412286851266  0.2515808213741001  0.9592159729990513
  0.0405899483582955  0.2490273371208422  0.5425598496970883
  0.0404684253254711  0.7493712639551297  0.0418446991447749
  0.9517992868651032  0.7511403796245227  0.4621179311333790
  0.5419401971135906  0.2536793961102528  0.9568870041258483
  0.4391534633913619  0.2505051919663426  0.5455786111009394
  0.4666412871417824  0.7471082756865325  0.0436940131518085
  0.9731576953809454  0.4545500999726462  0.2505849718035773
  0.0288902444615276  0.5453021665285751  0.7504418726268379
  0.5255055237978986  0.9464069412133489  0.7463871282193273
  0.5297954442080443  0.4536033563543990  0.2546491021379520
  0.4749923415905699  0.5463450006370941  0.7475154488252473
  0.2516509495049146  0.4521829943209694  0.0255686439245360
  0.2513213926422113  0.5426035980875176  0.4594659098252273
  0.7514031496291455  0.5497991344244958  0.9760628388622110
  0.7480141489335829  0.4592281190734898  0.5416662226488658
  0.5409724287173971  0.7480562229996379  0.4547450992511073
  0.0238923705330658  0.0477675930637906  0.2501110128534995
  0.9747839860852755  0.9534184530023491  0.7506057560103021
  0.4771463161504879  0.0416368593106125  0.2511865096176516
 
  0.00000000E+00  0.00000000E+00  0.00000000E+00
  0.00000000E+00  0.00000000E+00  0.00000000E+00
  0.00000000E+00  0.00000000E+00  0.00000000E+00
  0.00000000E+00  0.00000000E+00  0.00000000E+00
  0.00000000E+00  0.00000000E+00  0.00000000E+00
  0.00000000E+00  0.00000000E+00  0.00000000E+00
  0.00000000E+00  0.00000000E+00  0.00000000E+00
  0.00000000E+00  0.00000000E+00  0.00000000E+00
  0.00000000E+00  0.00000000E+00  0.00000000E+00
  0.00000000E+00  0.00000000E+00  0.00000000E+00
  0.00000000E+00  0.00000000E+00  0.00000000E+00
  0.00000000E+00  0.00000000E+00  0.00000000E+00
  0.00000000E+00  0.00000000E+00  0.00000000E+00
  0.00000000E+00  0.00000000E+00  0.00000000E+00
  0.00000000E+00  0.00000000E+00  0.00000000E+00
  0.00000000E+00  0.00000000E+00  0.00000000E+00
  0.00000000E+00  0.00000000E+00  0.00000000E+00
  0.00000000E+00  0.00000000E+00  0.00000000E+00
  0.00000000E+00  0.00000000E+00  0.00000000E+00
  0.00000000E+00  0.00000000E+00  0.00000000E+00
  0.00000000E+00  0.00000000E+00  0.00000000E+00
  0.00000000E+00  0.00000000E+00  0.00000000E+00
  0.00000000E+00  0.00000000E+00  0.00000000E+00
  0.00000000E+00  0.00000000E+00  0.00000000E+00
  0.00000000E+00  0.00000000E+00  0.00000000E+00
  0.00000000E+00  0.00000000E+00  0.00000000E+00
  0.00000000E+00  0.00000000E+00  0.00000000E+00
  0.00000000E+00  0.00000000E+00  0.00000000E+00
  0.00000000E+00  0.00000000E+00  0.00000000E+00
  0.00000000E+00  0.00000000E+00  0.00000000E+00
  0.00000000E+00  0.00000000E+00  0.00000000E+00
  0.00000000E+00  0.00000000E+00  0.00000000E+00
  0.00000000E+00  0.00000000E+00  0.00000000E+00
  0.00000000E+00  0.00000000E+00  0.00000000E+00
  0.00000000E+00  0.00000000E+00  0.00000000E+00
  0.00000000E+00  0.00000000E+00  0.00000000E+00
  0.00000000E+00  0.00000000E+00  0.00000000E+00
  0.00000000E+00  0.00000000E+00  0.00000000E+00
  0.00000000E+00  0.00000000E+00  0.00000000E+00
  0.00000000E+00  0.00000000E+00  0.00000000E+00
