Ti4 O4 F8                               
   1.00000000000000     
     5.5501432232684547    0.1019394020736554    0.0762520242095345
    -2.6867891570182940    4.8575280651526356    0.0762651272832028
     0.1283487146534505    0.2223323258682662    9.4777496746947278
   Ti   O    F 
     4     4     8
Direct
  0.2945135985139373  0.6515478738787337  0.6075033492979145
  0.7054787818606911  0.3484328737680755  0.3924764042072795
  0.6515559158615289  0.2945201489322358  0.1075210466494312
  0.3484402969635525  0.7054846712886160  0.8924946781516354
  0.5000514229003699  0.9999963754643844  0.9999825258744650
  0.0000122443493709  0.5000638516939446  0.4999903496819158
  0.8074181274098819  0.1926046407184572  0.2500012600513344
  0.1925995139825858  0.8074229006804075  0.7500010200754730
  0.9999882893059606  0.5000234483233328  0.0000094368700942
  0.4999844688766402  0.4999881773663617  0.9999952645310017
  0.5000144759489160  0.9999774245681365  0.5000137413532570
  0.4999843059526086  0.4999864040551856  0.5000009081031749
  0.7940108355046860  0.6301706236955837  0.2462009966776151
  0.2059562162769026  0.3698145790131875  0.7538069228794981
  0.3698191249020795  0.2059539787883224  0.2538033801736077
  0.6301723813902953  0.7940120277650280  0.7461987154223095
 
  0.00000000E+00  0.00000000E+00  0.00000000E+00
  0.00000000E+00  0.00000000E+00  0.00000000E+00
  0.00000000E+00  0.00000000E+00  0.00000000E+00
  0.00000000E+00  0.00000000E+00  0.00000000E+00
  0.00000000E+00  0.00000000E+00  0.00000000E+00
  0.00000000E+00  0.00000000E+00  0.00000000E+00
  0.00000000E+00  0.00000000E+00  0.00000000E+00
  0.00000000E+00  0.00000000E+00  0.00000000E+00
  0.00000000E+00  0.00000000E+00  0.00000000E+00
  0.00000000E+00  0.00000000E+00  0.00000000E+00
  0.00000000E+00  0.00000000E+00  0.00000000E+00
  0.00000000E+00  0.00000000E+00  0.00000000E+00
  0.00000000E+00  0.00000000E+00  0.00000000E+00
  0.00000000E+00  0.00000000E+00  0.00000000E+00
  0.00000000E+00  0.00000000E+00  0.00000000E+00
  0.00000000E+00  0.00000000E+00  0.00000000E+00
