Ti8 O10                                 
   1.00000000000000     
     6.7415439905445016   -0.0222772956407509    0.0000198523826059
    -0.0078391732214434    6.8920581910576777   -0.0000229639272686
     0.0000297747082791   -0.0000079176729427    4.2542796044185209
   Ti   O 
     8    10
Direct
  0.7850274986180102  0.6086692956406944  0.0000043696844731
  0.2172763094823986  0.3949995370433103  0.0000045682949055
  0.6120272719035962  0.2079514419564164  0.9999959218003098
  0.3887379250737548  0.7888382243703790  0.0000010786259902
  0.2904454314300448  0.1019488818839300  0.5000071572077639
  0.7180241672663265  0.8897320156020215  0.4999520753813203
  0.0995935938418040  0.7186886901344649  0.5000046787907515
  0.8879286630937525  0.2905667912354322  0.5000099386752910
  0.9118679360043509  0.3249819378521128  0.0000073519792939
  0.0851060785422322  0.6760621969867869  0.0000056769118387
  0.3103896844304593  0.0999240266673226  0.0000058641247705
  0.6935518513219583  0.9019613414286550 -0.0000265340392355
  0.4079418345861400  0.8200840023701895  0.5000016306311512
  0.6002758852217207  0.1849642977005472  0.4999960468993893
  0.8054037068796117  0.5893517056409801  0.5000065767603828
  0.1801036038937625  0.3969177140666942  0.5000065285296386
  0.0058479096096880  0.0060822946449269  0.5000089431845332
  0.5004506488003885  0.4982756047751354  0.0000081265574324
 
  0.00000000E+00  0.00000000E+00  0.00000000E+00
  0.00000000E+00  0.00000000E+00  0.00000000E+00
  0.00000000E+00  0.00000000E+00  0.00000000E+00
  0.00000000E+00  0.00000000E+00  0.00000000E+00
  0.00000000E+00  0.00000000E+00  0.00000000E+00
  0.00000000E+00  0.00000000E+00  0.00000000E+00
  0.00000000E+00  0.00000000E+00  0.00000000E+00
  0.00000000E+00  0.00000000E+00  0.00000000E+00
  0.00000000E+00  0.00000000E+00  0.00000000E+00
  0.00000000E+00  0.00000000E+00  0.00000000E+00
  0.00000000E+00  0.00000000E+00  0.00000000E+00
  0.00000000E+00  0.00000000E+00  0.00000000E+00
  0.00000000E+00  0.00000000E+00  0.00000000E+00
  0.00000000E+00  0.00000000E+00  0.00000000E+00
  0.00000000E+00  0.00000000E+00  0.00000000E+00
  0.00000000E+00  0.00000000E+00  0.00000000E+00
  0.00000000E+00  0.00000000E+00  0.00000000E+00
  0.00000000E+00  0.00000000E+00  0.00000000E+00
