Sodium chromium fluoride (5/3/14) - alph
   1.00000000000000     
    10.3603240006597286   -0.0000178608439244    0.0144516851228463
    -0.0000118396176929    7.1320695504321288    0.0000034533764232
    -0.0935327611628643    0.0000025368927593    7.1902210879324233
   Na   Cr   F 
    10     6    28
Direct
  0.2509102642139851  0.1950016061510524  0.2642341771500725
  0.7489817255914488  0.8049351575201982  0.7358993645156389
  0.2489846368603068  0.6950683488917306  0.2359031150118867
  0.7509111003518356  0.3049996958374379  0.7642342462300036
  0.2612938098638651  0.2675763700586273  0.7795401107955016
  0.7389104683538221  0.7325514818060626  0.2202719036225318
  0.2389099122707208  0.7674447596018652  0.7202672523692826
  0.7612932429262571  0.2324186684837315  0.2795291783386844
  0.4997922467938309  0.0007893726993942  0.0012641488982794
  0.9998002520039080  0.4992028579341294  0.5012588034348653
  0.0000609790787607  0.9990852847083502  0.9997668572123573
  0.5000654468201233  0.5009124825009437  0.4997651967283474
  0.9999775532409387  0.9997418692066020  0.4998570717576385
  0.4999809024839124  0.5002634436697022  0.9998582441595829
  0.5000222058624786  0.0011486677647667  0.5001133348692832
  0.0000147132259585  0.4988527385525714  0.0001054791916530
  0.9559769345527229  0.2472529466372677  0.9231216348198359
  0.0439936828767031  0.7511466733572547  0.0765638488502418
  0.5439926940292921  0.7488523763206132  0.5765668493299003
  0.4559772813928902  0.2527466589042930  0.4231246743118717
  0.9945043731714094  0.0883139113866918  0.2480992240879161
  0.0055276902752439  0.9109139098547203  0.7513577711550283
  0.5055269665650854  0.5890868811486882  0.2513584642094528
  0.4945015586704073  0.4116861446564499  0.7481000989494646
  0.1786061952023275  0.0489581452614019  0.9900117317347608
  0.8213931129303091  0.9505144365230080  0.0098570524246782
  0.3213882404029320  0.5494791963341541  0.5098556876854516
  0.6786012209184022  0.4510417963818156  0.4900103954002830
  0.3811382134293240  0.0103200980166775  0.7003665937142998
  0.6188444758920539  0.9905576609327724  0.2996802121898696
  0.1188409591501056  0.5094434520297568  0.7996738767692904
  0.8811348416611935  0.4896795696476772  0.2003582974712899
  0.1118120805312586  0.7937945459790186  0.4549135320449622
  0.8882066968304656  0.2058950736812690  0.5450564011484644
  0.3882071264685081  0.2941048535145256  0.0450586272784221
  0.6118098397661811  0.7062111043781556  0.9549142692784827
  0.6296527462489863  0.0670044021330156  0.6778121261584715
  0.3705695142881780  0.9337719421452206  0.3222683058932105
  0.8705651281039408  0.5662284636296704  0.8222545543183344
  0.1296482790546563  0.4329941992566262  0.1778022433494684
  0.3590843707936102  0.6674492462295021  0.9629354424124443
  0.6407498341939331  0.3326443195216626  0.0370334818471250
  0.1407508656285117  0.1673627795428061  0.5370386116736441
  0.8590856240292268  0.8325524062081158  0.4629374922076934
 
  0.00000000E+00  0.00000000E+00  0.00000000E+00
  0.00000000E+00  0.00000000E+00  0.00000000E+00
  0.00000000E+00  0.00000000E+00  0.00000000E+00
  0.00000000E+00  0.00000000E+00  0.00000000E+00
  0.00000000E+00  0.00000000E+00  0.00000000E+00
  0.00000000E+00  0.00000000E+00  0.00000000E+00
  0.00000000E+00  0.00000000E+00  0.00000000E+00
  0.00000000E+00  0.00000000E+00  0.00000000E+00
  0.00000000E+00  0.00000000E+00  0.00000000E+00
  0.00000000E+00  0.00000000E+00  0.00000000E+00
  0.00000000E+00  0.00000000E+00  0.00000000E+00
  0.00000000E+00  0.00000000E+00  0.00000000E+00
  0.00000000E+00  0.00000000E+00  0.00000000E+00
  0.00000000E+00  0.00000000E+00  0.00000000E+00
  0.00000000E+00  0.00000000E+00  0.00000000E+00
  0.00000000E+00  0.00000000E+00  0.00000000E+00
  0.00000000E+00  0.00000000E+00  0.00000000E+00
  0.00000000E+00  0.00000000E+00  0.00000000E+00
  0.00000000E+00  0.00000000E+00  0.00000000E+00
  0.00000000E+00  0.00000000E+00  0.00000000E+00
  0.00000000E+00  0.00000000E+00  0.00000000E+00
  0.00000000E+00  0.00000000E+00  0.00000000E+00
  0.00000000E+00  0.00000000E+00  0.00000000E+00
  0.00000000E+00  0.00000000E+00  0.00000000E+00
  0.00000000E+00  0.00000000E+00  0.00000000E+00
  0.00000000E+00  0.00000000E+00  0.00000000E+00
  0.00000000E+00  0.00000000E+00  0.00000000E+00
  0.00000000E+00  0.00000000E+00  0.00000000E+00
  0.00000000E+00  0.00000000E+00  0.00000000E+00
  0.00000000E+00  0.00000000E+00  0.00000000E+00
  0.00000000E+00  0.00000000E+00  0.00000000E+00
  0.00000000E+00  0.00000000E+00  0.00000000E+00
  0.00000000E+00  0.00000000E+00  0.00000000E+00
  0.00000000E+00  0.00000000E+00  0.00000000E+00
  0.00000000E+00  0.00000000E+00  0.00000000E+00
  0.00000000E+00  0.00000000E+00  0.00000000E+00
  0.00000000E+00  0.00000000E+00  0.00000000E+00
  0.00000000E+00  0.00000000E+00  0.00000000E+00
  0.00000000E+00  0.00000000E+00  0.00000000E+00
  0.00000000E+00  0.00000000E+00  0.00000000E+00
  0.00000000E+00  0.00000000E+00  0.00000000E+00
  0.00000000E+00  0.00000000E+00  0.00000000E+00
  0.00000000E+00  0.00000000E+00  0.00000000E+00
  0.00000000E+00  0.00000000E+00  0.00000000E+00
