V4 O4 F8                                
   1.00000000000000     
     5.1555837824407762    0.0544744734734151   -0.0459332170431749
     0.0585189398953747    5.3019994877643555    0.0082163684408479
    -0.0079980891527900    0.0256310891185085    7.3180623566443916
   V    O    F 
     4     4     8
Direct
  0.5268991259499339  0.9860020978175302  0.0013010774666300
  0.0077243011218940  0.5041625248512479  0.0211497050621801
  0.5048079976184647  0.0022396540132387  0.5213083299953452
  0.0153977888689740  0.4742631488149786  0.5016146284291145
  0.7840519847869520  0.7955664459235313  0.0351795594500285
  0.2058186576513251  0.2202329883912049  0.5339298370104846
  0.0744786596960729  0.4912756197939913  0.2438410903560278
  0.5748803892064061  0.0171434883093134  0.7435300492590092
  0.6973001072151744  0.3007429838314339  0.0406883182441728
  0.2912485513428072  0.7114102418473673  0.9486011297817880
  0.2091835092339973  0.2058565017531309  0.9554709929293241
  0.2897210723132913  0.7107395338197500  0.5430295740733012
  0.7008055343375827  0.2942192789402885  0.4489829605517294
  0.7941314442046443  0.7841797165465412  0.4549481634114294
  0.9104052778057072  0.5137184157446469  0.7531854439522733
  0.4131455986467866  0.9882473596018054  0.2532391400271550
 
  0.00000000E+00  0.00000000E+00  0.00000000E+00
  0.00000000E+00  0.00000000E+00  0.00000000E+00
  0.00000000E+00  0.00000000E+00  0.00000000E+00
  0.00000000E+00  0.00000000E+00  0.00000000E+00
  0.00000000E+00  0.00000000E+00  0.00000000E+00
  0.00000000E+00  0.00000000E+00  0.00000000E+00
  0.00000000E+00  0.00000000E+00  0.00000000E+00
  0.00000000E+00  0.00000000E+00  0.00000000E+00
  0.00000000E+00  0.00000000E+00  0.00000000E+00
  0.00000000E+00  0.00000000E+00  0.00000000E+00
  0.00000000E+00  0.00000000E+00  0.00000000E+00
  0.00000000E+00  0.00000000E+00  0.00000000E+00
  0.00000000E+00  0.00000000E+00  0.00000000E+00
  0.00000000E+00  0.00000000E+00  0.00000000E+00
  0.00000000E+00  0.00000000E+00  0.00000000E+00
  0.00000000E+00  0.00000000E+00  0.00000000E+00
