Co4 O4 F8                               
   1.00000000000000     
     5.4723441320496402   -0.0392247336156918   -0.0847332725477065
    -2.7701234899463461    4.7986488597420163    0.1689481015830062
    -0.1515000024460309    0.2611120089812435    9.2725666264454780
   Co   O    F 
     4     4     8
Direct
  0.3346663861420392  0.6527594715535956  0.6055033441848471
  0.6652253786663688  0.3470722284672263  0.3944637348429865
  0.6654124358631704  0.3180273357981099  0.1054776374990476
  0.3346910940056169  0.6818128385986084  0.8944781719549597
  0.5001982172123461  0.0000712913706679  0.9999522639621671
 -0.0000002707032727  0.5003327422316353 -0.0000065550331931
  0.9999956110073962  0.5003454964189525  0.5000065567296975
  0.4997672402116700  0.4998123118448654  0.4999820979337228
  0.4998346515698506  0.4998767786637640  0.0000988254649078
  0.5001784804810094  0.0000146826390891  0.5000695526755784
  0.8140733405038062  0.6277568510738445  0.2437752074042988
  0.1854980462900193  0.3721446088844603  0.7562256974386266
  0.3648621272912322  0.1822337224703080  0.2499482847490778
  0.6351550955503136  0.8174043005218387  0.7500191767394364
  0.8145410708922309  0.1865913116073303  0.2562274886217245
  0.1859010950162100  0.8137440278556825  0.7437785148321144
 
  0.00000000E+00  0.00000000E+00  0.00000000E+00
  0.00000000E+00  0.00000000E+00  0.00000000E+00
  0.00000000E+00  0.00000000E+00  0.00000000E+00
  0.00000000E+00  0.00000000E+00  0.00000000E+00
  0.00000000E+00  0.00000000E+00  0.00000000E+00
  0.00000000E+00  0.00000000E+00  0.00000000E+00
  0.00000000E+00  0.00000000E+00  0.00000000E+00
  0.00000000E+00  0.00000000E+00  0.00000000E+00
  0.00000000E+00  0.00000000E+00  0.00000000E+00
  0.00000000E+00  0.00000000E+00  0.00000000E+00
  0.00000000E+00  0.00000000E+00  0.00000000E+00
  0.00000000E+00  0.00000000E+00  0.00000000E+00
  0.00000000E+00  0.00000000E+00  0.00000000E+00
  0.00000000E+00  0.00000000E+00  0.00000000E+00
  0.00000000E+00  0.00000000E+00  0.00000000E+00
  0.00000000E+00  0.00000000E+00  0.00000000E+00
