Na4 Fe4 O8 F4                           
   1.00000000000000     
     5.3652668427180661   -0.0067150877767296    0.0167271207460198
    -2.6886764868103774    4.6364687314887778   -0.0161758760036403
     0.0283867325382149   -0.0150141257809180    9.0836676364423088
   Na   Fe   O    F 
     4     4     8     4
Direct
  0.0047989613490455  0.9997427116770121  0.9376740514800871
  0.9964045103854843  0.9925453488202607  0.5449820914305893
  0.3279694844074108  0.6850850691716306  0.2495931405491317
  0.6752895808420736  0.3519281980328173  0.7500206639119809
  0.3318055060652479  0.6547710034706359  0.5986461899175411
  0.6660249894817669  0.3259311123822926  0.4000758756538923
  0.6663935939879227  0.3280367361935790  0.1010568189773212
  0.3333206665148319  0.6575620373783204  0.9046601135445556
  0.5696451677381952  0.9769906202481725  0.0092254098055637
  0.0030716110618925  0.5745444286869119  0.9998578786958139
  0.4404164709984666  0.4084688057043032  0.9882469732678423
  0.5582348951778018  0.9673430593415090  0.4889857662643091
  0.9879494355379685  0.5562994438495327  0.5050413392018621
  0.4345733387882897  0.4049262394869528  0.5141700339956461
  0.1399194156408803  0.3972149278489869  0.7538427163087926
  0.8633069819610470  0.2673214003075313  0.2507553829652786
  0.7152892945531304  0.6341041796951483  0.2505549502344618
  0.3424611646514774  0.1160426197368630  0.2543799727558828
  0.6707714948790696  0.7844188594523764  0.7504117586234239
  0.2723534359779900  0.9167231985151638  0.7478188724160318
 
  0.00000000E+00  0.00000000E+00  0.00000000E+00
  0.00000000E+00  0.00000000E+00  0.00000000E+00
  0.00000000E+00  0.00000000E+00  0.00000000E+00
  0.00000000E+00  0.00000000E+00  0.00000000E+00
  0.00000000E+00  0.00000000E+00  0.00000000E+00
  0.00000000E+00  0.00000000E+00  0.00000000E+00
  0.00000000E+00  0.00000000E+00  0.00000000E+00
  0.00000000E+00  0.00000000E+00  0.00000000E+00
  0.00000000E+00  0.00000000E+00  0.00000000E+00
  0.00000000E+00  0.00000000E+00  0.00000000E+00
  0.00000000E+00  0.00000000E+00  0.00000000E+00
  0.00000000E+00  0.00000000E+00  0.00000000E+00
  0.00000000E+00  0.00000000E+00  0.00000000E+00
  0.00000000E+00  0.00000000E+00  0.00000000E+00
  0.00000000E+00  0.00000000E+00  0.00000000E+00
  0.00000000E+00  0.00000000E+00  0.00000000E+00
  0.00000000E+00  0.00000000E+00  0.00000000E+00
  0.00000000E+00  0.00000000E+00  0.00000000E+00
  0.00000000E+00  0.00000000E+00  0.00000000E+00
  0.00000000E+00  0.00000000E+00  0.00000000E+00
