Na4 Fe4 O8 F4                           
   1.00000000000000     
     5.1737718678553524    0.0600492323844036    0.0043866408688187
     0.0602007641998569    5.2031545435772202    0.0090903109004226
     0.0072358432098304    0.0133839413186982    7.8723242421669379
   Na   Fe   O    F 
     4     4     8     4
Direct
  0.9865941421349538  0.0212054088439277  0.2500095634739510
  0.0137503891061829  0.9680941241437425  0.7498831993029738
  0.4879691870226205  0.4712849304124195  0.7425635645224987
  0.5198394795701230  0.5329134864741997  0.2525010360790532
  0.4926295732925458  0.9844695041195556  0.9981035880998882
  0.0177689913233309  0.5060691370004721  0.0116954568620306
  0.4992147548247358  0.0030304896675086  0.4998168991456471
  0.0041481209000040  0.5002036038916108  0.4802209860559447
  0.2984252095807142  0.7075268215778512  0.9607943537078311
  0.2035743248678860  0.2081088024948211  0.9669485566444451
  0.7896098599220684  0.7886267866862996  0.0366552534993574
  0.2626333053546447  0.7330213837359892  0.5330596105498332
  0.7356766147185719  0.2698697894279782  0.4631681758964791
  0.7674154390968608  0.7653572695283443  0.4650661735385822
  0.2298722184741232  0.2376009614534227  0.5377866604796410
  0.0721164847910117  0.4881321952395581  0.2437388731818695
  0.6957432712063766  0.2891951958748937  0.0436452725850831
  0.9194121766358335  0.5121857688864699  0.7630126191597536
  0.5842401408706461  0.0245932148720936  0.7516787910736966
  0.4193663163067655  0.9885111256688552  0.2496513661414268
 
  0.00000000E+00  0.00000000E+00  0.00000000E+00
  0.00000000E+00  0.00000000E+00  0.00000000E+00
  0.00000000E+00  0.00000000E+00  0.00000000E+00
  0.00000000E+00  0.00000000E+00  0.00000000E+00
  0.00000000E+00  0.00000000E+00  0.00000000E+00
  0.00000000E+00  0.00000000E+00  0.00000000E+00
  0.00000000E+00  0.00000000E+00  0.00000000E+00
  0.00000000E+00  0.00000000E+00  0.00000000E+00
  0.00000000E+00  0.00000000E+00  0.00000000E+00
  0.00000000E+00  0.00000000E+00  0.00000000E+00
  0.00000000E+00  0.00000000E+00  0.00000000E+00
  0.00000000E+00  0.00000000E+00  0.00000000E+00
  0.00000000E+00  0.00000000E+00  0.00000000E+00
  0.00000000E+00  0.00000000E+00  0.00000000E+00
  0.00000000E+00  0.00000000E+00  0.00000000E+00
  0.00000000E+00  0.00000000E+00  0.00000000E+00
  0.00000000E+00  0.00000000E+00  0.00000000E+00
  0.00000000E+00  0.00000000E+00  0.00000000E+00
  0.00000000E+00  0.00000000E+00  0.00000000E+00
  0.00000000E+00  0.00000000E+00  0.00000000E+00
