Na15 Ti16 O16 F32                       
   1.00000000000000     
    11.1145276783092033    0.1344079454339132   -0.0265705953244207
     0.1655204172477198   11.2907675664271370   -0.0190985635888970
     0.0153688598781833    0.0140616218786330    7.8407952498085081
   Na   Ti   O    F 
    15    16    16    32
Direct
  0.5002184844820411  0.4938297215354003  0.0926516941930548
  0.9983922158191135  0.0146426974912856  0.2534637444459853
  0.9934741587457676  0.5162073350983899  0.2561478450583258
  0.4984364051494694  0.0108094105253635  0.2535985123092364
  0.0037119224497230  0.4822646840861617  0.7438315565627305
  0.0007383234657059  0.9863718780243798  0.7457307945552988
  0.4991723386260439  0.9893816377620348  0.7418976935353302
  0.2488640093519333  0.2297608370551119  0.7484614215772785
  0.2562147694007481  0.7183126494850882  0.7481431425064260
  0.7416462648225517  0.2304456334401279  0.7520048160355094
  0.7461462020473502  0.7240001475055722  0.7426938198973363
  0.2524029858424056  0.2715219109482386  0.2561182199593707
  0.2526328390411320  0.7619196756554315  0.2457135818540306
  0.7402808767548316  0.2717366028888733  0.2519073924741559
  0.7412622825223413  0.7627459179082754  0.2535511845544574
  0.2359326313396310  0.0017838794678962  0.0144975190862086
  0.2295494938192852  0.5020727380586473  0.0110098614679461
  0.7417931020975381  0.0058088629132167  0.0136204882321449
  0.7464086025924604  0.5096323521168998  0.0101553975232969
  0.0003907328738852  0.2387631160294423  0.9791359048006273
  0.0044267975109931  0.7441548699044405  0.9790297788517545
  0.4988035659811593  0.2324703923431088  0.9779992747078018
  0.5084170274190826  0.7473566704335716  0.9765984021891205
  0.2368986502776607  0.0030707197706987  0.4858769307489443
  0.2404708713235182  0.5047027791328361  0.4860563510503405
  0.7388611566760425  0.0065659976828348  0.4843010749886580
  0.7348408090580678  0.5054497075113077  0.4829118527864564
  0.0013899022911269  0.2400654420055343  0.5175312800676997
  0.0051953904119244  0.7410431938190065  0.5208214373689125
  0.5011494117683040  0.2429855920061404  0.5175034116838315
  0.5041310512447310  0.7403151791794248  0.5175549223370134
  0.1039791855691600  0.1041861067623289  0.9682499016675505
  0.1034661903591688  0.6088798385334483  0.9625678145073661
  0.6092022551258254  0.1044965687194091  0.9657858424291832
  0.6210852785893352  0.6206750372709511  0.9687850980603138
  0.1041589820429081  0.1048957552749190  0.5296229327356045
  0.1065359217875742  0.6064884596697365  0.5362758158991082
  0.6066372238029435  0.1071162323056018  0.5266876409549671
  0.6116310036346663  0.6132398178322728  0.5270635013453672
  0.4621817649189200  0.2454364385640533  0.7482253468808178
  0.4668826420235283  0.7662459577701158  0.7474979899032351
  0.9578031567679508  0.2532372278601459  0.7482829325957367
  0.9594968860626542  0.7613636702069352  0.7504401877319928
  0.2124094946262307  0.4929731494504369  0.2485643210631759
  0.2156871336373333  0.9821248607736138  0.2503139573590693
  0.7245715178394865  0.4899033091973228  0.2467913117460207
  0.7207820959511101  0.9854350521307333  0.2480518180374975
  0.3538725222805115  0.1370833139765078  0.0554380115764185
  0.3576889667295499  0.6421493128143203  0.0386671422587092
  0.8486708541455806  0.1534245014487803  0.0548635966352978
  0.8586795260133009  0.6521264883415699  0.0585866258758000
  0.1403405660281176  0.3529294775756899  0.9415690947671711
  0.1569030907703047  0.8471405466753111  0.9465161582603724
  0.6427091442403177  0.3563017204441031  0.9633857291988444
  0.6578240271166280  0.8551226605403147  0.9457345103322417
  0.3686814557692538  0.3680731003170528  0.0360330158370137
  0.3989261170553103  0.8978865861505279  0.0335956453293357
  0.9021468944614448  0.3993197859782970  0.0304787917765408
  0.9077667686109727  0.9057092798909602  0.0324188556623608
  0.1484643465760038  0.3508587699192965  0.5460615131316445
  0.1536439239902648  0.8499405111855067  0.5546030011357315
  0.6541149582931292  0.3476043011982493  0.5356796350466374
  0.6542566599753078  0.8527881010112393  0.5438799965093695
  0.3511306943206911  0.1454781121767338  0.4509207927107232
  0.3483733051295237  0.6531419636945042  0.4616493230710336
  0.8511524488697714  0.1501573473142108  0.4437128353191062
  0.8541599126439756  0.6492930594790773  0.4513513058879226
  0.3867470587787130  0.3858094770755310  0.4578715170985941
  0.4004110776128050  0.9013445932794997  0.4681728821495166
  0.9011257654674418  0.3989944406453715  0.4664876892407792
  0.9037516605001740  0.9015989553846830  0.4674269066199424
  0.0371177103258141  0.2506476273416108  0.2481237254534024
  0.0396013053483848  0.7533550342526192  0.2507341249224294
  0.5320720820426631  0.2455212467173185  0.2457727857883017
  0.5316591869265205  0.7635347247037568  0.2487106809193242
  0.2905360239905678  0.0156903010645392  0.7506253361052438
  0.2843338972380857  0.5066719455183786  0.7526058167116234
  0.7950312668951406  0.0191111607226076  0.7482660170765348
  0.7968757162852409  0.5132493375503147  0.7464022861362714
 
             NaN             NaN             NaN
             NaN             NaN             NaN
             NaN             NaN             NaN
             NaN             NaN             NaN
             NaN             NaN             NaN
             NaN             NaN             NaN
             NaN             NaN             NaN
             NaN             NaN             NaN
             NaN             NaN             NaN
             NaN             NaN             NaN
             NaN             NaN             NaN
             NaN             NaN             NaN
             NaN             NaN             NaN
             NaN             NaN             NaN
             NaN             NaN             NaN
             NaN             NaN             NaN
             NaN             NaN             NaN
             NaN             NaN             NaN
             NaN             NaN             NaN
             NaN             NaN             NaN
             NaN             NaN             NaN
             NaN             NaN             NaN
             NaN             NaN             NaN
             NaN             NaN             NaN
             NaN             NaN             NaN
             NaN             NaN             NaN
             NaN             NaN             NaN
             NaN             NaN             NaN
             NaN             NaN             NaN
             NaN             NaN             NaN
             NaN             NaN             NaN
             NaN             NaN             NaN
             NaN             NaN             NaN
             NaN             NaN             NaN
             NaN             NaN             NaN
             NaN             NaN             NaN
             NaN             NaN             NaN
             NaN             NaN             NaN
             NaN             NaN             NaN
             NaN             NaN             NaN
             NaN             NaN             NaN
             NaN             NaN             NaN
             NaN             NaN             NaN
             NaN             NaN             NaN
             NaN             NaN             NaN
             NaN             NaN             NaN
             NaN             NaN             NaN
             NaN             NaN             NaN
             NaN             NaN             NaN
             NaN             NaN             NaN
             NaN             NaN             NaN
             NaN             NaN             NaN
             NaN             NaN             NaN
             NaN             NaN             NaN
             NaN             NaN             NaN
             NaN             NaN             NaN
             NaN             NaN             NaN
             NaN             NaN             NaN
             NaN             NaN             NaN
             NaN             NaN             NaN
             NaN             NaN             NaN
             NaN             NaN             NaN
             NaN             NaN             NaN
             NaN             NaN             NaN
             NaN             NaN             NaN
             NaN             NaN             NaN
             NaN             NaN             NaN
             NaN             NaN             NaN
             NaN             NaN             NaN
             NaN             NaN             NaN
             NaN             NaN             NaN
             NaN             NaN             NaN
             NaN             NaN             NaN
             NaN             NaN             NaN
             NaN             NaN             NaN
             NaN             NaN             NaN
             NaN             NaN             NaN
             NaN             NaN             NaN
             NaN             NaN             NaN
