Na15 Ti16 O16 F32
1.0
  11.1145276783092033    0.1344079454339132   -0.0265705953244207
   0.1655204172477198   11.2907675664271370   -0.0190985635888970
   0.0153688598781833    0.0140616218786330    7.8407952498085081
Na Ti O F
15 16 16 32
direct
   0.4975339022620908    0.5022319933410625    0.0831457403020607 Na
   0.9970914386811106    0.0144823877651261    0.2503129274389145 Na
   0.9964053641456873    0.5139868774594999    0.2495474882754710 Na
   0.4970538813091572    0.0151625838046433    0.2500855028035182 Na
   0.0013028901628209    0.4841391590000824    0.7504332586329835 Na
   1.0000893307870007    0.9843082919185331    0.7501163536093634 Na
   0.4994519577691344    0.9878310092628805    0.7497841671930358 Na
   0.2494979858764854    0.2274509843766167    0.7500430465172567 Na
   0.2521535818006932    0.7216037321830462    0.7498219800140964 Na
   0.7468367099294034    0.2266380560276495    0.7495865412347323 Na
   0.7467530082953657    0.7232087621883240    0.7502021605095862 Na
   0.2542443688548186    0.2747369332222342    0.2504663778636210 Na
   0.2485832896467585    0.7663037141873872    0.2495313908183767 Na
   0.7439592587162654    0.2692136375141780    0.2494510202958792 Na
   0.7434561486215034    0.7661104447592695    0.2486431338151132 Na
   0.2373647975736294    0.0039484549717469    0.0143784255202736 Ti
   0.2389138360374736    0.5045057518601538    0.0134970382581097 Ti
   0.7374206827152286    0.0049879480143722    0.0145703192438766 Ti
   0.7359252229131846    0.5043151050251266    0.0134947834481673 Ti
   0.0027971330100848    0.2402107578602872    0.9808124633657973 Ti
   0.0031770800822610    0.7401951616086129    0.9801671436917074 Ti
   0.5020374650892548    0.2418660278627096    0.9802285464199570 Ti
   0.5032885201354087    0.7400563030038391    0.9797957504617232 Ti
   0.2374402304175591    0.0039321713616893    0.4863381938995044 Ti
   0.2387425931696012    0.5048164061105959    0.4867800963956023 Ti
   0.7375189672100949    0.0053037051308118    0.4861561766089629 Ti
   0.7365876978417033    0.5044705770070411    0.4853379992073285 Ti
   0.0030467359548804    0.2403327681055389    0.5190186428844833 Ti
   0.0030304141208554    0.7402720219674149    0.5199614632467315 Ti
   0.5023173090690906    0.2424037647355386    0.5196979578991066 Ti
   0.5038558351264348    0.7400576881517354    0.5189316633668933 Ti
   0.1041255778398363    0.1041714849450420    0.9671305216725167 O
   0.1048516722383298    0.6054657055715443    0.9663041508326680 O
   0.6052878163491230    0.1052992672184822    0.9685585615971820 O
   0.6077399799180938    0.6087977018520800    0.9718943285206904 O
   0.1043243766262432    0.1043008862544123    0.5333521587192244 O
   0.1043911444137051    0.6052626855261752    0.5341279464799503 O
   0.6058056161429222    0.1060764201850507    0.5320273042460998 O
   0.6074579803218454    0.6095127502766635    0.5280113173072145 O
   0.4623651097985908    0.2526317342938658    0.7500251972343511 O
   0.4645522793584639    0.7626737570581117    0.7511976328655149 O
   0.9614475750295413    0.2577368163922285    0.7498490828131236 O
   0.9606008991966376    0.7593018026822381    0.7501421991384394 O
   0.2162740699305156    0.4918419734831552    0.2501453093603297 O
   0.2174535475221132    0.9852958626449881    0.2503918234999531 O
   0.7220890828295836    0.4861712049131269    0.2497696542654756 O
   0.7181046276633686    0.9866259647288956    0.2504526006912062 O
   0.3503172414497096    0.1486916803843642    0.0494970868172015 F
   0.3495602972261499    0.6513618545572647    0.0433082782194167 F
   0.8504531705288383    0.1500160554995776    0.0515103642677444 F
   0.8511825584682551    0.6496057110877533    0.0490623721019270 F
   0.1520126957139418    0.3493060152672686    0.9537601151243028 F
   0.1541752148606060    0.8484644180901723    0.9508581251724868 F
   0.6545623803783754    0.3466855109099083    0.9586975323745794 F
   0.6546276372307832    0.8493908051532443    0.9544106979955969 F
   0.3934793122663043    0.3919727602486766    0.0399274434339344 F
   0.4010193460912679    0.9008559318844217    0.0334963611209904 F
   0.9020391882503651    0.3997907484796726    0.0331129276433559 F
   0.9024270089410127    0.9007572973874286    0.0345187281147300 F
   0.1526777732682221    0.3490534136306707    0.5456937164993599 F
   0.1541934508258214    0.8484976858473410    0.5498921903228525 F
   0.6542047862460324    0.3478507097537950    0.5412452151663071 F
   0.6537971818349074    0.8507312576809097    0.5481199388055132 F
   0.3507302526959536    0.1485125987209659    0.4511555961442189 F
   0.3487365508905602    0.6522418708086394    0.4581345703144762 F
   0.8504192040101449    0.1503243034582905    0.4487754719558015 F
   0.8506032614459742    0.6503108778324623    0.4507746185816603 F
   0.3938625464792869    0.3925055071585553    0.4602053015538100 F
   0.4018132454820069    0.9006600895769972    0.4675458959892140 F
   0.9022431434630637    0.3999854170936781    0.4666241996145699 F
   0.9026310112036987    0.9011827996137289    0.4666058290037143 F
   0.0364688098980411    0.2496856979800511    0.2498658453131080 F
   0.0352567707843948    0.7504232889249990    0.2500566000933782 F
   0.5340322867582313    0.2452252842665757    0.2498966630562183 F
   0.5310976859876043    0.7567432444458549    0.2491163659521816 F
   0.2919441050778117    0.0146810244386981    0.7501930742419993 F
   0.2857914770790274    0.5106961612769593    0.7500108642871587 F
   0.7929684438020809    0.0155533514861939    0.7503261661424083 F
   0.7928799688575646    0.5131194292410721    0.7496323020896029 F
