Na4 Fe4 O8 F4                           
   1.00000000000000     
     5.4005424653241390    0.3012865148551909    0.0001784169970210
     0.3072915869258677    5.4538974916988616    0.0041290058121986
     0.0001266952281632   -0.0049347713716158    7.2716260448533987
   Na   Fe   O    F 
     4     4     8     4
Direct
  0.9943473392129204  0.0260811954322103  0.2500055719514560
  0.0055345108285765  0.9739167058242575  0.7500214356630928
  0.5105320051034860  0.4617994634236823  0.7507591714379399
  0.4896414465541897  0.5380457356910431  0.2503717981012860
  0.5017485764764281 -0.0001570753408013 -0.0006100860271041
  0.0012767263849061  0.5001995972424530  0.0010608493984523
  0.4981911279165298  0.0001398170639886  0.4994223046018802
  0.9988018714243436  0.4998758116811387  0.5011205053500342
  0.0596691783681905  0.5015494609046259  0.2506648645210499
  0.9403093479570772  0.4984604121981219  0.7505779971565091
  0.5554292019643197  0.0281872041470253  0.7493739186271561
  0.4445667349061681  0.9718282786778384  0.2493944488037769
  0.2077580368590515  0.2070248039893668  0.9779510243928359
  0.7958365207392037  0.7946440534368018  0.0213258086274088
  0.7923990639195940  0.7930542423481401  0.4780460732442388
  0.2039700611066898  0.2052811795015355  0.5214030827534463
  0.7009104319049225  0.2991028996225483  0.0412411257706570
  0.3005092086941328  0.7021260078984040  0.9582504003696036
  0.2991764001158321  0.7007457562674431  0.5413956443114892
  0.6993922095634379  0.2980944499901767  0.4582240609447839
 
  0.00000000E+00  0.00000000E+00  0.00000000E+00
  0.00000000E+00  0.00000000E+00  0.00000000E+00
  0.00000000E+00  0.00000000E+00  0.00000000E+00
  0.00000000E+00  0.00000000E+00  0.00000000E+00
  0.00000000E+00  0.00000000E+00  0.00000000E+00
  0.00000000E+00  0.00000000E+00  0.00000000E+00
  0.00000000E+00  0.00000000E+00  0.00000000E+00
  0.00000000E+00  0.00000000E+00  0.00000000E+00
  0.00000000E+00  0.00000000E+00  0.00000000E+00
  0.00000000E+00  0.00000000E+00  0.00000000E+00
  0.00000000E+00  0.00000000E+00  0.00000000E+00
  0.00000000E+00  0.00000000E+00  0.00000000E+00
  0.00000000E+00  0.00000000E+00  0.00000000E+00
  0.00000000E+00  0.00000000E+00  0.00000000E+00
  0.00000000E+00  0.00000000E+00  0.00000000E+00
  0.00000000E+00  0.00000000E+00  0.00000000E+00
  0.00000000E+00  0.00000000E+00  0.00000000E+00
  0.00000000E+00  0.00000000E+00  0.00000000E+00
  0.00000000E+00  0.00000000E+00  0.00000000E+00
  0.00000000E+00  0.00000000E+00  0.00000000E+00
