Ni4 O4 F8                               
   1.00000000000000     
     5.4340526753953799    0.2182527823000015   -0.1714361479806862
    -2.6966129380656141    4.1446318311908108    0.0180372242527760
     0.2174406232244897   -0.0880224704785698    8.4217377215243800
   Ni   O    F 
     4     4     8
Direct
  0.2548449006276476  0.5214453891944700  0.6050365924237500
  0.6303033243218823  0.2121697733596812  0.3877217712596905
  0.7559624601099639  0.4987577240109571  0.1020522154854433
  0.3788044037128905  0.7965733776028435  0.8893848388269510
  0.1064760127131476  0.7716953441538779  0.0199600133179870
  0.3755042655803797  0.7594853117958636  0.4307215806641788
  0.6034979551250345  0.7737798811189676  0.7419263808415966
  0.8733085202966060  0.2340401777656591  0.2141929589027192
  0.6242257422933944  0.2457033872907791  0.9119392065397744
  0.5732108186815900  0.7319032143937311  0.0641630979394524
  0.8684056764746829  0.2198750099328427  0.5467792328617982
  0.3726956611278360  0.2456358280547153  0.5164646803842349
  0.8360311817666592  0.6556928609185176  0.3284538089946044
  0.1836116500073338  0.3574069658294282  0.8223015736910235
  0.4066233045436540  0.1735631475945887  0.2019902294293876
  0.1564941226172812  0.8022726069830768  0.7169118184374010
 
  0.00000000E+00  0.00000000E+00  0.00000000E+00
  0.00000000E+00  0.00000000E+00  0.00000000E+00
  0.00000000E+00  0.00000000E+00  0.00000000E+00
  0.00000000E+00  0.00000000E+00  0.00000000E+00
  0.00000000E+00  0.00000000E+00  0.00000000E+00
  0.00000000E+00  0.00000000E+00  0.00000000E+00
  0.00000000E+00  0.00000000E+00  0.00000000E+00
  0.00000000E+00  0.00000000E+00  0.00000000E+00
  0.00000000E+00  0.00000000E+00  0.00000000E+00
  0.00000000E+00  0.00000000E+00  0.00000000E+00
  0.00000000E+00  0.00000000E+00  0.00000000E+00
  0.00000000E+00  0.00000000E+00  0.00000000E+00
  0.00000000E+00  0.00000000E+00  0.00000000E+00
  0.00000000E+00  0.00000000E+00  0.00000000E+00
  0.00000000E+00  0.00000000E+00  0.00000000E+00
  0.00000000E+00  0.00000000E+00  0.00000000E+00
