Na4 Cr4 O8 F4                           
   1.00000000000000     
     5.2892488939717150   -0.0008711864699671    0.0003364404662569
    -0.0006737383295399    5.4490636343645118   -0.0111144869472522
    -0.0000387301188694    0.0041149310145972    7.1570165206765504
   Na   Cr   O    F 
     4     4     8     4
Direct
  0.0050890499961775  0.0357391019730323  0.2470963985927590
  0.0025083999022418  0.9601777271560354  0.7492191913655082
  0.5036188506083172  0.4644444677521627  0.7531141758128302
  0.5024202199598301  0.5399638878645696  0.2507257027976902
  0.5127955350318415  0.9672253045410217  0.9989759093575311
  0.0125241598440330  0.5327509059503636  0.0010709768055646
  0.5046864413531243  0.0379440536567541  0.4966631082358233
  0.0043596069991346  0.4611691766533782  0.5034382520950390
  0.3070944447266979  0.6907788562630488  0.9734605902926120
  0.8072889271659091  0.8095243552545929  0.0267571799753177
  0.6883786773435193  0.3060658080890301  0.4740489091481626
  0.1886784231215651  0.1937993699538090  0.5262098235075577
  0.0364315097523282  0.4915602913947716  0.2524266308314003
  0.9439435268349449  0.5141276095286690  0.7499945203825932
  0.5368002907031741  0.0079213444452861  0.7476965797423706
  0.4442752799409999  0.9861874906788378  0.2498511177615049
  0.7022932267812038  0.2967168514302215  0.0283092295033666
  0.2024907630814694  0.2036539871612347  0.9713143066355979
  0.2970825200621434  0.6903380644688898  0.5291010416125346
  0.7972401467913451  0.8099113457842843  0.4705263555442148
 
  0.00000000E+00  0.00000000E+00  0.00000000E+00
  0.00000000E+00  0.00000000E+00  0.00000000E+00
  0.00000000E+00  0.00000000E+00  0.00000000E+00
  0.00000000E+00  0.00000000E+00  0.00000000E+00
  0.00000000E+00  0.00000000E+00  0.00000000E+00
  0.00000000E+00  0.00000000E+00  0.00000000E+00
  0.00000000E+00  0.00000000E+00  0.00000000E+00
  0.00000000E+00  0.00000000E+00  0.00000000E+00
  0.00000000E+00  0.00000000E+00  0.00000000E+00
  0.00000000E+00  0.00000000E+00  0.00000000E+00
  0.00000000E+00  0.00000000E+00  0.00000000E+00
  0.00000000E+00  0.00000000E+00  0.00000000E+00
  0.00000000E+00  0.00000000E+00  0.00000000E+00
  0.00000000E+00  0.00000000E+00  0.00000000E+00
  0.00000000E+00  0.00000000E+00  0.00000000E+00
  0.00000000E+00  0.00000000E+00  0.00000000E+00
  0.00000000E+00  0.00000000E+00  0.00000000E+00
  0.00000000E+00  0.00000000E+00  0.00000000E+00
  0.00000000E+00  0.00000000E+00  0.00000000E+00
  0.00000000E+00  0.00000000E+00  0.00000000E+00
