Na4 Mn4 O8 F4                           
   1.00000000000000     
     5.2272779651795780    0.0745527984147885   -0.0162473689853033
     0.0741756147693292    5.3307636486306444    0.0243515897943556
    -0.0231980350598783    0.0199627912332737    7.3821221326014710
   Na   Mn   O    F 
     4     4     8     4
Direct
  0.9933804495276498  0.0394546086309717  0.2488378146445496
  0.0112474035781915  0.9623165352425967  0.7583739735866601
  0.4890661152664684  0.4571454201587457  0.7617043164503394
  0.5042208113785741  0.5460090709328774  0.2351868187813084
  0.5145340284653109  0.9842682392447345  0.9861226882304629
  0.9825995632940169  0.5095283456913213  0.0031173241216251
  0.4980002814114097  0.9977738992486043  0.5118502510182664
  0.9966913214555674  0.4964595714326755  0.4947186417411675
  0.0787075250592961  0.4855254177771486  0.2500648482456252
  0.9227717947921464  0.5088508918654957  0.7477554893226538
  0.5860824786596707  0.0293126008527591  0.7529577441530625
  0.7169169146327257  0.2872227614239792  0.0403804045272685
  0.2924022040501026  0.7227802166977799  0.9593455760325513
  0.7909488138990832  0.7909762981065090  0.0467785107626549
  0.7963050686519149  0.7912634121767737  0.4677107150793882
  0.1931488681175743  0.1982892585269531  0.5352111408511331
  0.4227921168621965  0.9852717983645198  0.2493935918846769
  0.2155573103998979  0.2159815471281316  0.9628813846047902
  0.2906171670490205  0.6795921263075385  0.5376375999730898
  0.7040097634491893  0.3119779801898842  0.4499711659887262
 
  0.00000000E+00  0.00000000E+00  0.00000000E+00
  0.00000000E+00  0.00000000E+00  0.00000000E+00
  0.00000000E+00  0.00000000E+00  0.00000000E+00
  0.00000000E+00  0.00000000E+00  0.00000000E+00
  0.00000000E+00  0.00000000E+00  0.00000000E+00
  0.00000000E+00  0.00000000E+00  0.00000000E+00
  0.00000000E+00  0.00000000E+00  0.00000000E+00
  0.00000000E+00  0.00000000E+00  0.00000000E+00
  0.00000000E+00  0.00000000E+00  0.00000000E+00
  0.00000000E+00  0.00000000E+00  0.00000000E+00
  0.00000000E+00  0.00000000E+00  0.00000000E+00
  0.00000000E+00  0.00000000E+00  0.00000000E+00
  0.00000000E+00  0.00000000E+00  0.00000000E+00
  0.00000000E+00  0.00000000E+00  0.00000000E+00
  0.00000000E+00  0.00000000E+00  0.00000000E+00
  0.00000000E+00  0.00000000E+00  0.00000000E+00
  0.00000000E+00  0.00000000E+00  0.00000000E+00
  0.00000000E+00  0.00000000E+00  0.00000000E+00
  0.00000000E+00  0.00000000E+00  0.00000000E+00
  0.00000000E+00  0.00000000E+00  0.00000000E+00
