Na2 Cr2 O4 F2                           
   1.00000000000000     
     3.6851059190752427   -0.0000000158615240    0.0001742204945021
     0.0000000855858294    3.9000340454930220    0.0000001625804708
    -0.0005443726957013    0.0000006395985447    7.3727516650270752
   Na   Cr   O    F 
     2     2     4     2
Direct
  0.9999521685660940  0.0000000728771722  0.0028090311584554
  0.9999168371832757  0.0000002099660603  0.5033878338809397
  0.5000318682097981  0.4999999045837440  0.2537924079110693
  0.4995500832008066  0.4999999699707222  0.7541460829228809
  0.5002311268911690  0.4999999668539239  0.0025424059644627
  0.5001955736602508  0.4999999876416996  0.5069350400009761
 -0.0000183455616047  0.5000000058274274  0.2549515777888673
  0.0002687571637602  0.5000000013604374  0.7551965027151526
  0.4999891013789608 -0.0000000719034846  0.2544900503256253
  0.4998828293074824 -0.0000000471777022  0.7547490673315630
 
  0.00000000E+00  0.00000000E+00  0.00000000E+00
  0.00000000E+00  0.00000000E+00  0.00000000E+00
  0.00000000E+00  0.00000000E+00  0.00000000E+00
  0.00000000E+00  0.00000000E+00  0.00000000E+00
  0.00000000E+00  0.00000000E+00  0.00000000E+00
  0.00000000E+00  0.00000000E+00  0.00000000E+00
  0.00000000E+00  0.00000000E+00  0.00000000E+00
  0.00000000E+00  0.00000000E+00  0.00000000E+00
  0.00000000E+00  0.00000000E+00  0.00000000E+00
  0.00000000E+00  0.00000000E+00  0.00000000E+00
