Na4 Ni4 O8 F4                           
   1.00000000000000     
     5.1154092251350267   -0.2085824227243396   -0.0038066748328249
    -0.2028845507782485    5.3153536187864452    0.0032231597890872
     0.0047032285147098   -0.0046499572674683    7.5712279831692566
   Na   Ni   O    F 
     4     4     8     4
Direct
  0.9972218191268999  0.0324575536654810  0.2461611829910540
  0.0026921756444800  0.9676940274314522  0.7461067167546787
  0.4807117001505231  0.4497064633299091  0.7491883146243621
  0.5196961710438771  0.5503551247038828  0.2491225178259085
  0.4854266008111613  0.0052846260635945  0.0004846243142396
  0.0053786816920317  0.4889210980444936  0.0014294844910517
  0.5144759307304239  0.9946068292670460  0.5004672892217609
  0.9946601456250090  0.5110535821668019  0.5015038686755984
  0.6978206207908916  0.2996775042160919  0.0538878811425022
  0.2917072609903692  0.7013677951623281  0.9424984266853106
  0.1982451650737292  0.2047917278197738  0.9669676302753896
  0.3022174875107935  0.7003613503323510  0.5538808736281430
  0.7083870413511953  0.2984261191194317  0.4425291356661318
  0.8016539318085641  0.7951565475638932  0.4669264125250120
  0.0576322940394595  0.4822987123239236  0.2524517050246143
  0.9422507029417364  0.5181441875800181  0.7525511676151350
  0.7872743298542134  0.7938411721420843  0.0348321637126086
  0.2127767201301514  0.2061504060310979  0.5346544753242704
  0.5944174185464947  0.0535782212396362  0.7521928185777960
  0.4053538021379961  0.9461269517967020  0.2521633109244183
 
  0.00000000E+00  0.00000000E+00  0.00000000E+00
  0.00000000E+00  0.00000000E+00  0.00000000E+00
  0.00000000E+00  0.00000000E+00  0.00000000E+00
  0.00000000E+00  0.00000000E+00  0.00000000E+00
  0.00000000E+00  0.00000000E+00  0.00000000E+00
  0.00000000E+00  0.00000000E+00  0.00000000E+00
  0.00000000E+00  0.00000000E+00  0.00000000E+00
  0.00000000E+00  0.00000000E+00  0.00000000E+00
  0.00000000E+00  0.00000000E+00  0.00000000E+00
  0.00000000E+00  0.00000000E+00  0.00000000E+00
  0.00000000E+00  0.00000000E+00  0.00000000E+00
  0.00000000E+00  0.00000000E+00  0.00000000E+00
  0.00000000E+00  0.00000000E+00  0.00000000E+00
  0.00000000E+00  0.00000000E+00  0.00000000E+00
  0.00000000E+00  0.00000000E+00  0.00000000E+00
  0.00000000E+00  0.00000000E+00  0.00000000E+00
  0.00000000E+00  0.00000000E+00  0.00000000E+00
  0.00000000E+00  0.00000000E+00  0.00000000E+00
  0.00000000E+00  0.00000000E+00  0.00000000E+00
  0.00000000E+00  0.00000000E+00  0.00000000E+00
