Mn2 O2 F4                               
   1.00000000000000     
    -2.4276973274587665   -4.1086353932876429    0.0303746475899132
    -4.7720254248031564   -0.0481330049778615    0.0303719336530985
    -2.3751155625508105   -1.3712723526838799   -4.2800681389490958
   Mn   O    F 
     2     2     4
Direct
  0.9976977061162278  0.0012113472803052  0.9766126326949539
  0.4987883010084228  0.5023025050446097  0.5233880622810468
  0.1070400166482899  0.7457113844775071  0.7513162146240806
  0.7542897059676144  0.3929603586418552  0.7486824988606059
  0.2566073127188936  0.6195469167228791  0.2460988641411637
  0.6130924866597028  0.8869080798142899  0.2499997183202645
  0.3920328541253432  0.1079664219272198  0.7500008427240051
  0.8804516167555054  0.2433929860913342  0.2539011663538792
 
  0.00000000E+00  0.00000000E+00  0.00000000E+00
  0.00000000E+00  0.00000000E+00  0.00000000E+00
  0.00000000E+00  0.00000000E+00  0.00000000E+00
  0.00000000E+00  0.00000000E+00  0.00000000E+00
  0.00000000E+00  0.00000000E+00  0.00000000E+00
  0.00000000E+00  0.00000000E+00  0.00000000E+00
  0.00000000E+00  0.00000000E+00  0.00000000E+00
  0.00000000E+00  0.00000000E+00  0.00000000E+00
