Na2 Mn2 O4 F2                           
   1.00000000000000     
    -2.8749742385631212   -4.6279615413870197    0.2144982571852388
    -5.4593062440745355   -0.1704013471892586    0.2276664729912697
    -2.5840730053570655   -1.4818310500616620   -4.2236910175254723
   Na   Mn   O    F 
     2     2     4     2
Direct
  0.2286813802503226  0.2807783347257180  0.2366748537679227
  0.7813443481158321  0.7286214997826949  0.7364096759719381
  0.0043059121897571  0.0050434799697631  0.9861390510848351
  0.5039584474062307  0.5063909928608252  0.4853031135686038
  0.2025264295670314  0.7062140535681252  0.2837826800977909
  0.2011024427233233  0.7089029017069151  0.7862512125801506
  0.8064941015120503  0.3025871315682263  0.6882341979147746
  0.8081385162294752  0.2995346811679787  0.1869256203532992
  0.6807949853937603  0.8735646536687836  0.2128947025072480
  0.3286534366122162  0.1343622709809763  0.7593848921534246
 
  0.00000000E+00  0.00000000E+00  0.00000000E+00
  0.00000000E+00  0.00000000E+00  0.00000000E+00
  0.00000000E+00  0.00000000E+00  0.00000000E+00
  0.00000000E+00  0.00000000E+00  0.00000000E+00
  0.00000000E+00  0.00000000E+00  0.00000000E+00
  0.00000000E+00  0.00000000E+00  0.00000000E+00
  0.00000000E+00  0.00000000E+00  0.00000000E+00
  0.00000000E+00  0.00000000E+00  0.00000000E+00
  0.00000000E+00  0.00000000E+00  0.00000000E+00
  0.00000000E+00  0.00000000E+00  0.00000000E+00
