Mn4 O4 F8                               
   1.00000000000000     
     4.7812663619698093   -0.0642962592941891   -0.0147680877381398
    -2.4493837235748090    4.1085922124815237   -0.0085983471122266
     0.0058150121815117    0.0201006442396849    9.1393248024244116
   Mn   O    F 
     4     4     8
Direct
  0.3285994760316052  0.6812693390065471  0.6026789561318117
  0.6795957256092529  0.3301949766846514  0.3978538169124430
  0.6761299309750045  0.3231943697897128  0.1026996017021546
  0.3245514077721179  0.6743277955606841  0.8978338652225984
  0.6511973832849680  0.9946736010640886  0.0006665606064882
 -0.0029265932388988  0.6482734729202946  0.0002513812711579
  0.6549096469960896  0.0042778131655795  0.5016775053039457
  0.0021942891878380  0.6580539367236377  0.4989683430104751
  0.3479441013699590  0.3446546360986740  0.9986727963120017
  0.3512035310013149  0.3545795553765520  0.4989253943288420
  0.6924078289853035  0.6258699956151249  0.2488837605232654
  0.0450227847663646  0.3652539627542080  0.7485360469351916
  0.3650849655015629  0.0452661304388507  0.2505442578537934
  0.6260570497622051  0.6923214415813351  0.7501344248864513
  0.9494433792813156  0.3085843276660327  0.2505448226592901
  0.3085850927140044  0.9492046455540276  0.7511284663400903
 
  0.00000000E+00  0.00000000E+00  0.00000000E+00
  0.00000000E+00  0.00000000E+00  0.00000000E+00
  0.00000000E+00  0.00000000E+00  0.00000000E+00
  0.00000000E+00  0.00000000E+00  0.00000000E+00
  0.00000000E+00  0.00000000E+00  0.00000000E+00
  0.00000000E+00  0.00000000E+00  0.00000000E+00
  0.00000000E+00  0.00000000E+00  0.00000000E+00
  0.00000000E+00  0.00000000E+00  0.00000000E+00
  0.00000000E+00  0.00000000E+00  0.00000000E+00
  0.00000000E+00  0.00000000E+00  0.00000000E+00
  0.00000000E+00  0.00000000E+00  0.00000000E+00
  0.00000000E+00  0.00000000E+00  0.00000000E+00
  0.00000000E+00  0.00000000E+00  0.00000000E+00
  0.00000000E+00  0.00000000E+00  0.00000000E+00
  0.00000000E+00  0.00000000E+00  0.00000000E+00
  0.00000000E+00  0.00000000E+00  0.00000000E+00
