Ti4 O4 F8                               
   1.00000000000000     
     5.6299889143194219   -0.0105048174364711   -0.0853849480608765
    -2.8240912205563515    4.8704705997366284   -0.0853810515213395
    -0.1440073289968652   -0.2494208811925893    9.3810030542690512
   Ti   O    F 
     4     4     8
Direct
  0.3655908666063566  0.6875212639892693  0.5963390510386007
  0.6343836399093898  0.3124753522281898  0.4036619620762208
  0.6875439001930171  0.3656122444127722  0.0963356774781526
  0.3124984317148485  0.6344063455190341  0.9036580963762113
  0.0000019841622730  0.5000154194116062 -0.0000139955141934
  0.5000026632051389  0.4999997391553450  0.0000056984430829
  0.4999768809870555 -0.0000202633310057  0.4999830686933498
  0.4999928201345077  0.4999809187765601  0.5000155671253843
  0.5000147864312398  0.0000167910930709  0.0000031140967253
 -0.0000030694740019  0.4999849285399474  0.5000019082594555
  0.8119713368542095  0.6276153621386048  0.2579674730211101
  0.1880424216739943  0.3723853942645944  0.7420433029173911
  0.3723828503068109  0.1880367100934643  0.2420394502004242
  0.6276155112250900  0.8119793734230821  0.7579617679661473
  0.8046778598807151  0.1953133919381858  0.2499990773014012
  0.1953071161893555  0.8046770283472723  0.7499987805205363
 
  0.00000000E+00  0.00000000E+00  0.00000000E+00
  0.00000000E+00  0.00000000E+00  0.00000000E+00
  0.00000000E+00  0.00000000E+00  0.00000000E+00
  0.00000000E+00  0.00000000E+00  0.00000000E+00
  0.00000000E+00  0.00000000E+00  0.00000000E+00
  0.00000000E+00  0.00000000E+00  0.00000000E+00
  0.00000000E+00  0.00000000E+00  0.00000000E+00
  0.00000000E+00  0.00000000E+00  0.00000000E+00
  0.00000000E+00  0.00000000E+00  0.00000000E+00
  0.00000000E+00  0.00000000E+00  0.00000000E+00
  0.00000000E+00  0.00000000E+00  0.00000000E+00
  0.00000000E+00  0.00000000E+00  0.00000000E+00
  0.00000000E+00  0.00000000E+00  0.00000000E+00
  0.00000000E+00  0.00000000E+00  0.00000000E+00
  0.00000000E+00  0.00000000E+00  0.00000000E+00
  0.00000000E+00  0.00000000E+00  0.00000000E+00
