Cr4 O4 F8                               
   1.00000000000000     
     4.8630496062634405    0.0438475384295102   -0.0052272153714250
     0.0405411073822556    5.1244608877725613   -0.0589747685697381
    -0.0298753928089007   -0.0953707589773558    7.1333920090787331
   Cr   O    F 
     4     4     8
Direct
  0.4885220329952745  0.9834080359261491  0.9972676179508780
  0.0208256454134508  0.5108257422107526  0.0093247859260584
  0.4959208044191431  0.0012357280358650  0.5013822440865795
  0.0021386388018387  0.5006093618929739  0.4840294474236564
  0.1237975219838459  0.4864523836418781  0.2510588607555811
  0.3253057201530323  0.6830296487113214  0.9439727338510284
  0.7702489342464205  0.7857781607047781  0.4588696061684491
  0.2168650730127647  0.2083669581434630  0.5438338667494922
  0.8882208229883545  0.5198021329110298  0.7529379932999207
  0.6241249121060066  0.0337012916620394  0.7512848829596639
  0.3657508786046365  0.9698184594057250  0.2491748621568656
  0.6876546355996196  0.3081366590402427  0.0543812217471182
  0.1784130618144991  0.1839474231122681  0.9351666384686403
  0.8242477200214270  0.8213794692677197  0.0675782700707735
  0.2907498602185499  0.7128527028363629  0.5728113977603900
  0.6972137376211432  0.2906558424974240  0.4269255706248974
 
  0.00000000E+00  0.00000000E+00  0.00000000E+00
  0.00000000E+00  0.00000000E+00  0.00000000E+00
  0.00000000E+00  0.00000000E+00  0.00000000E+00
  0.00000000E+00  0.00000000E+00  0.00000000E+00
  0.00000000E+00  0.00000000E+00  0.00000000E+00
  0.00000000E+00  0.00000000E+00  0.00000000E+00
  0.00000000E+00  0.00000000E+00  0.00000000E+00
  0.00000000E+00  0.00000000E+00  0.00000000E+00
  0.00000000E+00  0.00000000E+00  0.00000000E+00
  0.00000000E+00  0.00000000E+00  0.00000000E+00
  0.00000000E+00  0.00000000E+00  0.00000000E+00
  0.00000000E+00  0.00000000E+00  0.00000000E+00
  0.00000000E+00  0.00000000E+00  0.00000000E+00
  0.00000000E+00  0.00000000E+00  0.00000000E+00
  0.00000000E+00  0.00000000E+00  0.00000000E+00
  0.00000000E+00  0.00000000E+00  0.00000000E+00
