Na4 Mn4 O8 F4                           
   1.00000000000000     
     5.3726880223763009   -0.0000451573565925    0.1458392779903446
    -2.6915193605039582    4.6246686316737087   -0.0731353319939903
     0.0037265261904185    0.0041930790847889    8.9891854769121675
   Na   Mn   O    F 
     4     4     8     4
Direct
  0.9823665171605238  0.9384768820325522  0.0167835544258660
  0.0473921013642212  0.0626256051213675  0.5172086427871280
  0.3522390989994225  0.6554449135729090  0.2531153777089189
  0.6929053481715995  0.3471405379315097  0.7531054744086367
  0.4041468492901487  0.7335109870148352  0.6043794700874888
  0.6770303882067872  0.3707301675805347  0.3858717234627803
  0.6666134349008974  0.2661920759191970  0.1034483021630902
  0.3045951584392291  0.6285904705847029  0.8859330917116895
  0.4028737237713947  0.8952654104621572  0.0360013366261032
  0.9522915605463258  0.3467490766537007  0.9748805239009092
  0.5113452636212120  0.1038629042096517  0.5362264716199808
  0.6107472408536878  0.6536675382937146  0.4767622537935620
  0.8071548433824578  0.6000640509360463  0.2112939420722183
  0.2099414967585062  0.3992583936258225  0.7118046759853555
  0.6248616690594799  0.8630812391967884  0.7660226032357954
  0.7604978202647551  0.1370786844629840  0.2642878361289858
  0.4911080822035910  0.4384601762574727  0.9669573890110922
  0.0562835512780261  0.5599777727073620  0.4655152976354361
  0.3224967658089655  0.2008987352414595  0.2863904244982855
  0.1231090859187756  0.7989243781952104  0.7840116087366777
 
  0.00000000E+00  0.00000000E+00  0.00000000E+00
  0.00000000E+00  0.00000000E+00  0.00000000E+00
  0.00000000E+00  0.00000000E+00  0.00000000E+00
  0.00000000E+00  0.00000000E+00  0.00000000E+00
  0.00000000E+00  0.00000000E+00  0.00000000E+00
  0.00000000E+00  0.00000000E+00  0.00000000E+00
  0.00000000E+00  0.00000000E+00  0.00000000E+00
  0.00000000E+00  0.00000000E+00  0.00000000E+00
  0.00000000E+00  0.00000000E+00  0.00000000E+00
  0.00000000E+00  0.00000000E+00  0.00000000E+00
  0.00000000E+00  0.00000000E+00  0.00000000E+00
  0.00000000E+00  0.00000000E+00  0.00000000E+00
  0.00000000E+00  0.00000000E+00  0.00000000E+00
  0.00000000E+00  0.00000000E+00  0.00000000E+00
  0.00000000E+00  0.00000000E+00  0.00000000E+00
  0.00000000E+00  0.00000000E+00  0.00000000E+00
  0.00000000E+00  0.00000000E+00  0.00000000E+00
  0.00000000E+00  0.00000000E+00  0.00000000E+00
  0.00000000E+00  0.00000000E+00  0.00000000E+00
  0.00000000E+00  0.00000000E+00  0.00000000E+00
