V2 O2 F4                                
   1.00000000000000     
     3.8442179629431990    0.0000000246417453   -0.0000256214057227
     0.0000000081220801    3.8448881717132091    0.0000000887918306
     0.0019542491108317    0.0000001714339268    7.4393211801808041
   V    O    F 
     2     2     4
Direct
  0.5000734360638384  0.5000000052502205  0.2322621299920907
  0.5000735099373006  0.5000000037216894  0.7322672907456345
  0.4999440545385308  0.5000000142403513  0.0112627926872292
  0.4999440428556236  0.4999999963976409  0.5112596335319849
  0.4999520820401767  0.0000000182702646  0.2639904103308008
  0.4999519535774985  0.9999999938123275  0.7639888617537963
  0.0000304924458149  0.4999999877621450  0.2639852252933018
  0.0000304285412163  0.4999999805453536  0.7639836556651539
 
  0.00000000E+00  0.00000000E+00  0.00000000E+00
  0.00000000E+00  0.00000000E+00  0.00000000E+00
  0.00000000E+00  0.00000000E+00  0.00000000E+00
  0.00000000E+00  0.00000000E+00  0.00000000E+00
  0.00000000E+00  0.00000000E+00  0.00000000E+00
  0.00000000E+00  0.00000000E+00  0.00000000E+00
  0.00000000E+00  0.00000000E+00  0.00000000E+00
  0.00000000E+00  0.00000000E+00  0.00000000E+00
