Trimanganese(II/III) octafluoride       
   1.00000000000000     
     5.5398009170470681   -0.0005527572149239    0.0135756171674473
     0.0003476184734983    4.8721283039135388   -0.0003455993788754
    -0.4229380326569795    0.0002173905044696    9.8806820751195019
   Mn   F 
     6    16
Direct
  0.2485518863441598  0.9992995436135246  0.9956972706416352
  0.7514438957366565  0.4992743759038021  0.0043058074462650
  0.1045004196403667  0.9976562995266320  0.6373960962967047
  0.8954773122287776  0.4976047189966266  0.3626493250751253
  0.4010035193269132  0.0110336800877704  0.3465703779934231
  0.5989508694075951  0.5111394135446972  0.6534691471158993
  0.0467706048566470  0.2798370143694768  0.9393327897623180
  0.9532092826343970  0.7798476509401908  0.0606696045720412
  0.4495744515132003  0.7218466611776648  0.0589646194980276
  0.5503769183152514  0.2218527560291861  0.9410233474065564
  0.2791273193330568  0.1643024492471667  0.1692265438399119
  0.7208920880831897  0.6643244090042728  0.8307915778639483
  0.2206539167091890  0.8414334547826599  0.8185122469001200
  0.7793748064733137  0.3414507527713155  0.1814544450102247
  0.9224022039993045  0.6897818183560602  0.5699680450075704
  0.0776973205568510  0.1896228268693960  0.4301282279967111
  0.3910049318153668  0.8436210912619799  0.5603448541463436
  0.6091184376460603  0.3437960944281215  0.4395930011586984
  0.8185587523158802  0.1663467875539126  0.6771169974725026
  0.1813183152320335  0.6661333346162763  0.3227779837238387
  0.2822384474694175  0.3138149194999471  0.6737184771282472
  0.7177543543623699  0.8139799484193091  0.3262891199438798
 
  0.00000000E+00  0.00000000E+00  0.00000000E+00
  0.00000000E+00  0.00000000E+00  0.00000000E+00
  0.00000000E+00  0.00000000E+00  0.00000000E+00
  0.00000000E+00  0.00000000E+00  0.00000000E+00
  0.00000000E+00  0.00000000E+00  0.00000000E+00
  0.00000000E+00  0.00000000E+00  0.00000000E+00
  0.00000000E+00  0.00000000E+00  0.00000000E+00
  0.00000000E+00  0.00000000E+00  0.00000000E+00
  0.00000000E+00  0.00000000E+00  0.00000000E+00
  0.00000000E+00  0.00000000E+00  0.00000000E+00
  0.00000000E+00  0.00000000E+00  0.00000000E+00
  0.00000000E+00  0.00000000E+00  0.00000000E+00
  0.00000000E+00  0.00000000E+00  0.00000000E+00
  0.00000000E+00  0.00000000E+00  0.00000000E+00
  0.00000000E+00  0.00000000E+00  0.00000000E+00
  0.00000000E+00  0.00000000E+00  0.00000000E+00
  0.00000000E+00  0.00000000E+00  0.00000000E+00
  0.00000000E+00  0.00000000E+00  0.00000000E+00
  0.00000000E+00  0.00000000E+00  0.00000000E+00
  0.00000000E+00  0.00000000E+00  0.00000000E+00
  0.00000000E+00  0.00000000E+00  0.00000000E+00
  0.00000000E+00  0.00000000E+00  0.00000000E+00
