Na15 Mn16 O16 F32                       
   1.00000000000000     
    -5.7600610000000003   -9.5140250000000002    0.1827200000000000
   -11.1202959999999997   -0.2724680000000000    0.1618740000000000
    -5.4377490000000002   -3.1700539999999999   -8.9413140000000002
   Na   Mn   O    F 
    15    16    16    32
Direct
  0.4109462310921617  0.3321245534606312  0.4104658603354486
  0.1269618222060695  0.1398081493685408  0.1104190851750225
  0.1181772592707653  0.1393705110617967  0.6139516522851083
  0.1210017681616468  0.6362052368220432  0.1218493002795692
  0.1205595964582658  0.6365623132649857  0.6192568012808161
  0.6116083214202436  0.1412741895552296  0.1259955031677062
  0.6113691214227011  0.6346584747971278  0.1175341169935535
  0.6150301332873644  0.6339400266484903  0.6193081335383500
  0.3964774749511473  0.3610279643495092  0.8647559322959668
  0.3914068120913234  0.8690745252456648  0.3602870266162350
  0.3904469342525866  0.8646958519231769  0.8655042117252243
  0.8889439770045633  0.3621223572806924  0.3693174020760149
  0.8872598687851450  0.3617393409451461  0.8686994696027902
  0.8861080254002133  0.8696219122853571  0.3772794239863628
  0.8904137315737598  0.8717328827040812  0.8645616389167580
  0.9993424087276462  0.0037156695571592  0.4779094851099073
  0.0015369454026894 -0.0006848469537178  0.9815485849483779
  0.0047083835718952  0.5028615770597044  0.4788864355889916
  0.0002234643410227  0.5066470119957761  0.9754838617302997
  0.5037662795519459 -0.0031446980762567  0.4836195010539139
  0.5077248057580827 -0.0010300809102871  0.9747703036829615
  0.5078963831715358  0.5020526781171009  0.4786601534332047
  0.5040757923986958  0.4988528714430284  0.9798211497317737
  0.2533246347626019  0.2521260765219949  0.2599930323852176
  0.2515356964893364  0.2479661401103273  0.7640299962005556
  0.2541983000634186  0.7474372386252411  0.2623021366309842
  0.2523589655801536  0.7500722901438572  0.7594511140267968
  0.7569670980499669  0.2508541635997443  0.2595067243659372
  0.7534412339668295  0.2504059983793438  0.7583965139848315
  0.7567630893046848  0.7522310545960557  0.2577963227705092
  0.7538132691614304  0.7566865719918893  0.7573791957565689
  0.0987583568033271  0.3575627825021811  0.3894172565648886
  0.0931517639863339  0.3611260246990331  0.8875997806004798
  0.1073899838310739  0.8491325657415798  0.3956209768133572
  0.1040625552189451  0.8477952484034804  0.8971859704764399
  0.6159901440414988  0.3592364224774371  0.3856564639505453
  0.6050400023799622  0.3464703432255145  0.8983752388731552
  0.6036857263194197  0.8515101024606228  0.3923786870781237
  0.6013356438849563  0.8525180636635996  0.8919213309565827
  0.3978305150550527  0.1508501625211972  0.3537878217913046
  0.3836896492144000  0.1548390508964993  0.8662906823260975
  0.4069384570037727  0.6511526095786077  0.3425508987172426
  0.4035246418910181  0.6480614035149371  0.8434543513969853
  0.9164251549842400  0.1517441917174153  0.3314024063063583
  0.9065027130317665  0.1476599916135152  0.8419554322255850
  0.9054831725903864  0.6578415792695339  0.3444020745944130
  0.8986177803070342  0.6613668932528993  0.8443891322957600
  0.1076935227294147  0.3580986184296610  0.1310907144558246
  0.1090510348807381  0.3492210953516188  0.6402847971932392
  0.1018437310127670  0.8507826660113319  0.1478015102442968
  0.1007835748370335  0.8588810514052747  0.6419887494322959
  0.6051805262953504  0.3535341364336542  0.1458478861802618
  0.6072735337771031  0.3707943095768990  0.6397318307761912
  0.6125012666195224  0.8501706280547450  0.1358395572519578
  0.6122378172684816  0.8400859786131315  0.6452356730149822
  0.3327040254993764  0.4190446811212656  0.1145882057074578
  0.3358905473063128  0.4170720792634520  0.6158089652922575
  0.3319309197897024  0.9147618896916908  0.1241541564889845
  0.3301455850504175  0.9176634059428531  0.6196678096510720
  0.8308907192390461  0.4278857603825420  0.1152536116406981
  0.8328274868237879  0.4255577180029094  0.6228666850963194
  0.8274817012228922  0.9269560587626072  0.1178604826449866
  0.8356072161233784  0.9317759047929413  0.6035825245363636
  0.1734111948856354  0.0822298908188375  0.3699778522939626
  0.1694399340392782  0.0755167233311123  0.8841729377682533
  0.1833934569719825  0.5737461464298745  0.3739503688975888
  0.1801158734990019  0.5793293025940027  0.8599253562216579
  0.6681618246185725  0.0835712193253051  0.3702625762086142
  0.6742254864424199  0.0803967970531091  0.8722259306024561
  0.6816893419031379  0.5820093135240009  0.3686239924259032
  0.6733941215846487  0.5706726111654301  0.8768200719230568
  0.4051682640873200  0.1365602602046390  0.1045686876017661
  0.3867071713722927  0.1261640953550600  0.6217164250801334
  0.3967989165778674  0.6488996903673182  0.0950935346360841
  0.3962338545674891  0.6525298323659927  0.5935917406753225
  0.8953185149449723  0.1475486229753754  0.0985547644997690
  0.9016444521676994  0.1541738679884309  0.5928133677297369
  0.9081096205280046  0.6495515350130352  0.0943799885992328
  0.9032967188309814  0.6501069069358757  0.6019104636258934
 
             NaN             NaN             NaN
             NaN             NaN             NaN
             NaN             NaN             NaN
             NaN             NaN             NaN
             NaN             NaN             NaN
             NaN             NaN             NaN
             NaN             NaN             NaN
             NaN             NaN             NaN
             NaN             NaN             NaN
             NaN             NaN             NaN
             NaN             NaN             NaN
             NaN             NaN             NaN
             NaN             NaN             NaN
             NaN             NaN             NaN
             NaN             NaN             NaN
             NaN             NaN             NaN
             NaN             NaN             NaN
             NaN             NaN             NaN
             NaN             NaN             NaN
             NaN             NaN             NaN
             NaN             NaN             NaN
             NaN             NaN             NaN
             NaN             NaN             NaN
             NaN             NaN             NaN
             NaN             NaN             NaN
             NaN             NaN             NaN
             NaN             NaN             NaN
             NaN             NaN             NaN
             NaN             NaN             NaN
             NaN             NaN             NaN
             NaN             NaN             NaN
             NaN             NaN             NaN
             NaN             NaN             NaN
             NaN             NaN             NaN
             NaN             NaN             NaN
             NaN             NaN             NaN
             NaN             NaN             NaN
             NaN             NaN             NaN
             NaN             NaN             NaN
             NaN             NaN             NaN
             NaN             NaN             NaN
             NaN             NaN             NaN
             NaN             NaN             NaN
             NaN             NaN             NaN
             NaN             NaN             NaN
             NaN             NaN             NaN
             NaN             NaN             NaN
             NaN             NaN             NaN
             NaN             NaN             NaN
             NaN             NaN             NaN
             NaN             NaN             NaN
             NaN             NaN             NaN
             NaN             NaN             NaN
             NaN             NaN             NaN
             NaN             NaN             NaN
             NaN             NaN             NaN
             NaN             NaN             NaN
             NaN             NaN             NaN
             NaN             NaN             NaN
             NaN             NaN             NaN
             NaN             NaN             NaN
             NaN             NaN             NaN
             NaN             NaN             NaN
             NaN             NaN             NaN
             NaN             NaN             NaN
             NaN             NaN             NaN
             NaN             NaN             NaN
             NaN             NaN             NaN
             NaN             NaN             NaN
             NaN             NaN             NaN
             NaN             NaN             NaN
             NaN             NaN             NaN
             NaN             NaN             NaN
             NaN             NaN             NaN
             NaN             NaN             NaN
             NaN             NaN             NaN
             NaN             NaN             NaN
             NaN             NaN             NaN
             NaN             NaN             NaN
