Na15 Mn16 O16 F32
1.0
-5.760061 -9.514025 0.182720
-11.120296 -0.272468 0.161874
-5.437749 -3.170054 -8.941314
Na Mn O F
15 16 16 32
direct
0.427971 0.324059 0.413973 Na
0.118392 0.140345 0.113541 Na
0.116225 0.141049 0.616983 Na
0.115190 0.639382 0.118023 Na
0.113672 0.640597 0.617947 Na
0.614495 0.140322 0.118831 Na
0.613874 0.636041 0.122006 Na
0.613560 0.638155 0.618836 Na
0.393583 0.363636 0.863271 Na
0.389770 0.866669 0.367493 Na
0.391291 0.866485 0.865240 Na
0.888087 0.363600 0.369751 Na
0.888600 0.364954 0.868383 Na
0.889122 0.865051 0.369338 Na
0.889336 0.866165 0.866459 Na
-0.001725 0.002908 0.479355 Mn
0.002099 0.002347 0.977685 Mn
0.003069 0.502518 0.477411 Mn
0.002378 0.501976 0.976985 Mn
0.503102 0.003362 0.478714 Mn
0.504301 0.002298 0.975027 Mn
0.502556 0.500129 0.479270 Mn
0.503052 0.501882 0.978272 Mn
0.252594 0.251791 0.258745 Mn
0.254604 0.251905 0.756402 Mn
0.252801 0.751375 0.259594 Mn
0.252012 0.752437 0.758466 Mn
0.751955 0.250176 0.261457 Mn
0.751653 0.251667 0.757648 Mn
0.752159 0.752481 0.258820 Mn
0.751815 0.756339 0.756665 Mn
0.100559 0.352276 0.392636 O
0.099222 0.355283 0.889852 O
0.099958 0.853085 0.393137 O
0.100274 0.851119 0.894131 O
0.602662 0.360591 0.384003 O
0.601837 0.351485 0.893785 O
0.602333 0.851144 0.394373 O
0.599854 0.849044 0.897069 O
0.403150 0.151386 0.342613 O
0.393305 0.154355 0.853249 O
0.400283 0.655555 0.345781 O
0.402274 0.653476 0.843616 O
0.906343 0.154149 0.338577 O
0.903578 0.152938 0.841907 O
0.903971 0.653967 0.341939 O
0.901279 0.655605 0.843124 O
0.106660 0.353751 0.138876 F
0.105044 0.356307 0.638549 F
0.106306 0.853887 0.139571 F
0.104478 0.855390 0.639962 F
0.609604 0.354292 0.136427 F
0.607421 0.364032 0.637698 F
0.606500 0.853650 0.140475 F
0.605662 0.852921 0.640177 F
0.329415 0.424721 0.117000 F
0.329176 0.425858 0.619091 F
0.330002 0.922624 0.120292 F
0.328632 0.924274 0.618122 F
0.831841 0.424472 0.116052 F
0.830506 0.426072 0.618142 F
0.829204 0.925086 0.118010 F
0.834717 0.920242 0.617709 F
0.173348 0.079291 0.370112 F
0.174404 0.079069 0.869631 F
0.175735 0.580333 0.368232 F
0.175097 0.578068 0.868543 F
0.676549 0.079959 0.361245 F
0.674383 0.078192 0.875425 F
0.675204 0.580371 0.367735 F
0.675541 0.580811 0.866628 F
0.400347 0.146088 0.099114 F
0.391140 0.144823 0.601004 F
0.400869 0.648052 0.096888 F
0.397579 0.649658 0.598125 F
0.900743 0.147382 0.096090 F
0.900887 0.149552 0.596266 F
0.900249 0.648065 0.097068 F
0.899610 0.649641 0.596504 F
