Disodium phyllo-heptaoxotrititanate     
   1.00000000000000     
     8.5577047464050509    0.0000000767003732   -0.0286577263317226
     0.0000000338018578    3.8357724078070952    0.0000000140207202
    -1.8592971683564556    0.0000000105433203    8.9860334928265324
   Na   Ti   O 
     4     6    14
Direct
  0.6813010386613662  0.2499999909656588  0.5871820913447329
  0.3187004768766776  0.7500000072271783  0.4128167074818259
  0.4987973475410532  0.2500000049628370  0.1581113455193403
  0.5012021624714105  0.7499999877314354  0.8418879260211689
  0.0298870819076727  0.2500000155113522  0.2796869486077241
  0.9701132454552661  0.7499999992596670  0.7203168018895889
  0.2505891374875877  0.2499999902034321  0.6776892177009251
  0.7494102546441832  0.7500000397057702  0.3223077237441377
  0.1461083364122091  0.2499999903167701  0.9833729807578206
  0.8539003019977642  0.7500000236201582  0.0166334509446159
  0.2193292477581588  0.2499999814785359  0.1881259014697004
  0.7806780129966006  0.7499999949261142  0.8118818557788025
  0.1527472304126466  0.2499999793500862  0.4637615069669136
  0.8472339438313803  0.7499999833971686  0.5362464014690815
  0.4492209680574657  0.2500000155856530  0.6569184039443606
  0.5507725252669473  0.7500000117024639  0.3430546067540828
  0.3280824823633176  0.2499999956247121  0.9091697316939845
  0.6719204198089519  0.7499999900670002  0.0908157408831762
  0.0171212448978493  0.2499999864107542  0.7540958992259709
  0.9828781158428603  0.7500000082382694  0.2459252014402512
  0.8027573280057512  0.2500000097511030  0.3160868900342403
  0.1972411523577798  0.7499999863234950  0.6839106335899761
  0.9162576807931567  0.2500000157537411  0.0446721738124109
  0.0837502981519463  0.7499999918866509  0.9553298549251823
 
  0.00000000E+00  0.00000000E+00  0.00000000E+00
  0.00000000E+00  0.00000000E+00  0.00000000E+00
  0.00000000E+00  0.00000000E+00  0.00000000E+00
  0.00000000E+00  0.00000000E+00  0.00000000E+00
  0.00000000E+00  0.00000000E+00  0.00000000E+00
  0.00000000E+00  0.00000000E+00  0.00000000E+00
  0.00000000E+00  0.00000000E+00  0.00000000E+00
  0.00000000E+00  0.00000000E+00  0.00000000E+00
  0.00000000E+00  0.00000000E+00  0.00000000E+00
  0.00000000E+00  0.00000000E+00  0.00000000E+00
  0.00000000E+00  0.00000000E+00  0.00000000E+00
  0.00000000E+00  0.00000000E+00  0.00000000E+00
  0.00000000E+00  0.00000000E+00  0.00000000E+00
  0.00000000E+00  0.00000000E+00  0.00000000E+00
  0.00000000E+00  0.00000000E+00  0.00000000E+00
  0.00000000E+00  0.00000000E+00  0.00000000E+00
  0.00000000E+00  0.00000000E+00  0.00000000E+00
  0.00000000E+00  0.00000000E+00  0.00000000E+00
  0.00000000E+00  0.00000000E+00  0.00000000E+00
  0.00000000E+00  0.00000000E+00  0.00000000E+00
  0.00000000E+00  0.00000000E+00  0.00000000E+00
  0.00000000E+00  0.00000000E+00  0.00000000E+00
  0.00000000E+00  0.00000000E+00  0.00000000E+00
  0.00000000E+00  0.00000000E+00  0.00000000E+00
