Co2 O2 F4                               
   1.00000000000000     
     3.7813082555280797    0.0000366259762393   -0.0001525237093301
     0.0000358636840509    3.7813888802514644   -0.0000165503257897
    -0.0004075848098064   -0.0000290517671765    7.7232229545183193
   Co   O    F 
     2     2     4
Direct
  0.5000199707567544  0.4999952248270649  0.2288627511849083
  0.5000020643970253  0.5000002987869725  0.7288609488271161
  0.4999965075815523  0.4999984016402863  0.0055138177737907
  0.4999961311711358  0.4999984756129064  0.5055111535808596
  0.5000310982032650  0.0000011255899856  0.2685005461202257
  0.5000171422475992  0.0000018036347615  0.7686216858563569
 -0.0000266453535480  0.4999992752889967  0.2686280329093702
  0.9999637309962158  0.5000053946190262  0.7685010637473718
 
  0.00000000E+00  0.00000000E+00  0.00000000E+00
  0.00000000E+00  0.00000000E+00  0.00000000E+00
  0.00000000E+00  0.00000000E+00  0.00000000E+00
  0.00000000E+00  0.00000000E+00  0.00000000E+00
  0.00000000E+00  0.00000000E+00  0.00000000E+00
  0.00000000E+00  0.00000000E+00  0.00000000E+00
  0.00000000E+00  0.00000000E+00  0.00000000E+00
  0.00000000E+00  0.00000000E+00  0.00000000E+00
