Na4 V4 O8 F4                            
   1.00000000000000     
     5.6795244973999681   -0.0767747529938985   -0.1522435859733618
    -2.9077528620892572    4.7672581231461937    0.3441825947101971
    -0.3526617077409053    0.4258911355382672    9.1526512934098445
   Na   V    O    F 
     4     4     8     4
Direct
  0.0450354681628079 -0.0055074456315103  0.9483885327938399
  0.0111583971129950  0.0399754426428390  0.5445443165602459
  0.3698589214738291  0.6813753681244321  0.2514867043637648
  0.6015680413849399  0.3323089585900961  0.7373901604102628
  0.2668322726114951  0.6784158330987345  0.6250298228779495
  0.6855256567570321  0.3194900158997998  0.4010841778719864
  0.6812764442944154  0.2960766514700275  0.0936944884561921
  0.4114871475015400  0.7033121836967744  0.8998094278034789
  0.6611831930072247  0.0143886924734025  0.0058417660558451
  0.6031059957996329  0.4980171591021685  0.9636780393158874
  0.3957845558449551  0.0307792715759689  0.4932564910667239
  0.9066083970778849  0.5259251729368759  0.5385042540964168
  0.6613522420063679  0.5187671651873776  0.2516124090136626
  0.2147462864815982  0.3973507694844471  0.7543902978818778
  0.8197447404235439  0.1710268597379074  0.3113873315152555
  0.2184867169958913  0.8479299864847828  0.7796571210606448
  0.0985666078408513  0.5179426988934450  0.0532278288121379
  0.3754668245405554  0.5235186309066477  0.4802518507394675
  0.3049809026651725  0.0319085646841804  0.1543790168569007
  0.6672311880172740  0.8769980206416031  0.7123859624474657
 
  0.00000000E+00  0.00000000E+00  0.00000000E+00
  0.00000000E+00  0.00000000E+00  0.00000000E+00
  0.00000000E+00  0.00000000E+00  0.00000000E+00
  0.00000000E+00  0.00000000E+00  0.00000000E+00
  0.00000000E+00  0.00000000E+00  0.00000000E+00
  0.00000000E+00  0.00000000E+00  0.00000000E+00
  0.00000000E+00  0.00000000E+00  0.00000000E+00
  0.00000000E+00  0.00000000E+00  0.00000000E+00
  0.00000000E+00  0.00000000E+00  0.00000000E+00
  0.00000000E+00  0.00000000E+00  0.00000000E+00
  0.00000000E+00  0.00000000E+00  0.00000000E+00
  0.00000000E+00  0.00000000E+00  0.00000000E+00
  0.00000000E+00  0.00000000E+00  0.00000000E+00
  0.00000000E+00  0.00000000E+00  0.00000000E+00
  0.00000000E+00  0.00000000E+00  0.00000000E+00
  0.00000000E+00  0.00000000E+00  0.00000000E+00
  0.00000000E+00  0.00000000E+00  0.00000000E+00
  0.00000000E+00  0.00000000E+00  0.00000000E+00
  0.00000000E+00  0.00000000E+00  0.00000000E+00
  0.00000000E+00  0.00000000E+00  0.00000000E+00
