Na4 Ni4 O8 F4                           
   1.00000000000000     
     5.4939355126692710   -0.0174748401567914   -0.0504961158349822
    -2.7249270963711560    4.5042260823225329    0.1272669689529896
    -0.0382249314696660    0.1216904815359601    9.0052105878947746
   Na   Ni   O    F 
     4     4     8     4
Direct
  0.0258752589596126  0.0344212128729132  0.0542142905021101
  0.0066373671566103  0.9728639228913731  0.4473021048975047
  0.3456763526815729  0.6630118999899380  0.2370804462398376
  0.6588278273173462  0.3686003197143455  0.7609338765387499
  0.3171978459761567  0.6438425381852534  0.6136695289358717
  0.6557721847217987  0.3040802871402922  0.4072565377677399
  0.6887969530766381  0.3513562571039225  0.1032183603502698
  0.3475796113218129  0.7209678520849393  0.8803514972442648
  0.4239766861357929  0.0481852792891064  0.9742936939659075
  0.0525554281612500  0.5050629150437231  0.0150767228997848
  0.3886295948391481  0.9026951563800050  0.4632956012065256
  0.9824969593077273  0.3716433521594298  0.5167226110471388
  0.5323312599383809  0.5093861965610690  0.5221802145721502
  0.8693262226562943  0.6240717963405202  0.2650795706914257
  0.6166590847235356  0.8898449128231449  0.7327173064247772
  0.1365605285481584  0.7607469769122946  0.7347565257530840
  0.5953031253036535  0.6497256904921239  0.0065802507307733
  0.2394864514824722  0.3603685743187697  0.7794381621620736
  0.3483069619834426  0.2284728898331843  0.2433829308225003
  0.7680042957085950  0.0906519698636313  0.2424497672475173
 
  0.00000000E+00  0.00000000E+00  0.00000000E+00
  0.00000000E+00  0.00000000E+00  0.00000000E+00
  0.00000000E+00  0.00000000E+00  0.00000000E+00
  0.00000000E+00  0.00000000E+00  0.00000000E+00
  0.00000000E+00  0.00000000E+00  0.00000000E+00
  0.00000000E+00  0.00000000E+00  0.00000000E+00
  0.00000000E+00  0.00000000E+00  0.00000000E+00
  0.00000000E+00  0.00000000E+00  0.00000000E+00
  0.00000000E+00  0.00000000E+00  0.00000000E+00
  0.00000000E+00  0.00000000E+00  0.00000000E+00
  0.00000000E+00  0.00000000E+00  0.00000000E+00
  0.00000000E+00  0.00000000E+00  0.00000000E+00
  0.00000000E+00  0.00000000E+00  0.00000000E+00
  0.00000000E+00  0.00000000E+00  0.00000000E+00
  0.00000000E+00  0.00000000E+00  0.00000000E+00
  0.00000000E+00  0.00000000E+00  0.00000000E+00
  0.00000000E+00  0.00000000E+00  0.00000000E+00
  0.00000000E+00  0.00000000E+00  0.00000000E+00
  0.00000000E+00  0.00000000E+00  0.00000000E+00
  0.00000000E+00  0.00000000E+00  0.00000000E+00
