Ni4 O4 F8                               
   1.00000000000000     
     5.3903086319464997    0.0001800502562900   -0.1383317030765137
    -2.6406183711545705    4.7091309726649264    0.0399499336900729
    -0.3323828526621243    0.1200695141388832    9.3330880838701926
   Ni   O    F 
     4     4     8
Direct
  0.3243193764815240  0.6623506991210448  0.6115594779394926
  0.6601680334828912  0.3196665399598091  0.3979795439353797
  0.6618500614239560  0.3284030140323032  0.1156345868680259
  0.3127424399316715  0.6627451306128265  0.8945425504575941
  0.0248396241624207  0.5024720126303652  0.0082026833467443
  0.4982343638616526  0.9943708323138455  0.5020327692706923
  0.0040502708590502  0.5183467067325938  0.4979712685663267
  0.6138053314024083  0.7965819666526923  0.7414979799572300
  0.5309682185429192  0.0190738605116713 -0.0036627850585464
  0.5514594798084480  0.5268366728772584 -0.0152555373803961
  0.4837898407860806  0.4820886729158039  0.5049300776427742
  0.8173589922469100  0.6245641188332869  0.2481502485606910
  0.1593586692398371  0.3643251279092736  0.7466506771912028
  0.3594090514593566  0.1912477193786435  0.2467553425593137
  0.8104374745042490  0.1700256216702782  0.2566371511293884
  0.1872087718066180  0.8369013038483034  0.7463739650140937
 
  0.00000000E+00  0.00000000E+00  0.00000000E+00
  0.00000000E+00  0.00000000E+00  0.00000000E+00
  0.00000000E+00  0.00000000E+00  0.00000000E+00
  0.00000000E+00  0.00000000E+00  0.00000000E+00
  0.00000000E+00  0.00000000E+00  0.00000000E+00
  0.00000000E+00  0.00000000E+00  0.00000000E+00
  0.00000000E+00  0.00000000E+00  0.00000000E+00
  0.00000000E+00  0.00000000E+00  0.00000000E+00
  0.00000000E+00  0.00000000E+00  0.00000000E+00
  0.00000000E+00  0.00000000E+00  0.00000000E+00
  0.00000000E+00  0.00000000E+00  0.00000000E+00
  0.00000000E+00  0.00000000E+00  0.00000000E+00
  0.00000000E+00  0.00000000E+00  0.00000000E+00
  0.00000000E+00  0.00000000E+00  0.00000000E+00
  0.00000000E+00  0.00000000E+00  0.00000000E+00
  0.00000000E+00  0.00000000E+00  0.00000000E+00
