Nonasodium heptaoxocobaltate(II)cobaltat
   1.00000000000000     
     9.4607590429443977   -0.0002701193427396    0.0023314020290174
    -0.0002530537092886    9.7915835261335964   -0.0000387053439030
    -0.0082253193041625   -0.0001819967503725   10.0078446510842038
   Co   Na   O 
     8    36    28
Direct
  0.1551726776798038  0.3995210053798405  0.9738981117394898
  0.8450582811305004  0.6006574406092090  0.4739849850519411
  0.6551689012015554  0.6004766853886042  0.9739110577146913
  0.3450500310002484  0.3993460695115182  0.4739863135596070
  0.1921268267783704  0.9285104508769774  0.8109256361088102
  0.8086519658793349  0.0699459722407326  0.3082263599609277
  0.6921878552270715  0.0715800996153319  0.8109456357140439
  0.3086712963600436  0.9300721970028799  0.3082063126605856
  0.0892535403104480  0.5140594398959825  0.5945246611365957
  0.9109728442759436  0.4863292560197230  0.0947167108827976
  0.5892715412178191  0.4859191209213722  0.5945118460875598
  0.4109820091486400  0.5136459597593294  0.0947098000717353
  0.2734391813739798  0.2871364262348059  0.7285297524212124
  0.7256936973577728  0.7130886963552947  0.2291805794445353
  0.7734338665245956  0.7128711152172196  0.7285271394092423
  0.2256849227659818  0.2869080552560987  0.2291826885877888
  0.0659033618962328  0.6679031792606681  0.8612124533392537
  0.9340966312698166  0.3321494333597262  0.3616860080117749
  0.5658880136306187  0.3320662617201441  0.8611593177395452
  0.4341082199932322  0.6678249863252607  0.3617242427723908
  0.0177476923660441  0.1568163020223070  0.8820424293204457
  0.9825511987401540  0.8430167241292263  0.3820152767038273
  0.5177912154186812  0.8432162891284073  0.8820909929553484
  0.4825158702116326  0.1569698565250495  0.3820196745656904
  0.1551213586528371  0.5580901166103608  0.2964717096378603
  0.8450219910664097  0.4419173288046315  0.7963215669919338
  0.6551232482418700  0.4419068886728672  0.2964600428004217
  0.3450112149835464  0.5581271069035449  0.7963531483549263
  0.2150898674050808  0.7744861734685534  0.5570332249332661
  0.7855696111447437  0.2258204052972824  0.0579530567378460
  0.7150561481916499  0.2255039984917557  0.5569625937427225
  0.2855427262655963  0.7741475046129098  0.0584344952548311
  0.9877114070396772  0.2565853568470980  0.6293770287191105
  0.0122883576739534  0.7429147267319262  0.1296259570278333
  0.4877161529521460  0.7434381110430224  0.6293955989651038
  0.5123457204221841  0.2571278336547545  0.1295933257907164
  0.1627046208377826  0.1082061237304491  0.4857784564703449
  0.8371998803148569  0.8909863468873694  0.9840829729619226
  0.6626767449630755  0.8918011950164298  0.4857950054549891
  0.3371739048456485  0.1090053817177963  0.9840658188675274
  0.0740540728063040  0.0476461879740895  0.1519566024959521
  0.9262050644275922  0.9544508750808059  0.6525951498856899
  0.5740648787440030  0.9524198004303130  0.1519777501533087
  0.4260868918768272  0.0454882362893517  0.6526875648422727
  0.0377907144105117  0.2800700595742716  0.0754723448662198
  0.9624062462735179  0.7205043309668154  0.5754708678833482
  0.5378474496862644  0.7199449030590589  0.0754661407939348
  0.4623520735283135  0.2794569082844403  0.5754545507396608
  0.3424577146411616  0.3392266681541993  0.9521657358999771
  0.6577366281178485  0.6609593080029096  0.4518176758288440
  0.8424659104654472  0.6607467988174694  0.9521653687941842
  0.1577377807856655  0.3389939314834416  0.4518238265900079
  0.3061441945271623  0.7853544277089388  0.7872691978282940
  0.6950806344717604  0.2149844482101840  0.2883981270485744
  0.8061398598141905  0.2148020467863754  0.7872457677360866
  0.1951097582694198  0.7849535077297276  0.2884469752839787
  0.0762897843440028  0.9260540362015153  0.9633316029360319
  0.9213428104254202  0.0779915036293173  0.4644926109933138
  0.5763796395356739  0.0739882023157989  0.9633547985216389
  0.4213038057341701  0.9219162570287086  0.4644953489627799
  0.1596831497160965  0.0843635162037751  0.7105309532762930
  0.8392687142384027  0.9162108313996864  0.2087028531919193
  0.6596610393148364  0.9156991146322917  0.7105782923567214
  0.3392784532310006  0.0837477193890359  0.2086662550456765
  0.1709310721094607  0.5674605024309536  0.0569770978978022
  0.8290977082423407  0.4330765260482236  0.5571226369907930
  0.6709113788467510  0.4325429031025421  0.0569979221245361
  0.3291006926052989  0.5669110937672882  0.5571557482452910
  0.0865568476979740  0.4208807240014960  0.8003938209926382
  0.9136005263394633  0.5805881017650639  0.3001994238825245
  0.5865451558617071  0.5790890273610880  0.8003988922920673
  0.4135946931518547  0.4193819109243514  0.3002061769484302
 
  0.00000000E+00  0.00000000E+00  0.00000000E+00
  0.00000000E+00  0.00000000E+00  0.00000000E+00
  0.00000000E+00  0.00000000E+00  0.00000000E+00
  0.00000000E+00  0.00000000E+00  0.00000000E+00
  0.00000000E+00  0.00000000E+00  0.00000000E+00
  0.00000000E+00  0.00000000E+00  0.00000000E+00
  0.00000000E+00  0.00000000E+00  0.00000000E+00
  0.00000000E+00  0.00000000E+00  0.00000000E+00
  0.00000000E+00  0.00000000E+00  0.00000000E+00
  0.00000000E+00  0.00000000E+00  0.00000000E+00
  0.00000000E+00  0.00000000E+00  0.00000000E+00
  0.00000000E+00  0.00000000E+00  0.00000000E+00
  0.00000000E+00  0.00000000E+00  0.00000000E+00
  0.00000000E+00  0.00000000E+00  0.00000000E+00
  0.00000000E+00  0.00000000E+00  0.00000000E+00
  0.00000000E+00  0.00000000E+00  0.00000000E+00
  0.00000000E+00  0.00000000E+00  0.00000000E+00
  0.00000000E+00  0.00000000E+00  0.00000000E+00
  0.00000000E+00  0.00000000E+00  0.00000000E+00
  0.00000000E+00  0.00000000E+00  0.00000000E+00
  0.00000000E+00  0.00000000E+00  0.00000000E+00
  0.00000000E+00  0.00000000E+00  0.00000000E+00
  0.00000000E+00  0.00000000E+00  0.00000000E+00
  0.00000000E+00  0.00000000E+00  0.00000000E+00
  0.00000000E+00  0.00000000E+00  0.00000000E+00
  0.00000000E+00  0.00000000E+00  0.00000000E+00
  0.00000000E+00  0.00000000E+00  0.00000000E+00
  0.00000000E+00  0.00000000E+00  0.00000000E+00
  0.00000000E+00  0.00000000E+00  0.00000000E+00
  0.00000000E+00  0.00000000E+00  0.00000000E+00
  0.00000000E+00  0.00000000E+00  0.00000000E+00
  0.00000000E+00  0.00000000E+00  0.00000000E+00
  0.00000000E+00  0.00000000E+00  0.00000000E+00
  0.00000000E+00  0.00000000E+00  0.00000000E+00
  0.00000000E+00  0.00000000E+00  0.00000000E+00
  0.00000000E+00  0.00000000E+00  0.00000000E+00
  0.00000000E+00  0.00000000E+00  0.00000000E+00
  0.00000000E+00  0.00000000E+00  0.00000000E+00
  0.00000000E+00  0.00000000E+00  0.00000000E+00
  0.00000000E+00  0.00000000E+00  0.00000000E+00
  0.00000000E+00  0.00000000E+00  0.00000000E+00
  0.00000000E+00  0.00000000E+00  0.00000000E+00
  0.00000000E+00  0.00000000E+00  0.00000000E+00
  0.00000000E+00  0.00000000E+00  0.00000000E+00
  0.00000000E+00  0.00000000E+00  0.00000000E+00
  0.00000000E+00  0.00000000E+00  0.00000000E+00
  0.00000000E+00  0.00000000E+00  0.00000000E+00
  0.00000000E+00  0.00000000E+00  0.00000000E+00
  0.00000000E+00  0.00000000E+00  0.00000000E+00
  0.00000000E+00  0.00000000E+00  0.00000000E+00
  0.00000000E+00  0.00000000E+00  0.00000000E+00
  0.00000000E+00  0.00000000E+00  0.00000000E+00
  0.00000000E+00  0.00000000E+00  0.00000000E+00
  0.00000000E+00  0.00000000E+00  0.00000000E+00
  0.00000000E+00  0.00000000E+00  0.00000000E+00
  0.00000000E+00  0.00000000E+00  0.00000000E+00
  0.00000000E+00  0.00000000E+00  0.00000000E+00
  0.00000000E+00  0.00000000E+00  0.00000000E+00
  0.00000000E+00  0.00000000E+00  0.00000000E+00
  0.00000000E+00  0.00000000E+00  0.00000000E+00
  0.00000000E+00  0.00000000E+00  0.00000000E+00
  0.00000000E+00  0.00000000E+00  0.00000000E+00
  0.00000000E+00  0.00000000E+00  0.00000000E+00
  0.00000000E+00  0.00000000E+00  0.00000000E+00
  0.00000000E+00  0.00000000E+00  0.00000000E+00
  0.00000000E+00  0.00000000E+00  0.00000000E+00
  0.00000000E+00  0.00000000E+00  0.00000000E+00
  0.00000000E+00  0.00000000E+00  0.00000000E+00
  0.00000000E+00  0.00000000E+00  0.00000000E+00
  0.00000000E+00  0.00000000E+00  0.00000000E+00
  0.00000000E+00  0.00000000E+00  0.00000000E+00
  0.00000000E+00  0.00000000E+00  0.00000000E+00
