Fe4 O4 F8                               
   1.00000000000000     
     5.5436212572920631    0.1043558618047494   -0.0014753450936741
    -2.6972637069464929    4.8557479230650902    0.0015874037791885
    -0.0022702033032400    0.0015859406214855    9.7302212862482538
   Fe   O    F 
     4     4     8
Direct
  0.3286221191878077  0.6619531493142703  0.6087674562123775
  0.6750424064237458  0.3393487306065642  0.3909739923937132
  0.6750047660017766  0.3394365283371440  0.1090657257215085
  0.3278548388959501  0.6626888341076965  0.8912654162029292
  0.4940840725611079  0.0073991565619072 -0.0041346918555390
  0.4940052893550765  0.0070857225350216  0.5041636907711016
  0.1920420777631380  0.3719924040818269  0.7501199973201607
  0.7488373238509218  0.1211803927455390  0.2500087306782806
  0.9955687551841087  0.4997690425749107  0.9961916644353606
  0.5047482551868239  0.5192056083520558  0.0103273413299741
  0.9958135878679606  0.4998612356217123  0.5038406207969406
  0.5049135489133744  0.5190926348443108  0.4894990994238109
  0.8473324526679645  0.6230315537847884  0.2499742011949888
  0.3813318284201933  0.2207478293051862  0.2499795802679145
  0.6193176273400770  0.7615364322681052  0.7500753787998483
  0.2154810503799736  0.8456707449589539  0.7498817963066235
 
  0.00000000E+00  0.00000000E+00  0.00000000E+00
  0.00000000E+00  0.00000000E+00  0.00000000E+00
  0.00000000E+00  0.00000000E+00  0.00000000E+00
  0.00000000E+00  0.00000000E+00  0.00000000E+00
  0.00000000E+00  0.00000000E+00  0.00000000E+00
  0.00000000E+00  0.00000000E+00  0.00000000E+00
  0.00000000E+00  0.00000000E+00  0.00000000E+00
  0.00000000E+00  0.00000000E+00  0.00000000E+00
  0.00000000E+00  0.00000000E+00  0.00000000E+00
  0.00000000E+00  0.00000000E+00  0.00000000E+00
  0.00000000E+00  0.00000000E+00  0.00000000E+00
  0.00000000E+00  0.00000000E+00  0.00000000E+00
  0.00000000E+00  0.00000000E+00  0.00000000E+00
  0.00000000E+00  0.00000000E+00  0.00000000E+00
  0.00000000E+00  0.00000000E+00  0.00000000E+00
  0.00000000E+00  0.00000000E+00  0.00000000E+00
