Ti2 O1                                  
   1.00000000000000     
     2.9769994856516515   -0.0000141298958958   -0.0000049450793616
    -1.4885119796684889    2.5781501378417109    0.0000049443531972
    -0.0000082180467694    0.0000047423423894    4.8918330094021103
   Ti   O 
     2     1
Direct
  0.6666684556525837  0.3333315312353875  0.7292481865137148
  0.3333315412220799  0.6666684730684267  0.2707498482715209
  0.0000000031253293  0.9999999956961858  0.0000019652147643
 
  0.00000000E+00  0.00000000E+00  0.00000000E+00
  0.00000000E+00  0.00000000E+00  0.00000000E+00
  0.00000000E+00  0.00000000E+00  0.00000000E+00
