Na4 Cr4 O8 F4                           
   1.00000000000000     
     5.2400721805509249    0.2041137248561368   -0.0257468811748644
     0.1923197275931354    5.3259697791349838   -0.0018983469327504
    -0.0399190117770216   -0.0070692139652324    7.3897364513153780
   Na   Cr   O    F 
     4     4     8     4
Direct
  0.9790397042456767  0.0422750082134411  0.2502378209779560
  0.0030240165524289  0.9841488129190363  0.7522611542240830
  0.5030469288236280  0.4448038222732988  0.7587780144798750
  0.5023428970147883  0.5227840922308348  0.2423071021339603
  0.4702153039544787  0.9708137505979267  0.0128876610238105
  0.0120393062596989  0.5198943150512185  0.0030281821654191
  0.4957579991328585  0.9942300022951855  0.4839910902021647
  0.0059348681504811  0.5010567098714261  0.5064962409158922
  0.0679154758031047  0.4992057090347334  0.2537648518463182
  0.9316571665662610  0.5045014192105368  0.7481359939259071
  0.4048894210660371  0.9563192753652492  0.2491371823061103
  0.2863966053431877  0.7257546428708083  0.9498313216911830
  0.2490128294496488  0.2242342274892928  0.9695309780763330
  0.7721107347070668  0.8050223753456242  0.0292353618624925
  0.7953532080229374  0.8002389057345463  0.4681339536651468
  0.2111547071309210  0.2017034926449939  0.5346602188645448
  0.5776552254749133  0.0177509898983704  0.7453873666046048
  0.7275676209793530  0.2944548898037600  0.0397287212841194
  0.3052600942549733  0.6992373765045686  0.5459513884003671
  0.6996258870675648  0.2915701826451342  0.4565153953497190
 
  0.00000000E+00  0.00000000E+00  0.00000000E+00
  0.00000000E+00  0.00000000E+00  0.00000000E+00
  0.00000000E+00  0.00000000E+00  0.00000000E+00
  0.00000000E+00  0.00000000E+00  0.00000000E+00
  0.00000000E+00  0.00000000E+00  0.00000000E+00
  0.00000000E+00  0.00000000E+00  0.00000000E+00
  0.00000000E+00  0.00000000E+00  0.00000000E+00
  0.00000000E+00  0.00000000E+00  0.00000000E+00
  0.00000000E+00  0.00000000E+00  0.00000000E+00
  0.00000000E+00  0.00000000E+00  0.00000000E+00
  0.00000000E+00  0.00000000E+00  0.00000000E+00
  0.00000000E+00  0.00000000E+00  0.00000000E+00
  0.00000000E+00  0.00000000E+00  0.00000000E+00
  0.00000000E+00  0.00000000E+00  0.00000000E+00
  0.00000000E+00  0.00000000E+00  0.00000000E+00
  0.00000000E+00  0.00000000E+00  0.00000000E+00
  0.00000000E+00  0.00000000E+00  0.00000000E+00
  0.00000000E+00  0.00000000E+00  0.00000000E+00
  0.00000000E+00  0.00000000E+00  0.00000000E+00
  0.00000000E+00  0.00000000E+00  0.00000000E+00
