Na2 Co2 O4 F2                           
   1.00000000000000     
     3.8750743415858127    0.0000051179447505    0.0006650763131541
    -0.0000017807287653    3.8767088665347278    0.0003454193733731
     0.0021360658278544    0.0006480296269164    7.2010281704227079
   Na   Co   O    F 
     2     2     4     2
Direct
 -0.0000078055626940 -0.0000270769454335  0.0010408513647637
 -0.0000358478593049 -0.0000009956782194  0.5011375863018569
  0.5000022810058043  0.5000099012660509  0.2545909194670996
  0.4999391922222244  0.5000014725760911  0.7545881575151727
  0.4998142223690390  0.5000731905403594  0.0049687876346135
  0.5001879895495205  0.4999115458187320  0.5050499402877160
  0.4999656841785378  0.0000031379714085  0.7548262468459132
  0.0001222071475510  0.5000121976240368  0.2548442218838922
  0.4999085488597625  0.0000057650495611  0.2559798194007818
  0.0001035280895521  0.5000108617774198  0.7559734692981901
 
  0.00000000E+00  0.00000000E+00  0.00000000E+00
  0.00000000E+00  0.00000000E+00  0.00000000E+00
  0.00000000E+00  0.00000000E+00  0.00000000E+00
  0.00000000E+00  0.00000000E+00  0.00000000E+00
  0.00000000E+00  0.00000000E+00  0.00000000E+00
  0.00000000E+00  0.00000000E+00  0.00000000E+00
  0.00000000E+00  0.00000000E+00  0.00000000E+00
  0.00000000E+00  0.00000000E+00  0.00000000E+00
  0.00000000E+00  0.00000000E+00  0.00000000E+00
  0.00000000E+00  0.00000000E+00  0.00000000E+00
