Na15 Mn16 O16 F32                       
   1.00000000000000     
    -5.7578920000000000   -9.5132879999999993    0.1835890000000000
   -11.1193360000000006   -0.2704880000000000    0.1623720000000000
    -5.4366070000000004   -3.1687419999999999   -8.9452669999999994
   Na   Mn   O    F 
    15    16    16    32
Direct
  0.4956377228551523  0.2428643881833351  0.5066188148828529
  0.1279923976449693  0.1377890117488958  0.1159717427671894
  0.1188259949723830  0.1395591505995150  0.6157776877931884
  0.1243264889116503  0.6360693626838907  0.1204483900427969
  0.1219937820144524  0.6356260927335848  0.6137352388530722
  0.6091779875911715  0.1457406281352298  0.1240957398712311
  0.6084936087992721  0.6373956793916249  0.1167071458330661
  0.6154177092087808  0.6346411967359221  0.6210277811064291
  0.3949996044206732  0.3584474113024442  0.8601063023957561
  0.3895702332910245  0.8746406302330463  0.3576284020576520
  0.3890385445235487  0.8670606578608412  0.8664198163674722
  0.8904556818462122  0.3616523973514010  0.3711986581872235
  0.8832220020700602  0.3628646979357126  0.8723882324199370
  0.8847073631021556  0.8718122993599302  0.3760584020069488
  0.8888279822940210  0.8748232035644369  0.8613570290321609
  0.9972721014494009  0.0057201815856256  0.4768516855284217
 -0.0012134571075330 -0.0007725265095914  0.9831550679690160
  0.0060856811580164  0.5038267726576122  0.4778459741753964
  0.0000583116559315  0.5105692674297656  0.9737329425417414
  0.4989186864849129 -0.0079015169139857  0.4825187381399286
  0.5067894756254405 -0.0002921375492544  0.9737816392935262
  0.5096153869693414  0.5109268915591068  0.4699855151949103
  0.5028791420293672  0.5000007239167532  0.9786497674267348
  0.2521067176069968  0.2545600886797989  0.2596250870172941
  0.2401830932985392  0.2472023947370895  0.7704431287079933
  0.2537451285631970  0.7457769538978405  0.2630938351384359
  0.2503369544314408  0.7488541198224559  0.7593132740245221
  0.7594009733409247  0.2606684944829974  0.2503314617641773
  0.7516447138942126  0.2533087444675852  0.7564838464503797
  0.7603933906388581  0.7524731938100911  0.2555057431989479
  0.7537873709975230  0.7563690496001139  0.7565866995490987
  0.0991337900853845  0.3567617603762894  0.3911835393428361
  0.0921324955600315  0.3572813822785300  0.8958392718986213
  0.1070045707285253  0.8530086745223310  0.3927237711038790
  0.1038454942609803  0.8506898175007759  0.8943202281169244
  0.6282834587143701  0.3768764718801935  0.3692801831918572
  0.6000893038795225  0.3508218675173788  0.8929337980474176
  0.6079723507833471  0.8465017517307718  0.3929953783615718
  0.6052517639401340  0.8496979422994418  0.8927011528265553
  0.3990461157588360  0.1411342275071125  0.3495768273914346
  0.3909743240481050  0.1484774937864699  0.8530712394442292
  0.4038550192727182  0.6538566408691756  0.3421288635694335
  0.4009560711477212  0.6499382749638233  0.8421338418674720
  0.9138212793252964  0.1566636491035236  0.3309126785558393
  0.8998409550409384  0.1497506056701791  0.8463765985802564
  0.9097622096650642  0.6590308365606160  0.3400305815314631
  0.9035439069401670  0.6613467628852391  0.8387331408985643
  0.1027148329738341  0.3644876386335266  0.1322427992770857
  0.0964685236926993  0.3515529199554320  0.6492560484474408
  0.1056416358523759  0.8473877055701097  0.1500129921136930
  0.0993303988090340  0.8579440462920431  0.6405037785833632
  0.6157459048949799  0.3543402482638094  0.1354228598059050
  0.6027529983302026  0.3708492715924822  0.6314905017403817
  0.6116154378994750  0.8532787620489996  0.1365939017149431
  0.6080838258604652  0.8431192763094248  0.6465170988732849
  0.3327882728798545  0.4172353101120870  0.1145742046722771
  0.3279917228045434  0.4117555426755474  0.6244932667385422
  0.3343365203470096  0.9134458339933108  0.1220502258262234
  0.3289305550262164  0.9123971277993428  0.6115950747234102
  0.8314549553650490  0.4390829822561875  0.1032550086983794
  0.8306808836287782  0.4263354062633471  0.6190259612433952
  0.8265237901353226  0.9287324360871515  0.1207302943235565
  0.8310232382578716  0.9373936298867881  0.6014345707834686
  0.1699513881536805  0.0862351012172523  0.3667493450176951
  0.1620776232174009  0.0744146817637108  0.8935678998177667
  0.1750665995962313  0.5824382242180597  0.3763919982159112
  0.1805835488320956  0.5782993667295686  0.8590909671622884
  0.6613008133131822  0.0816488975680126  0.3788398451541532
  0.6716805484428003  0.0830507623051600  0.8703562596346635
  0.6946870651302219  0.5846008876982014  0.3615905037684394
  0.6730279207122283  0.5733353306955649  0.8709431049467430
  0.3987277698771329  0.1411559282072961  0.0978906679909745
  0.3645838878128802  0.1128828667322937  0.6339859057696690
  0.3971055037282635  0.6486612619541238  0.0935842626928888
  0.4008489493945122  0.6493413057421857  0.5871504032011721
  0.8933291715221603  0.1478209497432784  0.1052193043272981
  0.9010554711396550  0.1539027383125590  0.5945627573546670
  0.9102604688309204  0.6577541351642516  0.0868774818577060
  0.8997789378258714  0.6537640891499666  0.5996722538672870
 
             NaN             NaN             NaN
             NaN             NaN             NaN
             NaN             NaN             NaN
             NaN             NaN             NaN
             NaN             NaN             NaN
             NaN             NaN             NaN
             NaN             NaN             NaN
             NaN             NaN             NaN
             NaN             NaN             NaN
             NaN             NaN             NaN
             NaN             NaN             NaN
             NaN             NaN             NaN
             NaN             NaN             NaN
             NaN             NaN             NaN
             NaN             NaN             NaN
             NaN             NaN             NaN
             NaN             NaN             NaN
             NaN             NaN             NaN
             NaN             NaN             NaN
             NaN             NaN             NaN
             NaN             NaN             NaN
             NaN             NaN             NaN
             NaN             NaN             NaN
             NaN             NaN             NaN
             NaN             NaN             NaN
             NaN             NaN             NaN
             NaN             NaN             NaN
             NaN             NaN             NaN
             NaN             NaN             NaN
             NaN             NaN             NaN
             NaN             NaN             NaN
             NaN             NaN             NaN
             NaN             NaN             NaN
             NaN             NaN             NaN
             NaN             NaN             NaN
             NaN             NaN             NaN
             NaN             NaN             NaN
             NaN             NaN             NaN
             NaN             NaN             NaN
             NaN             NaN             NaN
             NaN             NaN             NaN
             NaN             NaN             NaN
             NaN             NaN             NaN
             NaN             NaN             NaN
             NaN             NaN             NaN
             NaN             NaN             NaN
             NaN             NaN             NaN
             NaN             NaN             NaN
             NaN             NaN             NaN
             NaN             NaN             NaN
             NaN             NaN             NaN
             NaN             NaN             NaN
             NaN             NaN             NaN
             NaN             NaN             NaN
             NaN             NaN             NaN
             NaN             NaN             NaN
             NaN             NaN             NaN
             NaN             NaN             NaN
             NaN             NaN             NaN
             NaN             NaN             NaN
             NaN             NaN             NaN
             NaN             NaN             NaN
             NaN             NaN             NaN
             NaN             NaN             NaN
             NaN             NaN             NaN
             NaN             NaN             NaN
             NaN             NaN             NaN
             NaN             NaN             NaN
             NaN             NaN             NaN
             NaN             NaN             NaN
             NaN             NaN             NaN
             NaN             NaN             NaN
             NaN             NaN             NaN
             NaN             NaN             NaN
             NaN             NaN             NaN
             NaN             NaN             NaN
             NaN             NaN             NaN
             NaN             NaN             NaN
             NaN             NaN             NaN
