Na15 Mn16 O16 F32
1.0
-5.757892 -9.513288 0.183589
-11.119336 -0.270488 0.162372
-5.436607 -3.168742 -8.945267
Na Mn O F
15 16 16 32
direct
0.500716 0.251257 0.494504 Na
0.117423 0.140130 0.114958 Na
0.116014 0.141213 0.617266 Na
0.115537 0.639336 0.118476 Na
0.114357 0.639744 0.617711 Na
0.613742 0.142051 0.119749 Na
0.613595 0.637148 0.120530 Na
0.614073 0.638322 0.618883 Na
0.392043 0.364135 0.865373 Na
0.390149 0.867539 0.367787 Na
0.391286 0.866603 0.865443 Na
0.887078 0.363711 0.369188 Na
0.888322 0.364279 0.869225 Na
0.889854 0.864500 0.369002 Na
0.889272 0.865886 0.867188 Na
-0.000082 0.002721 0.478197 Mn
0.002179 0.002031 0.977950 Mn
0.004804 0.502101 0.476739 Mn
0.002420 0.502076 0.977169 Mn
0.502464 0.003983 0.478423 Mn
0.503067 0.002481 0.976370 Mn
0.501445 0.501060 0.478295 Mn
0.502324 0.501840 0.979193 Mn
0.252439 0.253029 0.259004 Mn
0.253919 0.252488 0.756116 Mn
0.252957 0.749706 0.259955 Mn
0.252177 0.752281 0.758574 Mn
0.751018 0.251328 0.260209 Mn
0.751737 0.252343 0.757757 Mn
0.752168 0.752410 0.259179 Mn
0.752273 0.754723 0.757172 Mn
0.099449 0.351454 0.393331 O
0.099700 0.354184 0.891051 O
0.101470 0.851573 0.393688 O
0.100301 0.850941 0.894388 O
0.606586 0.356788 0.388620 O
0.601529 0.351977 0.893608 O
0.603397 0.850616 0.395052 O
0.600831 0.850239 0.895728 O
0.403297 0.148080 0.341902 O
0.396764 0.154282 0.849125 O
0.402141 0.656078 0.344027 O
0.402358 0.653780 0.843341 O
0.905941 0.152338 0.339020 O
0.903336 0.152698 0.842020 O
0.904510 0.652978 0.341827 O
0.902344 0.655272 0.842403 O
0.105552 0.354754 0.139074 F
0.104475 0.355358 0.640026 F
0.106026 0.853736 0.140153 F
0.104379 0.855540 0.640260 F
0.611836 0.355602 0.134130 F
0.606045 0.361709 0.638987 F
0.605455 0.854637 0.140683 F
0.606465 0.853309 0.640225 F
0.328825 0.424583 0.114850 F
0.329653 0.426133 0.620882 F
0.329609 0.923021 0.119302 F
0.328779 0.924377 0.617988 F
0.831102 0.424877 0.116669 F
0.830730 0.425827 0.618023 F
0.828496 0.925189 0.118481 F
0.832461 0.923051 0.617030 F
0.173052 0.079682 0.369119 F
0.174176 0.078854 0.870135 F
0.173193 0.582298 0.368314 F
0.175088 0.578646 0.868349 F
0.676042 0.079617 0.364179 F
0.674470 0.078897 0.872585 F
0.674829 0.581096 0.368271 F
0.675741 0.580682 0.866503 F
0.398830 0.147673 0.097837 F
0.393480 0.142156 0.603324 F
0.400565 0.649238 0.095754 F
0.397811 0.650015 0.597630 F
0.900361 0.147136 0.096179 F
0.899800 0.149929 0.595907 F
0.899685 0.648772 0.096568 F
0.900150 0.649176 0.596214 F
