Cr4 O4 F8                               
   1.00000000000000     
     5.0541575225118081    0.0181482913244842    0.0468935813653148
     0.0027407943688310    5.2023998723737765   -0.0011474940664202
    -0.1217477602714876   -0.0249136692297264    7.0030286702986482
   Cr   O    F 
     4     4     8
Direct
  0.4952645373498719  0.0068604829355831 -0.0003310685267286
  0.9965360591346183  0.5055154958642188  0.9993314927977721
  0.5430340804087849  0.9791012717216387  0.5121405164888331
  0.0098205611818184  0.4953201998628203  0.4989566603466628
  0.7893777195998373  0.7983099105373348  0.4456068545612847
  0.0707678424469905  0.4888959825219118  0.2423006650639729
  0.9277164922282478  0.5191656209886440  0.7544540645003350
  0.5828463658387436  0.0258062802068031  0.7422342260038806
  0.6776547239098879  0.3205120975519061  0.0502461837255208
  0.3143160590692771  0.6900730087902264  0.9531455647770259
  0.1748362999684994  0.1898567285001692  0.9517534297020693
  0.8127890270958861  0.8196407169946331  0.0495444277722368
  0.3190413242049261  0.6920688179366838  0.5533402134041047
  0.6980927338384112  0.2947234217366244  0.4477976625629616
  0.1998438706301228  0.1912740739560008  0.5417879120841760
  0.3880623030940633  0.9828758898947867  0.2576911947358856
 
  0.00000000E+00  0.00000000E+00  0.00000000E+00
  0.00000000E+00  0.00000000E+00  0.00000000E+00
  0.00000000E+00  0.00000000E+00  0.00000000E+00
  0.00000000E+00  0.00000000E+00  0.00000000E+00
  0.00000000E+00  0.00000000E+00  0.00000000E+00
  0.00000000E+00  0.00000000E+00  0.00000000E+00
  0.00000000E+00  0.00000000E+00  0.00000000E+00
  0.00000000E+00  0.00000000E+00  0.00000000E+00
  0.00000000E+00  0.00000000E+00  0.00000000E+00
  0.00000000E+00  0.00000000E+00  0.00000000E+00
  0.00000000E+00  0.00000000E+00  0.00000000E+00
  0.00000000E+00  0.00000000E+00  0.00000000E+00
  0.00000000E+00  0.00000000E+00  0.00000000E+00
  0.00000000E+00  0.00000000E+00  0.00000000E+00
  0.00000000E+00  0.00000000E+00  0.00000000E+00
  0.00000000E+00  0.00000000E+00  0.00000000E+00
