Na4 Fe4 O8 F4                           
   1.00000000000000     
     5.3866030790829900    0.0397776546283208    0.0818916141623407
    -2.6543357386414996    4.6236589615036996    0.0469206769750987
     0.1342341241016539    0.1580526501653971    9.1413032062105497
   Na   Fe   O    F 
     4     4     8     4
Direct
  0.0205417333637619  0.9962542658905796  0.9249696934823816
  0.9707530408508647 -0.0024431779725518  0.4264329462868618
  0.3181495015933336  0.6706248504241760  0.2409027982220704
  0.6954745164338704  0.3437295154070960  0.7548186248680484
  0.3410631834000507  0.6737672214165412  0.6188476189241140
  0.6179204374847281  0.3133417100533389  0.4052400629891173
  0.6721654976231580  0.3141324476058846  0.1011458603682802
  0.3496666251205212  0.6547786571546497  0.9058579766019713
  0.4323884820187151  0.9697454991072695  0.0106987110639216
  0.0327320501366341  0.4133277716196612  0.0129082052388847
  0.5972844686126492  0.5686459883072367  0.9923444820649970
  0.3794994393736397 -0.0004456314795715  0.5161023243438753
  0.5457802658515370  0.5857879467856599  0.4901897297417973
  0.3007653373180632  0.3988166816481881  0.7567237988669661
  0.7104469173622484  0.1192851012731834  0.2761444246610158
  0.1561101598350875  0.7515287441559156  0.7698465419572056
  0.9612610197846335  0.4056516181233759  0.5238860603819707
  0.8773386990678541  0.6387751253874320  0.2650715775623856
  0.3353756895065882  0.2634459812429853  0.2516642144579521
  0.6852829352620541  0.9212496838489408  0.7562043479161693
 
  0.00000000E+00  0.00000000E+00  0.00000000E+00
  0.00000000E+00  0.00000000E+00  0.00000000E+00
  0.00000000E+00  0.00000000E+00  0.00000000E+00
  0.00000000E+00  0.00000000E+00  0.00000000E+00
  0.00000000E+00  0.00000000E+00  0.00000000E+00
  0.00000000E+00  0.00000000E+00  0.00000000E+00
  0.00000000E+00  0.00000000E+00  0.00000000E+00
  0.00000000E+00  0.00000000E+00  0.00000000E+00
  0.00000000E+00  0.00000000E+00  0.00000000E+00
  0.00000000E+00  0.00000000E+00  0.00000000E+00
  0.00000000E+00  0.00000000E+00  0.00000000E+00
  0.00000000E+00  0.00000000E+00  0.00000000E+00
  0.00000000E+00  0.00000000E+00  0.00000000E+00
  0.00000000E+00  0.00000000E+00  0.00000000E+00
  0.00000000E+00  0.00000000E+00  0.00000000E+00
  0.00000000E+00  0.00000000E+00  0.00000000E+00
  0.00000000E+00  0.00000000E+00  0.00000000E+00
  0.00000000E+00  0.00000000E+00  0.00000000E+00
  0.00000000E+00  0.00000000E+00  0.00000000E+00
  0.00000000E+00  0.00000000E+00  0.00000000E+00
