V2 O2 F4                                
   1.00000000000000     
     3.7990723453029065    0.0004881133226283    0.0008143196691161
     0.0022156366521005    3.8025185269893647   -0.0002473086230542
    -0.0022114092148747   -0.0000832853511055    7.6412727921738322
   V    O    F 
     2     2     4
Direct
  0.5676494409345662  0.5087296338545926  0.2562747717944673
  0.4907106081772392  0.4323263601107821  0.7562017802265575
  0.4900181181594011  0.0030792146471958  0.7548452237344849
  0.9973807106193018  0.5080521482786521  0.2549495212386971
  0.4888154730788725  0.5116274338276169  0.0055966030843795
  0.4886203976730331  0.5115762740953808  0.5057098390978383
  0.4865984739950235  0.0089414256288541  0.2547871533769292
  0.9902067773625561  0.5156675095569251  0.7546351074466312
 
  0.00000000E+00  0.00000000E+00  0.00000000E+00
  0.00000000E+00  0.00000000E+00  0.00000000E+00
  0.00000000E+00  0.00000000E+00  0.00000000E+00
  0.00000000E+00  0.00000000E+00  0.00000000E+00
  0.00000000E+00  0.00000000E+00  0.00000000E+00
  0.00000000E+00  0.00000000E+00  0.00000000E+00
  0.00000000E+00  0.00000000E+00  0.00000000E+00
  0.00000000E+00  0.00000000E+00  0.00000000E+00
