Na1 V16 O16 F32
1.0
10.466238 -0.008576 0.006019
-0.008968 10.590996 -0.002508
0.014864 -0.002040 7.656260
Na V O F
1 16 16 32
direct
0.494639 0.507027 0.253175 Na
0.262075 0.002646 0.007253 V
0.261236 0.502543 0.002318 V
0.763793 0.002515 0.006323 V
0.767573 0.501804 0.005900 V
0.484326 0.250395 0.004269 V
0.484078 0.755262 0.004452 V
0.986022 0.250987 0.007064 V
0.985483 0.753783 0.007263 V
0.231917 0.498776 0.507666 V
0.236096 0.998562 0.507247 V
0.737829 0.498410 0.511390 V
0.738413 0.998923 0.505745 V
0.014008 0.247031 0.506965 V
0.013724 0.749950 0.506918 V
0.515516 0.245931 0.508750 V
0.515973 0.751551 0.509396 V
0.366940 0.132590 0.028849 O
0.366588 0.632379 0.028381 O
0.867658 0.132293 0.029444 O
0.867722 0.632835 0.029672 O
0.381711 0.383523 0.026379 O
0.381529 0.883232 0.027493 O
0.883133 0.382374 0.027875 O
0.881811 0.882616 0.028122 O
0.131279 0.368702 0.529725 O
0.130844 0.869362 0.528906 O
0.631118 0.369526 0.530389 O
0.631982 0.869299 0.529600 O
0.118773 0.118974 0.527855 O
0.118738 0.619315 0.528408 O
0.619829 0.119209 0.527293 O
0.619063 0.618694 0.527197 O
0.132923 0.366705 0.962202 F
0.133070 0.866430 0.965003 F
0.632502 0.367847 0.968459 F
0.632806 0.865128 0.963760 F
0.116211 0.116530 0.966037 F
0.115561 0.616289 0.964252 F
0.615866 0.116845 0.966832 F
0.613905 0.612671 0.976772 F
0.368483 0.133276 0.464469 F
0.370812 0.629139 0.456763 F
0.868194 0.132945 0.462324 F
0.868269 0.632405 0.466021 F
0.384075 0.385494 0.459794 F
0.382321 0.881463 0.467017 F
0.882785 0.382992 0.468818 F
0.882598 0.882724 0.464780 F
0.036826 0.249457 0.249336 F
0.036367 0.748849 0.249316 F
0.535490 0.255712 0.249298 F
0.535321 0.744402 0.249341 F
0.461818 0.251010 0.748842 F
0.462421 0.750011 0.749462 F
0.963300 0.250070 0.749530 F
0.963547 0.752301 0.749812 F
0.285639 0.002862 0.749362 F
0.287487 0.503507 0.746522 F
0.786441 0.003397 0.749558 F
0.787815 0.504290 0.752050 F
0.214746 0.497318 0.248728 F
0.213903 0.997619 0.250448 F
0.712698 0.495903 0.250900 F
0.713065 0.997087 0.248668 F
