Na4 Cr4 O8 F4                           
   1.00000000000000     
     5.2811397990069358    0.1770760004834172    0.0001443617414471
     0.1844200318973966    5.3355467036541189    0.0040510398542871
    -0.0018576186324909   -0.0058504757205232    7.2438792389597229
   Na   Cr   O    F 
     4     4     8     4
Direct
  0.9975415134715034  0.0305080137596558  0.2503876510441246
  0.0024076345004337  0.9696556271777259  0.7496914133866358
  0.4967300162852247  0.4544812671297211  0.7500373800542469
  0.5032635657320333  0.5455060716585376  0.2499644596588448
  0.4998949621969511  0.0000199982520940  0.9999841210902395
  0.9998879147892558  0.5001251837505241  0.0000485763362290
  0.4999439204899581  0.0000766410917594  0.4999977567585338
  0.9998676238558751  0.5001323027118751  0.4999657556210887
  0.0725535632548456  0.4883074409985038  0.2499753247428484
  0.9275405366514838  0.5115481672990915  0.7500068061724455
  0.5712336532404743  0.0159862048441047  0.7500262792411736
  0.4289378565987448  0.9838311620422677  0.2499560449457922
  0.2072651043389903  0.2083558087683042  0.9644113267343722
  0.7928475946029619  0.7915658954445519  0.0355999940940197
  0.7931348210964643  0.7916759310944986  0.4644158302677260
  0.2070456948515857  0.2082974564188751  0.5355334439290413
  0.7029448949441135  0.2957596272150151  0.0407714222527161
  0.2969975151914520  0.7041763148700166  0.9592441280904709
  0.2971497933056272  0.7039855420479850  0.5407319948435506
  0.7028118206020215  0.2960053434249071  0.4592502907358929
 
  0.00000000E+00  0.00000000E+00  0.00000000E+00
  0.00000000E+00  0.00000000E+00  0.00000000E+00
  0.00000000E+00  0.00000000E+00  0.00000000E+00
  0.00000000E+00  0.00000000E+00  0.00000000E+00
  0.00000000E+00  0.00000000E+00  0.00000000E+00
  0.00000000E+00  0.00000000E+00  0.00000000E+00
  0.00000000E+00  0.00000000E+00  0.00000000E+00
  0.00000000E+00  0.00000000E+00  0.00000000E+00
  0.00000000E+00  0.00000000E+00  0.00000000E+00
  0.00000000E+00  0.00000000E+00  0.00000000E+00
  0.00000000E+00  0.00000000E+00  0.00000000E+00
  0.00000000E+00  0.00000000E+00  0.00000000E+00
  0.00000000E+00  0.00000000E+00  0.00000000E+00
  0.00000000E+00  0.00000000E+00  0.00000000E+00
  0.00000000E+00  0.00000000E+00  0.00000000E+00
  0.00000000E+00  0.00000000E+00  0.00000000E+00
  0.00000000E+00  0.00000000E+00  0.00000000E+00
  0.00000000E+00  0.00000000E+00  0.00000000E+00
  0.00000000E+00  0.00000000E+00  0.00000000E+00
  0.00000000E+00  0.00000000E+00  0.00000000E+00
