Cr8 O8 F16                              
   1.00000000000000     
     7.5078606840979205   -0.0501084512920454    0.0012724174886700
    -0.0140897448860679    7.1358537217811815   -0.0009346658613399
     0.0009778717815889    0.0000475926630348    7.5979762474346133
   Cr   O    F 
     8     8    16
Direct
  0.0274371296529190  0.0109159083176308  0.9999391303142054
  0.0082180143310917  0.0000209993907193  0.4999569449608395
  0.9952677825180302  0.4974076146839858  0.9989673178684447
  0.0034485201636492  0.5003810511806972  0.4996484182490816
  0.4955985892114751  0.9976708271269894  0.0011647960925780
  0.5079231432068930  0.0000351273144932  0.5008006579095526
  0.5271810723021980  0.5110583751869519  0.9999465908675352
  0.5039319164085817  0.5001325367891549  0.4999687701411938
  0.7351250428871696  0.4459959485455837  0.9995314098946810
  0.2352780374238088  0.9459328199753670  0.0004659525810771
  0.0301622483772092  0.2394633929085309  0.9991605465916651
  0.0045424705541463  0.2599155662992188  0.5000211319556290
  0.0083570007271674  0.7414098704018700  0.4993449681868783
  0.5077579793188354  0.2600755507120934  0.5005617317384801
  0.5301639450738739  0.7393850704679783  0.0006767172181234
  0.5050765199863453  0.7411584092987901  0.5001442528497805
  0.0021166404327092  0.9986200399868508  0.2480860845631868
  0.4980221020273184  0.0031582492104341  0.7505528758919321
  0.2571935027358708  0.0036492398867083  0.5003202599413035
  0.2543047479995162  0.4985160214321057  0.4998158660990876
  0.7540554429158671  0.5034332701226776  0.4991632797517884
  0.9360541010087964  0.7563718072067240  0.9997205952843614
  0.4361639636656214  0.2565295391858813  0.0003066811859193
  0.0024015697584655  0.9976474913672216  0.7518076482884986
  0.9967137466949229  0.5027283181579287  0.2499800472362663
  0.9957709360713042  0.5036868856889125  0.7487104042913548
  0.4978889078654575  0.0037981640621647  0.2511045064170143
  0.5003063308765219  0.4972055901738590  0.2482194561539729
  0.5003235605590030  0.4978395693010128  0.7518164563343469
  0.2426980607981539  0.5433947771516984  0.9989394876333211
  0.7430731117991614  0.0432631713443392  0.0007031957128971
  0.7574438626479242 -0.0008012028785589  0.5004538177949815
 
  0.00000000E+00  0.00000000E+00  0.00000000E+00
  0.00000000E+00  0.00000000E+00  0.00000000E+00
  0.00000000E+00  0.00000000E+00  0.00000000E+00
  0.00000000E+00  0.00000000E+00  0.00000000E+00
  0.00000000E+00  0.00000000E+00  0.00000000E+00
  0.00000000E+00  0.00000000E+00  0.00000000E+00
  0.00000000E+00  0.00000000E+00  0.00000000E+00
  0.00000000E+00  0.00000000E+00  0.00000000E+00
  0.00000000E+00  0.00000000E+00  0.00000000E+00
  0.00000000E+00  0.00000000E+00  0.00000000E+00
  0.00000000E+00  0.00000000E+00  0.00000000E+00
  0.00000000E+00  0.00000000E+00  0.00000000E+00
  0.00000000E+00  0.00000000E+00  0.00000000E+00
  0.00000000E+00  0.00000000E+00  0.00000000E+00
  0.00000000E+00  0.00000000E+00  0.00000000E+00
  0.00000000E+00  0.00000000E+00  0.00000000E+00
  0.00000000E+00  0.00000000E+00  0.00000000E+00
  0.00000000E+00  0.00000000E+00  0.00000000E+00
  0.00000000E+00  0.00000000E+00  0.00000000E+00
  0.00000000E+00  0.00000000E+00  0.00000000E+00
  0.00000000E+00  0.00000000E+00  0.00000000E+00
  0.00000000E+00  0.00000000E+00  0.00000000E+00
  0.00000000E+00  0.00000000E+00  0.00000000E+00
  0.00000000E+00  0.00000000E+00  0.00000000E+00
  0.00000000E+00  0.00000000E+00  0.00000000E+00
  0.00000000E+00  0.00000000E+00  0.00000000E+00
  0.00000000E+00  0.00000000E+00  0.00000000E+00
  0.00000000E+00  0.00000000E+00  0.00000000E+00
  0.00000000E+00  0.00000000E+00  0.00000000E+00
  0.00000000E+00  0.00000000E+00  0.00000000E+00
  0.00000000E+00  0.00000000E+00  0.00000000E+00
  0.00000000E+00  0.00000000E+00  0.00000000E+00
