Na2 Ti2 O4 F2                           
   1.00000000000000     
     3.9052371333252665   -0.0000000016938944    0.0000121088553861
    -0.0000000006432463    3.9052293058129686   -0.0000000057787790
     0.0000116721380259   -0.0000000115153265    7.6384348055402222
   Na   Ti   O    F 
     2     2     4     2
Direct
  0.0000029543050957  0.9999999977872065  0.0013942883809150
  0.0000022007038538  0.0000000007188490  0.5013941209740693
  0.5000104889840600  0.5000000360506363  0.2527575399459394
  0.4998826614428609  0.4999999890970983  0.7527571809305087
  0.5000168196060386  0.4999999961895014  0.0052659692975752
  0.5000155768036905  0.4999999940800492  0.5052662442372267
  0.4999913967110672  0.0000000003023644  0.2563852776566549
  0.0000491339395623  0.4999999941458313  0.7563852221905023
  0.5000175729714726  0.9999999918896378  0.7556970301009898
  0.0000111945323056  0.4999999997388329  0.2556971262856038
 
  0.00000000E+00  0.00000000E+00  0.00000000E+00
  0.00000000E+00  0.00000000E+00  0.00000000E+00
  0.00000000E+00  0.00000000E+00  0.00000000E+00
  0.00000000E+00  0.00000000E+00  0.00000000E+00
  0.00000000E+00  0.00000000E+00  0.00000000E+00
  0.00000000E+00  0.00000000E+00  0.00000000E+00
  0.00000000E+00  0.00000000E+00  0.00000000E+00
  0.00000000E+00  0.00000000E+00  0.00000000E+00
  0.00000000E+00  0.00000000E+00  0.00000000E+00
  0.00000000E+00  0.00000000E+00  0.00000000E+00
