V4 O4 F8                                
   1.00000000000000     
     5.0941701627745015    0.0019493023181972    0.0062765474470643
     0.0048248711085548    5.2817979667618022    0.0083303653608554
     0.0043088300173359   -0.0550942373479719    7.3669380508333839
   V    O    F 
     4     4     8
Direct
  0.4851963718856430  0.0001742536439824  0.0303160821297642
  0.9784842113870106  0.5290688892631211 -0.0000886848661943
  0.5164954910156180  0.9984233810342253  0.5300323237455281
  0.0342762541800628  0.5149705037129261  0.4998264040506452
  0.5837323411655487  0.0131047360558750  0.7475621526952287
  0.4174036771168354  0.9815514613216927  0.2476445875850945
  0.7969858385405539  0.7860334485771253  0.0372015255255745
  0.2909111408423770  0.7010463840771961  0.5399489448240498
  0.1017905052587526  0.4726933059251477  0.2437331476983718
  0.8987907358274125  0.5063357870557685  0.7443592851611760
  0.6936544669055051  0.2999630261167995  0.0450257310648475
  0.2987684468967673  0.7025805717666126  0.9436699647225882
  0.1926102485857122  0.2123693825948496  0.9530560107267619
  0.7129837581250071  0.2965179171891034  0.4532299829633093
  0.8017311364757009  0.7910706192144198  0.4418447823913523
  0.1961853757914930  0.1940963324511691  0.5426377595819024
 
  0.00000000E+00  0.00000000E+00  0.00000000E+00
  0.00000000E+00  0.00000000E+00  0.00000000E+00
  0.00000000E+00  0.00000000E+00  0.00000000E+00
  0.00000000E+00  0.00000000E+00  0.00000000E+00
  0.00000000E+00  0.00000000E+00  0.00000000E+00
  0.00000000E+00  0.00000000E+00  0.00000000E+00
  0.00000000E+00  0.00000000E+00  0.00000000E+00
  0.00000000E+00  0.00000000E+00  0.00000000E+00
  0.00000000E+00  0.00000000E+00  0.00000000E+00
  0.00000000E+00  0.00000000E+00  0.00000000E+00
  0.00000000E+00  0.00000000E+00  0.00000000E+00
  0.00000000E+00  0.00000000E+00  0.00000000E+00
  0.00000000E+00  0.00000000E+00  0.00000000E+00
  0.00000000E+00  0.00000000E+00  0.00000000E+00
  0.00000000E+00  0.00000000E+00  0.00000000E+00
  0.00000000E+00  0.00000000E+00  0.00000000E+00
