Sodium chromium(II) trifluoride         
   1.00000000000000     
     5.6082992862624828    0.2212370856292897   -0.0336963749623308
     0.6145103170785561    5.7140665714004912    0.0358195780946952
    -0.3538625164576928   -0.0288895810897635    7.8456617458813858
   Na   Cr   F 
     4     4    10
Direct
  0.4942645537202427  0.5494984081934283  0.2353738771044696
  0.4874755317401090  0.4402217126552361  0.7740766279531944
  0.9672208771033126  0.0479333230194670  0.2590540681882545
  0.0435640644540981  0.9442986078015706  0.7400314158567847
  0.4919057461430778  0.0078153350345236  0.0017385943372169
  0.0018280761511175  0.4998204036209633  0.0276192873686492
  0.5048404358165225 -0.0007953918556635  0.4989624472467008
  0.0089595621085643  0.4945469244536096  0.4820064702457169
  0.6586868514721518  0.2805333448915798  0.0498711155702460
  0.3287864342737025  0.7403605264454078  0.9330001356157038
  0.1950573444350435  0.2221510924466333  0.9204630607156324
  0.7902484788656271  0.7958356170755615  0.0832167823264747
  0.7350698599216093  0.3283755897125884  0.4277981714171135
  0.2722438241217580  0.6592844369661802  0.5664898114853268
  0.1926094682031225  0.1867477372852014  0.5531926873819580
  0.8168756871938340  0.8090285742937505  0.4475929920200309
  0.3698127372061313  0.9342977861571869  0.2730426158845435
  0.6405504520699851  0.0600460168027602  0.7264697702819882
 
  0.00000000E+00  0.00000000E+00  0.00000000E+00
  0.00000000E+00  0.00000000E+00  0.00000000E+00
  0.00000000E+00  0.00000000E+00  0.00000000E+00
  0.00000000E+00  0.00000000E+00  0.00000000E+00
  0.00000000E+00  0.00000000E+00  0.00000000E+00
  0.00000000E+00  0.00000000E+00  0.00000000E+00
  0.00000000E+00  0.00000000E+00  0.00000000E+00
  0.00000000E+00  0.00000000E+00  0.00000000E+00
  0.00000000E+00  0.00000000E+00  0.00000000E+00
  0.00000000E+00  0.00000000E+00  0.00000000E+00
  0.00000000E+00  0.00000000E+00  0.00000000E+00
  0.00000000E+00  0.00000000E+00  0.00000000E+00
  0.00000000E+00  0.00000000E+00  0.00000000E+00
  0.00000000E+00  0.00000000E+00  0.00000000E+00
  0.00000000E+00  0.00000000E+00  0.00000000E+00
  0.00000000E+00  0.00000000E+00  0.00000000E+00
  0.00000000E+00  0.00000000E+00  0.00000000E+00
  0.00000000E+00  0.00000000E+00  0.00000000E+00
