Na4 V4 O8 F4                            
   1.00000000000000     
     6.1787629906914994   -0.2498026748332226   -0.1516619033812415
    -0.0560603054882802    6.2122261917847084    0.2357081152024874
    -0.1163108573481327    0.0152569583361433    7.2639712047254363
   Na   V    O    F 
     8     4     8     4
Direct
  0.6498625260289851  0.6584685123737578  0.6690191336106858
  0.3294221611838102  0.3848862467295803  0.8023038613600953
  0.6089451584763109  0.6667442563163258  0.3015934394565224
  0.3384855076255592  0.3424923668602887  0.1699423287266932
  0.8749133927181425  0.1469080625723392  0.7749529096624503
  0.1694050238485585  0.8427939743890211  0.7323112946831513
  0.8472276521867055  0.1213319386004134  0.2729881041064348
  0.1483322240452219  0.8227260393555097  0.2321536001499633
  0.5299159804416491  0.9902389639602599  0.9993007702167465
  0.8729982670147776  0.5298306341731898  0.0071681936185956
  0.4641347397379013  0.1213590237734746  0.5069500213645782
  0.0034860499235690  0.4632936162373969  0.4994592819461550
  0.0175981637913634  0.4568126392675976  0.2313984749323862
  0.9884413398878716  0.5089805949636151  0.7718244174468208
  0.5375158725886688  0.9781529327604619  0.7309425926790947
  0.4833298375615157  0.0047012808767374  0.2721435486206574
  0.6476952135582269  0.2969991069390525  0.9951179600908606
  0.8032276035181953  0.8145099392576066  0.0368111075705583
  0.6953585884275233  0.3472463318255660  0.4934700383454228
  0.1783228800084919  0.1908096605476576  0.5370293523506381
  0.3650780992583831  0.6860618155359732  0.0136624332233965
  0.2079956272289174  0.0994044129560324  0.9666918324030680
  0.3090570130574357  0.6273289366981266  0.5155242219809847
  0.8951510778822134  0.7846787130300039  0.4672410814540476
 
  0.00000000E+00  0.00000000E+00  0.00000000E+00
  0.00000000E+00  0.00000000E+00  0.00000000E+00
  0.00000000E+00  0.00000000E+00  0.00000000E+00
  0.00000000E+00  0.00000000E+00  0.00000000E+00
  0.00000000E+00  0.00000000E+00  0.00000000E+00
  0.00000000E+00  0.00000000E+00  0.00000000E+00
  0.00000000E+00  0.00000000E+00  0.00000000E+00
  0.00000000E+00  0.00000000E+00  0.00000000E+00
  0.00000000E+00  0.00000000E+00  0.00000000E+00
  0.00000000E+00  0.00000000E+00  0.00000000E+00
  0.00000000E+00  0.00000000E+00  0.00000000E+00
  0.00000000E+00  0.00000000E+00  0.00000000E+00
  0.00000000E+00  0.00000000E+00  0.00000000E+00
  0.00000000E+00  0.00000000E+00  0.00000000E+00
  0.00000000E+00  0.00000000E+00  0.00000000E+00
  0.00000000E+00  0.00000000E+00  0.00000000E+00
  0.00000000E+00  0.00000000E+00  0.00000000E+00
  0.00000000E+00  0.00000000E+00  0.00000000E+00
  0.00000000E+00  0.00000000E+00  0.00000000E+00
  0.00000000E+00  0.00000000E+00  0.00000000E+00
  0.00000000E+00  0.00000000E+00  0.00000000E+00
  0.00000000E+00  0.00000000E+00  0.00000000E+00
  0.00000000E+00  0.00000000E+00  0.00000000E+00
  0.00000000E+00  0.00000000E+00  0.00000000E+00
