Tetrasodium chromate(IV)                
   1.00000000000000     
     8.5111543854950025   -0.0169962369753061    0.0171902262912101
    -0.8854697479119751    5.5743794381054155   -0.0026860961146992
    -0.9090321386957151   -3.7215960344531500    5.0423654333770216
   Na   Cr   O 
     8     2     8
Direct
  0.5656591139729272  0.7861126478456342  0.5169576406720466
  0.4343360863631531  0.2136830780271382  0.4829702910175442
  0.9826838361045702  0.0075081757740989  0.7596978599302986
  0.0173068771903075  0.9925484767440054  0.2403138868730323
  0.8203644134500792  0.3364092071239000  0.5979756353625163
  0.1796565591196000  0.6635938002967379  0.4020349380492547
  0.3957106201025056  0.1889195688829943  0.9501774656096913
  0.6042590793779183  0.8110709698511158  0.0497675244792006
  0.2435511808900443  0.5651438650729403  0.8444426439313659
  0.7564597531861565  0.4350118339209601  0.1555651160695248
  0.1962537656487271  0.1674437021436574  0.6394105735102329
  0.8036367100539792  0.8325634182938444  0.3605473869343641
  0.6205763431147631  0.3211939606684382  0.2947876159284633
  0.3795273406768871  0.6786585111975612  0.7052288619020004
  0.6401699304107353  0.3078151563557086  0.8354175117728388
  0.3597916340804090  0.6920315531157541  0.1646212356461234
  0.9297812501733063  0.3009632150017438  0.1542439673972638
  0.0702755070839416  0.6993287276837634  0.8458398259142257
 
  0.00000000E+00  0.00000000E+00  0.00000000E+00
  0.00000000E+00  0.00000000E+00  0.00000000E+00
  0.00000000E+00  0.00000000E+00  0.00000000E+00
  0.00000000E+00  0.00000000E+00  0.00000000E+00
  0.00000000E+00  0.00000000E+00  0.00000000E+00
  0.00000000E+00  0.00000000E+00  0.00000000E+00
  0.00000000E+00  0.00000000E+00  0.00000000E+00
  0.00000000E+00  0.00000000E+00  0.00000000E+00
  0.00000000E+00  0.00000000E+00  0.00000000E+00
  0.00000000E+00  0.00000000E+00  0.00000000E+00
  0.00000000E+00  0.00000000E+00  0.00000000E+00
  0.00000000E+00  0.00000000E+00  0.00000000E+00
  0.00000000E+00  0.00000000E+00  0.00000000E+00
  0.00000000E+00  0.00000000E+00  0.00000000E+00
  0.00000000E+00  0.00000000E+00  0.00000000E+00
  0.00000000E+00  0.00000000E+00  0.00000000E+00
  0.00000000E+00  0.00000000E+00  0.00000000E+00
  0.00000000E+00  0.00000000E+00  0.00000000E+00
