Na4 Mn4 O8 F4                           
   1.00000000000000     
     5.2937559956309848   -0.0000015367743926    0.0004990550470433
    -0.0000014763292426    5.2761304794199679   -0.0000012279230487
    -0.0008636085425329   -0.0000017335957149    7.2079411212541045
   Na   Mn   O    F 
     4     4     8     4
Direct
  0.9977625784894399  0.0424250881188634  0.2467587660990647
  0.0022411935542467  0.9576041711030616  0.7467513308486264
  0.4977625173569593  0.4575751173372687  0.7467590127915845
  0.5022408362649512  0.5423958556524352  0.2467511232898467
  0.4696524375123521  0.9993655301431131  0.0020720988685614
  0.0303487031774587  0.4993596318594150  0.0020776660017368
  0.5303491414694748  0.0006407809839894  0.5020781432915191
  0.9696533760637647  0.5006342926066720  0.5020724330639493
  0.3009156697921909  0.7023365558918989  0.9567888373693844
  0.1991038860861219  0.2023535355694618  0.9567340588091559
  0.6991035059157045  0.2976467748320263  0.4567338162170755
  0.8009163004482399  0.7976633727139680  0.4567884062373885
  0.0779113771044060  0.4824988584226999  0.2517660325024195
  0.9220820582605574  0.5175192301471829  0.7517778317433850
  0.5779118341945909  0.0175011041267065  0.7517658572774508
  0.4220818469921425  0.9824805303235502  0.2517780858389876
  0.7053676124354510  0.2862654940629578  0.0426153681104826
  0.7946143332398391  0.7862543730912207  0.0426577614094061
  0.2946139322511814  0.7137449184074650  0.5426578660559951
  0.2053668593909342  0.2137347846060573  0.5426155041739799
 
  0.00000000E+00  0.00000000E+00  0.00000000E+00
  0.00000000E+00  0.00000000E+00  0.00000000E+00
  0.00000000E+00  0.00000000E+00  0.00000000E+00
  0.00000000E+00  0.00000000E+00  0.00000000E+00
  0.00000000E+00  0.00000000E+00  0.00000000E+00
  0.00000000E+00  0.00000000E+00  0.00000000E+00
  0.00000000E+00  0.00000000E+00  0.00000000E+00
  0.00000000E+00  0.00000000E+00  0.00000000E+00
  0.00000000E+00  0.00000000E+00  0.00000000E+00
  0.00000000E+00  0.00000000E+00  0.00000000E+00
  0.00000000E+00  0.00000000E+00  0.00000000E+00
  0.00000000E+00  0.00000000E+00  0.00000000E+00
  0.00000000E+00  0.00000000E+00  0.00000000E+00
  0.00000000E+00  0.00000000E+00  0.00000000E+00
  0.00000000E+00  0.00000000E+00  0.00000000E+00
  0.00000000E+00  0.00000000E+00  0.00000000E+00
  0.00000000E+00  0.00000000E+00  0.00000000E+00
  0.00000000E+00  0.00000000E+00  0.00000000E+00
  0.00000000E+00  0.00000000E+00  0.00000000E+00
  0.00000000E+00  0.00000000E+00  0.00000000E+00
