Ti4 O4 F8                               
   1.00000000000000     
     5.2543003381302267    0.0000004600029013    0.0020439411618196
     0.0000004284102956    5.4068408978654272   -0.0000004719376498
     0.0001334229297858   -0.0000006791268239    7.4249021181404800
   Ti   O    F 
     4     4     8
Direct
  0.4933767989985765  0.9864791253924503  0.9846007695389283
  0.0206667885314487  0.5099012764260482  0.0103636175168566
  0.5206671605129752  0.9900985654932106  0.5103636950798291
  0.9933767516737558  0.5135210932456918  0.4846007257104732
  0.2838398425768270  0.7172646399607363  0.9590083344006034
  0.7838397926583470  0.7827352153258570  0.4590084941380252
  0.0846208880218095  0.4831760134518531  0.2505086801317032
  0.5846208247617809  0.0168239671518222  0.7505087039960520
  0.7109831518881060  0.2841016988675137  0.0407006671249368
  0.2049330098788561  0.2090490480720648  0.9546577444873112
  0.7849665337660348  0.7838815455854752  0.0493358035772958
  0.2849666554959732  0.7161185700694788  0.5493356369984788
  0.7049333514670932  0.2909506413334446  0.4546577635211192
  0.2109834593290065  0.2158985069856823  0.5407006759720043
  0.9166124925773809  0.5014074065872357  0.7508242623521977
  0.4166124978620216  0.9985926860514281  0.2508244254541923
 
  0.00000000E+00  0.00000000E+00  0.00000000E+00
  0.00000000E+00  0.00000000E+00  0.00000000E+00
  0.00000000E+00  0.00000000E+00  0.00000000E+00
  0.00000000E+00  0.00000000E+00  0.00000000E+00
  0.00000000E+00  0.00000000E+00  0.00000000E+00
  0.00000000E+00  0.00000000E+00  0.00000000E+00
  0.00000000E+00  0.00000000E+00  0.00000000E+00
  0.00000000E+00  0.00000000E+00  0.00000000E+00
  0.00000000E+00  0.00000000E+00  0.00000000E+00
  0.00000000E+00  0.00000000E+00  0.00000000E+00
  0.00000000E+00  0.00000000E+00  0.00000000E+00
  0.00000000E+00  0.00000000E+00  0.00000000E+00
  0.00000000E+00  0.00000000E+00  0.00000000E+00
  0.00000000E+00  0.00000000E+00  0.00000000E+00
  0.00000000E+00  0.00000000E+00  0.00000000E+00
  0.00000000E+00  0.00000000E+00  0.00000000E+00
