Co4 O4 F8                               
   1.00000000000000     
     5.0044991294185941   -0.0245247064421862    0.0499667971548237
    -0.0185851606163184    5.2378970615735412    0.0060167508836584
     0.0765674417337903    0.0112903391554446    7.0823512844183307
   Co   O    F 
     4     4     8
Direct
  0.5002168107914257 -0.0000286149931611  0.0002415778359975
  0.0018085307402311  0.5000449167250196  0.0000178370939913
  0.4996760430694336  0.0008375106380960  0.5006865856444728
 -0.0007757337417740  0.5017100488658954  0.5002871634280455
  0.1094891937612849  0.4844181036571424  0.2621267761094539
  0.8896411040677602  0.5185225084778471  0.7383246277940306
  0.6059505588168081  0.0221146658411944  0.7519545369573108
  0.3942798105774409  0.9715900849596321  0.2474323409744886
  0.6873504253761232  0.3127691095169416  0.0591072374167376
  0.3150895799443690  0.6862115731920744  0.9406302474912352
  0.1875187371386769  0.1948191505808770  0.9471468411914608
  0.8138696874264654  0.8043105136752858  0.0526586885943083
  0.3126495296112220  0.6935039344601784  0.5627759100586889
  0.6859321870413231  0.3082145695386849  0.4395058319610308
  0.8110063823713760  0.8195269253783022  0.4385972945287308
  0.1862971530078339  0.1814349994859759  0.5585065029200030
 
  0.00000000E+00  0.00000000E+00  0.00000000E+00
  0.00000000E+00  0.00000000E+00  0.00000000E+00
  0.00000000E+00  0.00000000E+00  0.00000000E+00
  0.00000000E+00  0.00000000E+00  0.00000000E+00
  0.00000000E+00  0.00000000E+00  0.00000000E+00
  0.00000000E+00  0.00000000E+00  0.00000000E+00
  0.00000000E+00  0.00000000E+00  0.00000000E+00
  0.00000000E+00  0.00000000E+00  0.00000000E+00
  0.00000000E+00  0.00000000E+00  0.00000000E+00
  0.00000000E+00  0.00000000E+00  0.00000000E+00
  0.00000000E+00  0.00000000E+00  0.00000000E+00
  0.00000000E+00  0.00000000E+00  0.00000000E+00
  0.00000000E+00  0.00000000E+00  0.00000000E+00
  0.00000000E+00  0.00000000E+00  0.00000000E+00
  0.00000000E+00  0.00000000E+00  0.00000000E+00
  0.00000000E+00  0.00000000E+00  0.00000000E+00
