Fe4 O4 F8                               
   1.00000000000000     
     4.9017262683705365    0.0994311828263291   -0.0207725477810803
    -2.3643204234612183    4.2794020651942413   -0.0005946220058797
     0.1213470479059940    0.2528442770787582    9.5156563474513227
   Fe   O    F 
     4     4     8
Direct
  0.2884720095958216  0.6569712817247845  0.6016254835874065
  0.6814236703477697  0.3402677611452457  0.3921584180215468
  0.6627636854850969  0.2904858606997227  0.1016306408378879
  0.3438673087344256  0.6865431622273781  0.8917333723449014
  0.3636067673520662  0.9790963820694356 -0.0041556045762134
  0.9738732859470132  0.3596622611558516  0.4969778399829247
  0.9540394613018867  0.6169027918365586  0.2564251360379520
  0.6176576861279623  0.9566208419051149  0.7550038799496849
  0.0320623245994078  0.3580666032032979  0.0002097468329024
  0.6512296368706650  0.6233418697174310  0.9983628347804244
  0.3536109124528082  0.0285126404110612  0.5000468279600438
  0.6194125235291227  0.6486459106741277  0.4979726325451375
  0.3396402471949957  0.4002661544637007  0.7552535849803036
  0.4009983935070506  0.3387849620309180  0.2535978994231630
  0.6839202296091687  0.0310142449710524  0.2520308875206032
  0.0334218573447538  0.6848172717643186  0.7511264197713317
 
  0.00000000E+00  0.00000000E+00  0.00000000E+00
  0.00000000E+00  0.00000000E+00  0.00000000E+00
  0.00000000E+00  0.00000000E+00  0.00000000E+00
  0.00000000E+00  0.00000000E+00  0.00000000E+00
  0.00000000E+00  0.00000000E+00  0.00000000E+00
  0.00000000E+00  0.00000000E+00  0.00000000E+00
  0.00000000E+00  0.00000000E+00  0.00000000E+00
  0.00000000E+00  0.00000000E+00  0.00000000E+00
  0.00000000E+00  0.00000000E+00  0.00000000E+00
  0.00000000E+00  0.00000000E+00  0.00000000E+00
  0.00000000E+00  0.00000000E+00  0.00000000E+00
  0.00000000E+00  0.00000000E+00  0.00000000E+00
  0.00000000E+00  0.00000000E+00  0.00000000E+00
  0.00000000E+00  0.00000000E+00  0.00000000E+00
  0.00000000E+00  0.00000000E+00  0.00000000E+00
  0.00000000E+00  0.00000000E+00  0.00000000E+00
