Sodium niccolate(III)                   
   1.00000000000000     
     5.3065082740915077   -0.0000000905176895   -0.0056554114598772
    -0.0000000431566197    2.8133693697995446   -0.0000000118262923
    -1.9562129529734298   -0.0000000499436419    5.1839883109367664
   Ni   Na   O 
     2     2     4
Direct
  0.9999850041291012  0.0000000155253232  0.0000130621360768
  0.4999878457236022  0.5000001004883430  0.0000148153065354
  0.0000448350858022  0.5000000019985507  0.4999866540716127
  0.5000457907254869  0.0000000169137166  0.4999871292907585
  0.2854778332802752  0.9999999536879187  0.8017985044690761
  0.7144896935065503  0.9999999540208790  0.1981988468365259
  0.7854807078520523  0.4999999756670377  0.8018016668033852
  0.2144882896971296  0.4999999816982239  0.1981993210860225
 
  0.00000000E+00  0.00000000E+00  0.00000000E+00
  0.00000000E+00  0.00000000E+00  0.00000000E+00
  0.00000000E+00  0.00000000E+00  0.00000000E+00
  0.00000000E+00  0.00000000E+00  0.00000000E+00
  0.00000000E+00  0.00000000E+00  0.00000000E+00
  0.00000000E+00  0.00000000E+00  0.00000000E+00
  0.00000000E+00  0.00000000E+00  0.00000000E+00
  0.00000000E+00  0.00000000E+00  0.00000000E+00
