Na8 Co8 O16 F8                          
   1.00000000000000     
     7.6848196773891875    0.0152258056830498    0.0147069927723067
     0.0242046093794440    7.3491736105904044   -0.0175178985602898
    -0.0502935630044059   -0.0428214313150702    7.4419312042458028
   Na   Co   O    F 
     8     8    16     8
Direct
  0.2462211046815084  0.2592708393637994  0.2414432580369062
  0.2508361438291499  0.2332999163736535  0.7513301891923081
  0.2506322709283025  0.7516571001582890  0.2294517399237272
  0.2518260431556891  0.7645958331272946  0.7666042972926264
  0.7546118546122357  0.2242425284092735  0.2435115702797696
  0.7504332226366480  0.2386429761861645  0.7649449476530342
  0.7535106792310334  0.7760745303961643  0.2534329610296501
  0.7413779192964527  0.7488381979273411  0.7507969201741918
  0.0046064008090769  0.9987195344342377  0.0025568772957358
  0.0129380270872111  0.9942056702798457  0.5018887577473932
  0.9878672055889944  0.4997693341362983  0.9934316245896293
  0.9966319452017829  0.5010629090195847  0.4966213510221951
  0.5044579228008504  0.9979206678606346  0.0022302907448664
  0.4942681726542793  0.9974865736683165  0.5015264235301032
  0.5117137736489993  0.4990308789974827  0.0040831939118364
  0.4928145694560362  0.4981601053611662  0.5002157489380047
  0.2468512452368124  0.9403993211062517  0.4749449717563659
  0.2264910849197994  0.5623764940074286  0.5309279646128957
  0.7471715740447925  0.5463712350898768  0.0495664862475368
  0.7561306750794030  0.4573248060901020  0.4584933526160291
  0.9656739396107356  0.2337304412075348  0.0043564758665992
  0.0410104280476975  0.7643040284877669  0.9967604046239135
  0.5434748141472238  0.2670170097750011  0.0139876724524935
  0.4566502057528876  0.2477445965763775  0.4967187361715267
  0.4686782015333448  0.7310166221618402  0.9874810891570761
  0.5352103326671774  0.7481355576714117  0.5043118730545378
  0.9840885061125235  0.9971912273004790  0.2673999401185019
  0.0207734346331741  0.0015068869327787  0.7354042393096789
  0.0248185100590981  0.5052823584705876  0.2551807065918049
  0.9661489844403401  0.4948874890962786  0.7446955874910042
  0.5216077013730814  0.9920213408756930  0.2344906781721697
  0.4879308339147245  0.0066072669556205  0.7683205209586410
  0.2551562250672276  0.0492885004259115  0.0222364274188382
  0.2547962068980006  0.4585363231897782  0.9531022260620218
  0.7542426283389858  0.9487480666320609  0.9794128349713472
  0.7556758867679987  0.0680837437889211  0.5154534719073570
  0.0832444676740244  0.2503735895744392  0.4980912637091945
  0.9082134781555913  0.7531239973890468  0.5061741678789614
  0.4239373854527714  0.5067969291016644  0.2513189914057100
  0.5672759944543269  0.4861545723935828  0.7470997660838242
 
  0.00000000E+00  0.00000000E+00  0.00000000E+00
  0.00000000E+00  0.00000000E+00  0.00000000E+00
  0.00000000E+00  0.00000000E+00  0.00000000E+00
  0.00000000E+00  0.00000000E+00  0.00000000E+00
  0.00000000E+00  0.00000000E+00  0.00000000E+00
  0.00000000E+00  0.00000000E+00  0.00000000E+00
  0.00000000E+00  0.00000000E+00  0.00000000E+00
  0.00000000E+00  0.00000000E+00  0.00000000E+00
  0.00000000E+00  0.00000000E+00  0.00000000E+00
  0.00000000E+00  0.00000000E+00  0.00000000E+00
  0.00000000E+00  0.00000000E+00  0.00000000E+00
  0.00000000E+00  0.00000000E+00  0.00000000E+00
  0.00000000E+00  0.00000000E+00  0.00000000E+00
  0.00000000E+00  0.00000000E+00  0.00000000E+00
  0.00000000E+00  0.00000000E+00  0.00000000E+00
  0.00000000E+00  0.00000000E+00  0.00000000E+00
  0.00000000E+00  0.00000000E+00  0.00000000E+00
  0.00000000E+00  0.00000000E+00  0.00000000E+00
  0.00000000E+00  0.00000000E+00  0.00000000E+00
  0.00000000E+00  0.00000000E+00  0.00000000E+00
  0.00000000E+00  0.00000000E+00  0.00000000E+00
  0.00000000E+00  0.00000000E+00  0.00000000E+00
  0.00000000E+00  0.00000000E+00  0.00000000E+00
  0.00000000E+00  0.00000000E+00  0.00000000E+00
  0.00000000E+00  0.00000000E+00  0.00000000E+00
  0.00000000E+00  0.00000000E+00  0.00000000E+00
  0.00000000E+00  0.00000000E+00  0.00000000E+00
  0.00000000E+00  0.00000000E+00  0.00000000E+00
  0.00000000E+00  0.00000000E+00  0.00000000E+00
  0.00000000E+00  0.00000000E+00  0.00000000E+00
  0.00000000E+00  0.00000000E+00  0.00000000E+00
  0.00000000E+00  0.00000000E+00  0.00000000E+00
  0.00000000E+00  0.00000000E+00  0.00000000E+00
  0.00000000E+00  0.00000000E+00  0.00000000E+00
  0.00000000E+00  0.00000000E+00  0.00000000E+00
  0.00000000E+00  0.00000000E+00  0.00000000E+00
  0.00000000E+00  0.00000000E+00  0.00000000E+00
  0.00000000E+00  0.00000000E+00  0.00000000E+00
  0.00000000E+00  0.00000000E+00  0.00000000E+00
  0.00000000E+00  0.00000000E+00  0.00000000E+00
