Na4 Cr4 O8 F4                           
   1.00000000000000     
     5.2926436473016363    0.0002249591998980    0.0001007726014981
     0.0002238538943179    5.4513538007041014    0.0159281043852483
     0.0001848645560910   -0.0087754276878501    7.1526123880437433
   Na   Cr   O    F 
     4     4     8     4
Direct
  0.9969725022935978  0.0410600454371744  0.2488506626017879
  0.9950839513679798  0.9639557237569235  0.7475863077447663
  0.4964392515405792  0.4588963155972693  0.7513484187197474
  0.4951811950727411  0.5359639721558580  0.2523393146379253
  0.4949803736577957  0.9612582821880761  0.9963007070771529
  0.9949218455464327  0.5386121345632218  0.0036474857356628
  0.4865155013216166  0.0324471285019500  0.4991308945876846
  0.9864258160114030  0.4674304120133735  0.5008410371493484
  0.0585426433795699  0.4852659471704751  0.2502222377359017
  0.9624919372485764  0.5083318144837633  0.7524137779697346
  0.5585789715541728  0.0149941020672856  0.7498273532488416
  0.4625103513463651  0.9916138566864701  0.2475038280238287
  0.3112404531949193  0.6947282873578791  0.9728148972132327
  0.8112095086634874  0.8052551589705821  0.0270674613699827
  0.6931481122531580  0.3098093662866104  0.4724679006206710
  0.1931516916319130  0.1901851794403658  0.5275348032814517
  0.7038393570029788  0.3100991282632128  0.0303813313909523
  0.2038011390520718  0.1900105212192268  0.9696444505640633
  0.2974995992642140  0.7045010118041279  0.5294958424980100
  0.7974657985964267  0.7955816120361476  0.4705812878292601
 
  0.00000000E+00  0.00000000E+00  0.00000000E+00
  0.00000000E+00  0.00000000E+00  0.00000000E+00
  0.00000000E+00  0.00000000E+00  0.00000000E+00
  0.00000000E+00  0.00000000E+00  0.00000000E+00
  0.00000000E+00  0.00000000E+00  0.00000000E+00
  0.00000000E+00  0.00000000E+00  0.00000000E+00
  0.00000000E+00  0.00000000E+00  0.00000000E+00
  0.00000000E+00  0.00000000E+00  0.00000000E+00
  0.00000000E+00  0.00000000E+00  0.00000000E+00
  0.00000000E+00  0.00000000E+00  0.00000000E+00
  0.00000000E+00  0.00000000E+00  0.00000000E+00
  0.00000000E+00  0.00000000E+00  0.00000000E+00
  0.00000000E+00  0.00000000E+00  0.00000000E+00
  0.00000000E+00  0.00000000E+00  0.00000000E+00
  0.00000000E+00  0.00000000E+00  0.00000000E+00
  0.00000000E+00  0.00000000E+00  0.00000000E+00
  0.00000000E+00  0.00000000E+00  0.00000000E+00
  0.00000000E+00  0.00000000E+00  0.00000000E+00
  0.00000000E+00  0.00000000E+00  0.00000000E+00
  0.00000000E+00  0.00000000E+00  0.00000000E+00
