Cr4 O4 F8                               
   1.00000000000000     
     5.3751147190595958    0.0121117091092123    0.0364620660504194
    -2.6770750588485788    4.6369820090106346   -0.0729690538328649
     0.0340631284130654   -0.0592490809569485    9.2207806102985757
   Cr   O    F 
     4     4     8
Direct
  0.3457423741571897  0.7138597758749251  0.6087904360206591
  0.6602068424862271  0.3218771552031471  0.3894466234078822
  0.6542536175640900  0.3680683543389977  0.1087704320105447
  0.3397639726465713  0.6616591089417698  0.8894358891321505
  0.4889320340374070  0.4879484657134053  0.0050737491749013
  0.5110387141339385  0.9990320099299487  0.5050982770625141
  0.8105037310581933  0.6113155807317159  0.2481873524595604
  0.1894999281159707  0.8008177259078572  0.7481833406609427
  0.5131249697702747  0.0041703887938316  0.0051517752988541
  0.9930551537178083  0.5028385512883057  0.9990694025954012
  0.0069631309389199  0.5097826329656276  0.4990617710760510
  0.4869422115197119  0.4911346880209840  0.5051546344265659
  0.2073444978062749  0.3666721830099440  0.7448348098399128
  0.3531582784666544  0.1773397555346985  0.2494369231320697
  0.6468301457649392  0.8241858711614483  0.7494499999509189
  0.7926403978158358  0.1592977525833861  0.2448545837510715
 
  0.00000000E+00  0.00000000E+00  0.00000000E+00
  0.00000000E+00  0.00000000E+00  0.00000000E+00
  0.00000000E+00  0.00000000E+00  0.00000000E+00
  0.00000000E+00  0.00000000E+00  0.00000000E+00
  0.00000000E+00  0.00000000E+00  0.00000000E+00
  0.00000000E+00  0.00000000E+00  0.00000000E+00
  0.00000000E+00  0.00000000E+00  0.00000000E+00
  0.00000000E+00  0.00000000E+00  0.00000000E+00
  0.00000000E+00  0.00000000E+00  0.00000000E+00
  0.00000000E+00  0.00000000E+00  0.00000000E+00
  0.00000000E+00  0.00000000E+00  0.00000000E+00
  0.00000000E+00  0.00000000E+00  0.00000000E+00
  0.00000000E+00  0.00000000E+00  0.00000000E+00
  0.00000000E+00  0.00000000E+00  0.00000000E+00
  0.00000000E+00  0.00000000E+00  0.00000000E+00
  0.00000000E+00  0.00000000E+00  0.00000000E+00
