Na4 Mn4 O8 F4                           
   1.00000000000000     
     5.3200088148033498    0.1313700712835680    0.0061413566198513
     0.1345401395141783    5.4164256062602743   -0.0191073712719136
     0.0079339846495390   -0.0419846074397309    7.2037224178651726
   Na   Mn   O    F 
     4     4     8     4
Direct
  0.9971775752228539  0.0249876946782308  0.2547566304866962
  0.0045495392731924  0.9489409010157680  0.7538921959767817
  0.5008342777650422  0.4672789314984205  0.7454461448724590
  0.4993014137375963  0.5571206122011404  0.2512555471602879
  0.5112451127110860  0.9988926708107625  0.0012219961852334
  0.9941896046210978  0.5042230818752151  0.9993135608433453
  0.5056650660756472  0.0366639543983003  0.4963531076538304
  0.9985540227680287  0.4641704631912971  0.5010327334332150
  0.2133046442114811  0.2104212807655493  0.9647037410126491
  0.7953424675690910  0.8027350500239940  0.0394631979670333
  0.7051178581155193  0.2940383477776172  0.4502915785244189
  0.2032211052159359  0.1972057407035648  0.5489633193827352
  0.0798638628343783  0.4759927171945275  0.2525526423564292
  0.9219142073829201  0.5197265459534007  0.7450265247288392
  0.5791308689076604  0.0233974624645758  0.7460580543807435
  0.4217686027565125  0.9803466406759087  0.2510955960764191
  0.6856384690307895  0.2852799991638555  0.0457194456975618
  0.3182194735079776  0.7216347906723395  0.9560797990827833
  0.2794805604086917  0.6978928379247119  0.5378672673677002
  0.7854812678845122  0.7890502770108060  0.4589069168108382
 
  0.00000000E+00  0.00000000E+00  0.00000000E+00
  0.00000000E+00  0.00000000E+00  0.00000000E+00
  0.00000000E+00  0.00000000E+00  0.00000000E+00
  0.00000000E+00  0.00000000E+00  0.00000000E+00
  0.00000000E+00  0.00000000E+00  0.00000000E+00
  0.00000000E+00  0.00000000E+00  0.00000000E+00
  0.00000000E+00  0.00000000E+00  0.00000000E+00
  0.00000000E+00  0.00000000E+00  0.00000000E+00
  0.00000000E+00  0.00000000E+00  0.00000000E+00
  0.00000000E+00  0.00000000E+00  0.00000000E+00
  0.00000000E+00  0.00000000E+00  0.00000000E+00
  0.00000000E+00  0.00000000E+00  0.00000000E+00
  0.00000000E+00  0.00000000E+00  0.00000000E+00
  0.00000000E+00  0.00000000E+00  0.00000000E+00
  0.00000000E+00  0.00000000E+00  0.00000000E+00
  0.00000000E+00  0.00000000E+00  0.00000000E+00
  0.00000000E+00  0.00000000E+00  0.00000000E+00
  0.00000000E+00  0.00000000E+00  0.00000000E+00
  0.00000000E+00  0.00000000E+00  0.00000000E+00
  0.00000000E+00  0.00000000E+00  0.00000000E+00
