Co4 O4 F8                               
   1.00000000000000     
     5.4975416652035509    0.0205589482414706   -0.0318012100266108
    -2.7544589556420567    4.7912596051934262    0.0102233157901137
    -0.0333140651722982   -0.0286792372081008    9.4574402969216429
   Co   O    F 
     4     4     8
Direct
  0.3459827319766574  0.6810823447340388  0.6045533860111393
  0.6634114600637800  0.3258924170432772  0.3930981169053849
  0.6745693444009586  0.3367082135371144  0.1036594164870044
  0.3253977418633947  0.6626365285271372  0.8924118574770268
  0.9788540075326844  0.4922551679576724  0.9896478327927075
  0.5067605423414981  0.0128700898658602  0.5074378873413922
  0.6331632746254935  0.8089930537796653  0.7536144037741935
  0.8205189186741884  0.1830981448260270  0.2495128559007909
  0.4840563070654588  0.9914491282481340  0.0044594768903860
  0.4746205404737520  0.4942992335246730  0.0111990637987128
  0.9982310919372729  0.5049766331094561  0.5011956303915761
  0.5010371601748917  0.5126151550449282  0.4927019500310929
  0.8267920240503754  0.6216882824213139  0.2459978491088241
  0.1970130655585595  0.3775602726457469  0.7489748767684811
  0.3768990644018259  0.1740429553918729  0.2528797851042450
  0.1926927248592082  0.8198323793430893  0.7486556112170492
 
  0.00000000E+00  0.00000000E+00  0.00000000E+00
  0.00000000E+00  0.00000000E+00  0.00000000E+00
  0.00000000E+00  0.00000000E+00  0.00000000E+00
  0.00000000E+00  0.00000000E+00  0.00000000E+00
  0.00000000E+00  0.00000000E+00  0.00000000E+00
  0.00000000E+00  0.00000000E+00  0.00000000E+00
  0.00000000E+00  0.00000000E+00  0.00000000E+00
  0.00000000E+00  0.00000000E+00  0.00000000E+00
  0.00000000E+00  0.00000000E+00  0.00000000E+00
  0.00000000E+00  0.00000000E+00  0.00000000E+00
  0.00000000E+00  0.00000000E+00  0.00000000E+00
  0.00000000E+00  0.00000000E+00  0.00000000E+00
  0.00000000E+00  0.00000000E+00  0.00000000E+00
  0.00000000E+00  0.00000000E+00  0.00000000E+00
  0.00000000E+00  0.00000000E+00  0.00000000E+00
  0.00000000E+00  0.00000000E+00  0.00000000E+00
