Co4 O4 F8                               
   1.00000000000000     
     4.9215090152630863   -0.0083140834585179    0.0181792957164777
    -0.0015817060475061    5.2439552217452849   -0.0305274195843084
    -0.0181334767075978   -0.0504377528839732    7.2081767244872683
   Co   O    F 
     4     4     8
Direct
  0.5023677020020879  0.0008897484109825 -0.0000026612157555
  0.9998796204966167  0.4995247858477996  0.0019881363913268
  0.5126523565750702  0.9974080785610977  0.4969818774409314
  0.0131412458324237  0.5014560309577866  0.5030092309515423
  0.1733572155194771  0.1805515121537272  0.9455511042587127
  0.8282132872482054  0.8192537631157775  0.0570051880903057
  0.3071955808259639  0.7037850943122328  0.5581869275766349
  0.8031024889327710  0.7901924114079907  0.4258115521073129
  0.6725431490864662  0.3174597226589737  0.0575422131339031
  0.3275224321068760  0.6844552861706902  0.9433046209609192
  0.6787164217200866  0.3169320706182502  0.4423939946092474
  0.1799718269940241  0.1868515358937053  0.5683814715644674
  0.1266595547987176  0.4597038666093645  0.2509152814973032
  0.8754651024012188  0.5283421411566239  0.7507585135997257
  0.6289327971825168  0.0283039864965339  0.7450590079513874
  0.3702792182774775  0.9848899656284639  0.2531135410820283
 
  0.00000000E+00  0.00000000E+00  0.00000000E+00
  0.00000000E+00  0.00000000E+00  0.00000000E+00
  0.00000000E+00  0.00000000E+00  0.00000000E+00
  0.00000000E+00  0.00000000E+00  0.00000000E+00
  0.00000000E+00  0.00000000E+00  0.00000000E+00
  0.00000000E+00  0.00000000E+00  0.00000000E+00
  0.00000000E+00  0.00000000E+00  0.00000000E+00
  0.00000000E+00  0.00000000E+00  0.00000000E+00
  0.00000000E+00  0.00000000E+00  0.00000000E+00
  0.00000000E+00  0.00000000E+00  0.00000000E+00
  0.00000000E+00  0.00000000E+00  0.00000000E+00
  0.00000000E+00  0.00000000E+00  0.00000000E+00
  0.00000000E+00  0.00000000E+00  0.00000000E+00
  0.00000000E+00  0.00000000E+00  0.00000000E+00
  0.00000000E+00  0.00000000E+00  0.00000000E+00
  0.00000000E+00  0.00000000E+00  0.00000000E+00
