Na4 Cr4 O8 F4                           
   1.00000000000000     
     5.3824086247030341    0.0295435380161363   -0.0126057752237134
    -0.0271033074516067    5.3435347474407013    0.0183666265505517
     0.0216182190142808   -0.0131003263941257    7.1544476758007978
   Na   Cr   O    F 
     4     4     8     4
Direct
  0.0076638802266486  0.0275843798415110  0.2462683913752468
  0.9965666748851544  0.9661442349204769  0.7492217481843617
  0.5039235056688237  0.4659469919165658  0.7486347029446214
  0.4920652959102194  0.5273421167882076  0.2467142761811700
  0.4676528735923600  0.9870924887996159  0.9959836225232266
  0.0314083102667464  0.4873788190373377  0.9960726933053533
  0.5368334565203380  0.9956983274514883  0.4958502897066953
  0.9622909080855147  0.4958408319945910  0.4957179858568906
  0.0535373329637847  0.4991184749062337  0.2533014004876188
  0.9510875217417867  0.5213724113686169  0.7513161600744377
  0.5492613017683362  0.0222317455792252  0.7518859423772288
  0.4469973500068607  0.9981732196961104  0.2527829861491129
  0.3104234095969148  0.6949217027419289  0.9725525236959638
  0.1895634509481221  0.1947439092887366  0.9731725365183110
  0.6954614233703535  0.3092235964388331  0.4706928223379611
  0.8045147961625841  0.8091131584980825  0.4708648883236784
  0.7058120790606054  0.2925612316530607  0.0327775450834494
  0.7945757989584855  0.7921960790354383  0.0322436366290646
  0.3080342450098999  0.7068032724301865  0.5322189017261589
  0.1923263852564605  0.2065130076137461  0.5317269465194346
 
  0.00000000E+00  0.00000000E+00  0.00000000E+00
  0.00000000E+00  0.00000000E+00  0.00000000E+00
  0.00000000E+00  0.00000000E+00  0.00000000E+00
  0.00000000E+00  0.00000000E+00  0.00000000E+00
  0.00000000E+00  0.00000000E+00  0.00000000E+00
  0.00000000E+00  0.00000000E+00  0.00000000E+00
  0.00000000E+00  0.00000000E+00  0.00000000E+00
  0.00000000E+00  0.00000000E+00  0.00000000E+00
  0.00000000E+00  0.00000000E+00  0.00000000E+00
  0.00000000E+00  0.00000000E+00  0.00000000E+00
  0.00000000E+00  0.00000000E+00  0.00000000E+00
  0.00000000E+00  0.00000000E+00  0.00000000E+00
  0.00000000E+00  0.00000000E+00  0.00000000E+00
  0.00000000E+00  0.00000000E+00  0.00000000E+00
  0.00000000E+00  0.00000000E+00  0.00000000E+00
  0.00000000E+00  0.00000000E+00  0.00000000E+00
  0.00000000E+00  0.00000000E+00  0.00000000E+00
  0.00000000E+00  0.00000000E+00  0.00000000E+00
  0.00000000E+00  0.00000000E+00  0.00000000E+00
  0.00000000E+00  0.00000000E+00  0.00000000E+00
