Na4 Fe4 O8 F4                           
   1.00000000000000     
     5.4823122883250957    0.0023813638708106    0.0035879262201008
     0.0024364841203379    5.4793450447824634   -0.0007295364303237
     0.0156379069770274   -0.0037995400830043    7.2367510752681987
   Na   Fe   O    F 
     4     4     8     4
Direct
  0.0027964892144850  0.0367460084390148  0.2439949740409962
  0.9959613718362404  0.9704985910156737  0.7467476031879022
  0.5028795010068087  0.4632915950767949  0.7463043022517583
  0.4940348041215384  0.5285405372385875  0.2476694937012293
  0.4796702505799979  0.0034932724324221  0.0007397044148542
  0.0102203115852276  0.4818429243639021  0.0031577263419575
  0.5107165705341299  0.0178413389570306  0.5037889826407508
  0.9780471820248915  0.4944755898853775  0.4997085880786475
  0.1997208377795218  0.2093436590318718  0.9643628380872663
  0.8023068581739790  0.7616399859394998  0.0238668711434385
  0.3040603394163633  0.7393033006226044  0.5250249533547557
  0.6989602054129483  0.2909753952329879  0.4641131885221610
  0.0688665051068583  0.4853715119414111  0.2480868733352695
  0.9252754925581856  0.5357739668162745  0.7589041185654528
  0.5697360447210579  0.0158769595579259  0.7484850974200428
  0.4258207523640054  0.9632661617619975  0.2594967624714938
  0.7022745966382193  0.2746661386061204  0.0512953716477095
  0.3115882969254696  0.6932495638724087  0.9564240451778903
  0.8141660047492805  0.8079476715842182  0.4569667679390473
  0.2028975852507912  0.2258558276238836  0.5508617376773628
 
  0.00000000E+00  0.00000000E+00  0.00000000E+00
  0.00000000E+00  0.00000000E+00  0.00000000E+00
  0.00000000E+00  0.00000000E+00  0.00000000E+00
  0.00000000E+00  0.00000000E+00  0.00000000E+00
  0.00000000E+00  0.00000000E+00  0.00000000E+00
  0.00000000E+00  0.00000000E+00  0.00000000E+00
  0.00000000E+00  0.00000000E+00  0.00000000E+00
  0.00000000E+00  0.00000000E+00  0.00000000E+00
  0.00000000E+00  0.00000000E+00  0.00000000E+00
  0.00000000E+00  0.00000000E+00  0.00000000E+00
  0.00000000E+00  0.00000000E+00  0.00000000E+00
  0.00000000E+00  0.00000000E+00  0.00000000E+00
  0.00000000E+00  0.00000000E+00  0.00000000E+00
  0.00000000E+00  0.00000000E+00  0.00000000E+00
  0.00000000E+00  0.00000000E+00  0.00000000E+00
  0.00000000E+00  0.00000000E+00  0.00000000E+00
  0.00000000E+00  0.00000000E+00  0.00000000E+00
  0.00000000E+00  0.00000000E+00  0.00000000E+00
  0.00000000E+00  0.00000000E+00  0.00000000E+00
  0.00000000E+00  0.00000000E+00  0.00000000E+00
