Na4 Co4 O8 F4                           
   1.00000000000000     
     5.3521128993913276   -0.1710902060603561    0.0217813264168470
    -0.2171623025676223    5.4263351116231551   -0.0128514727584338
     0.0402012038250904   -0.0564409356275748    7.4156743805691443
   Na   Co   O    F 
     4     4     8     4
Direct
  0.9860255998377974  0.0408601251213250  0.2534052198320727
  0.9810720131181886  0.9639334838854680  0.7539689695129140
  0.4942310903804357  0.4598123197114499  0.7377709440983091
  0.5391375506063618  0.5430215384082329  0.2536534933958222
  0.4646003795275063  0.0143040971278731  0.9964251355522323
  0.0213917109475192  0.5119086624940044  0.0080839094726244
  0.4948655805534466  0.0009356928293507  0.4970231871450831
  0.0022064608172942  0.4941268105125950  0.4945029994573580
  0.1111652117627456  0.4803657013463459  0.2458439974026154
  0.5455222467692770  0.0253668783951330  0.7674774887315041
  0.4236394444617297  0.9740999566179326  0.2267181060228690
  0.3238018571068638  0.7088400003117616  0.9528985340118129
  0.1787637745511331  0.2405337319515284  0.9654714428385700
  0.8504415152572821  0.7562848693233076  0.0458652142235350
  0.2809273357689251  0.7117236608763406  0.5284547189593956
  0.7114329606124340  0.2757307487327672  0.4660321199433332
  0.9116344707026338  0.5211234130682404  0.7534690391119230
  0.6947168320114533  0.2926265882654795  0.0489221964271618
  0.7892245651559394  0.7843463295749483  0.4604614270597211
  0.1951994000510555  0.2000553914459221  0.5435518568011567
 
  0.00000000E+00  0.00000000E+00  0.00000000E+00
  0.00000000E+00  0.00000000E+00  0.00000000E+00
  0.00000000E+00  0.00000000E+00  0.00000000E+00
  0.00000000E+00  0.00000000E+00  0.00000000E+00
  0.00000000E+00  0.00000000E+00  0.00000000E+00
  0.00000000E+00  0.00000000E+00  0.00000000E+00
  0.00000000E+00  0.00000000E+00  0.00000000E+00
  0.00000000E+00  0.00000000E+00  0.00000000E+00
  0.00000000E+00  0.00000000E+00  0.00000000E+00
  0.00000000E+00  0.00000000E+00  0.00000000E+00
  0.00000000E+00  0.00000000E+00  0.00000000E+00
  0.00000000E+00  0.00000000E+00  0.00000000E+00
  0.00000000E+00  0.00000000E+00  0.00000000E+00
  0.00000000E+00  0.00000000E+00  0.00000000E+00
  0.00000000E+00  0.00000000E+00  0.00000000E+00
  0.00000000E+00  0.00000000E+00  0.00000000E+00
  0.00000000E+00  0.00000000E+00  0.00000000E+00
  0.00000000E+00  0.00000000E+00  0.00000000E+00
  0.00000000E+00  0.00000000E+00  0.00000000E+00
  0.00000000E+00  0.00000000E+00  0.00000000E+00
