Mn8 O8 F16                              
   1.00000000000000     
     7.4949682068014258    0.0690994568773504   -0.0000444921654009
     0.0699176789753957    7.2609708254803795    0.0000017662438653
     0.0000312688533712    0.0000022134446917    7.7923719351339455
   Mn   O    F 
     8     8    16
Direct
  0.0076860612590995  0.0058824241069969 -0.0000001028258278
  0.9990742322712231 -0.0000797503365589  0.4999996620675690
  0.9922468622249827  0.4941728119616549  0.0000000537327078
  0.9992192920939982  0.4999900458144767  0.5000002390207011
  0.4922325816531761  0.9941712341118909  0.0000000007123702
  0.4992031599394133 -0.0000096392066815  0.4999998005036657
  0.5076731387346192  0.5058821962140770 -0.0000001432440990
  0.4990892630549655  0.4999201588288375  0.4999994257055927
  0.7502765972856669  0.4999256532734440  0.0000004720604235
  0.2502756396014613 -0.0000743704925424  0.0000003111181792
  0.0008179540139094  0.2500309753896967  0.9999995400287308
 -0.0000823473622986  0.2499943657287112  0.4999999730089477
  0.0000102732506826  0.7499825382378665  0.4999996541754345
  0.5000112341211789  0.2499831215583263  0.5000001101455829
  0.5009141458489995  0.7500160550294579  0.0000030123554002
  0.4999178501776439  0.7499943057630649  0.4999996031967793
  0.9975944890850950  0.9956078949990639  0.2342228499145367
  0.5026837777916388  0.0045276401970381  0.7657790590231079
  0.2493480912154874  0.0000077523760945  0.4999996631259594
  0.2494382402639080  0.4999289215827096  0.5000002910345430
  0.7493612158211604  0.5000075779566868  0.4999986896033294
  0.0007788096380307  0.7499422940197901  0.0000004743408278
  0.5007922685144180  0.2499413752179273  0.9999993848467729
  0.9975931130611773  0.9956073426183916  0.7657769609109182
  0.0026947736553900  0.5045306576219210  0.2342205192654045
  0.0026923969497756  0.5045316534609466  0.7657795922879289
  0.5026860644189813  0.0045292182594323  0.2342210926164238
  0.4975925786892992  0.4956028293230436  0.2342234435074015
  0.4975911960356900  0.4956048994610663  0.7657765020819636
  0.2505815065755158  0.4999628656401001  0.9999996962161114
  0.7505805969656457  0.9999631667691661  0.9999997813646559
  0.7494249431500580 -0.0000782154860967  0.5000003880979572
 
  0.00000000E+00  0.00000000E+00  0.00000000E+00
  0.00000000E+00  0.00000000E+00  0.00000000E+00
  0.00000000E+00  0.00000000E+00  0.00000000E+00
  0.00000000E+00  0.00000000E+00  0.00000000E+00
  0.00000000E+00  0.00000000E+00  0.00000000E+00
  0.00000000E+00  0.00000000E+00  0.00000000E+00
  0.00000000E+00  0.00000000E+00  0.00000000E+00
  0.00000000E+00  0.00000000E+00  0.00000000E+00
  0.00000000E+00  0.00000000E+00  0.00000000E+00
  0.00000000E+00  0.00000000E+00  0.00000000E+00
  0.00000000E+00  0.00000000E+00  0.00000000E+00
  0.00000000E+00  0.00000000E+00  0.00000000E+00
  0.00000000E+00  0.00000000E+00  0.00000000E+00
  0.00000000E+00  0.00000000E+00  0.00000000E+00
  0.00000000E+00  0.00000000E+00  0.00000000E+00
  0.00000000E+00  0.00000000E+00  0.00000000E+00
  0.00000000E+00  0.00000000E+00  0.00000000E+00
  0.00000000E+00  0.00000000E+00  0.00000000E+00
  0.00000000E+00  0.00000000E+00  0.00000000E+00
  0.00000000E+00  0.00000000E+00  0.00000000E+00
  0.00000000E+00  0.00000000E+00  0.00000000E+00
  0.00000000E+00  0.00000000E+00  0.00000000E+00
  0.00000000E+00  0.00000000E+00  0.00000000E+00
  0.00000000E+00  0.00000000E+00  0.00000000E+00
  0.00000000E+00  0.00000000E+00  0.00000000E+00
  0.00000000E+00  0.00000000E+00  0.00000000E+00
  0.00000000E+00  0.00000000E+00  0.00000000E+00
  0.00000000E+00  0.00000000E+00  0.00000000E+00
  0.00000000E+00  0.00000000E+00  0.00000000E+00
  0.00000000E+00  0.00000000E+00  0.00000000E+00
  0.00000000E+00  0.00000000E+00  0.00000000E+00
  0.00000000E+00  0.00000000E+00  0.00000000E+00
