Na4 Ni4 O8 F4                           
   1.00000000000000     
     5.0562551635871102   -0.1507065722169519    0.6268009047495672
    -0.1253644677979119    5.2370274652530071   -0.0311817752521370
    -0.9316864532520807    0.1710405442819868    7.5779078772110147
   Na   Ni   O    F 
     4     4     8     4
Direct
  0.0045428216500909  0.0382730138177863  0.2612414680564541
  0.0090808536296763  0.9513943885117726  0.7607908062263462
  0.4807243522351143  0.4505077902225239  0.7418255721574454
  0.5234262224585962  0.5552824501846061  0.2453660000232034
  0.5120632910345293  0.9973027218777517  0.9975051195923754
  0.0011324219646838  0.5168115525414123  0.0062704380431242
  0.4857818183454867  0.0087507982025414  0.5047632715872936
  0.9990197799537270  0.4895917446667184  0.4903220006263069
  0.7004860330819298  0.3036038273609378  0.0420473528764731
  0.3163938052488433  0.6983268545950878  0.9534289686989936
  0.8191229667750903  0.8073803741178835  0.0406114417064032
  0.2957619513416674  0.6986895029605904  0.5355262362690993
  0.6850354834662724  0.3077465828304327  0.4619165407628287
  0.1816288831143495  0.1979249958722349  0.5354802011291255
  0.0797120924184469  0.4805039879106801  0.2492160862711614
  0.5584043581493674  0.9993183880184020  0.7511781144215419
  0.2016283909384100  0.2108058745577779  0.9617646232988619
  0.7950185914924788  0.7980539586450419  0.4654341681724432
  0.9211398641153679  0.5135088853770355  0.7496724136253547
  0.4298960185858718  0.9762223077287899  0.2456391764551569
 
  0.00000000E+00  0.00000000E+00  0.00000000E+00
  0.00000000E+00  0.00000000E+00  0.00000000E+00
  0.00000000E+00  0.00000000E+00  0.00000000E+00
  0.00000000E+00  0.00000000E+00  0.00000000E+00
  0.00000000E+00  0.00000000E+00  0.00000000E+00
  0.00000000E+00  0.00000000E+00  0.00000000E+00
  0.00000000E+00  0.00000000E+00  0.00000000E+00
  0.00000000E+00  0.00000000E+00  0.00000000E+00
  0.00000000E+00  0.00000000E+00  0.00000000E+00
  0.00000000E+00  0.00000000E+00  0.00000000E+00
  0.00000000E+00  0.00000000E+00  0.00000000E+00
  0.00000000E+00  0.00000000E+00  0.00000000E+00
  0.00000000E+00  0.00000000E+00  0.00000000E+00
  0.00000000E+00  0.00000000E+00  0.00000000E+00
  0.00000000E+00  0.00000000E+00  0.00000000E+00
  0.00000000E+00  0.00000000E+00  0.00000000E+00
  0.00000000E+00  0.00000000E+00  0.00000000E+00
  0.00000000E+00  0.00000000E+00  0.00000000E+00
  0.00000000E+00  0.00000000E+00  0.00000000E+00
  0.00000000E+00  0.00000000E+00  0.00000000E+00
