Na8 Fe8 O16 F8                          
   1.00000000000000     
     7.3483204069466792   -0.0000073171751617    0.0000044975997400
    -0.0000078147721369    7.5234812102560502    0.0201238455709028
     0.0000048801701939    0.0215545829430027    7.9775401259497540
   Na   Fe   O    F 
     8     8    16     8
Direct
  0.2495113144597460  0.2451202927389191  0.2489516469496049
  0.2495079045054749  0.2548688877852440  0.7510679405669054
  0.2495110971279122  0.7548801302441241  0.2510449344614686
  0.2495085699992308  0.7451300893958192  0.7489311525663035
  0.7504664392848760  0.2450746890840481  0.2490288313028481
  0.7504723793830526  0.2549153000930804  0.7509844714144599
  0.7504639759776084  0.7549294562340505  0.2509630884901664
  0.7504736470842316  0.7450873191470105  0.7490091530452464
 -0.0000005504171782  0.9881806468349983  0.9827230127957599
 -0.0000003743627406  0.0118190091444600  0.5172721453408561
 -0.0000005125027822  0.5118197471212286  0.0172734828272898
 -0.0000005852074583  0.4881799100536511  0.4827214405183376
  0.4999972035402529  0.0028145944194198  0.9997353742244506
  0.4999974821817510  0.9971868730058611  0.5002633673181508
  0.4999976079009151  0.4971867539717761  0.0002625980160509
  0.4999973891770804  0.5028146448693510  0.4997360790535284
  0.2502009313953152  0.9990146385750043  0.0021212697019399
  0.2501690870108965  0.0009847776649991  0.4978887806801349
  0.2501685890190019  0.5009848863359191  0.9978896153951252
  0.2502006532473318  0.4990144952533982  0.5021204469783178
  0.7498037298713924  0.9989602290753408  0.0021164966958907
  0.7498344052114545  0.0010402149428165  0.4978898679409481
  0.7498349083329860  0.5010403019073220  0.9978907221711920
  0.7498042069366296  0.4989601123072999  0.5021156542147581
  0.0000238487329337  0.2499950631271259  0.5000024602420252
  0.0000238532200614  0.7499949273516283  0.0000035045411578
  0.5000286331208259  0.2499742546561992  0.0000012745610442
  0.4999937612072340  0.2500265764472518  0.4999995192389569
  0.4999937469438297  0.7500271360939634  0.0000009825257816
  0.5000286541915210  0.7499749517709401  0.5000008513671959
  0.0000048495864998  0.0000001665517158  0.7499896366449244
  0.0000049006187597  0.5000000829407957  0.2499894650033206
  0.9999711769772365  0.2499996826218460  0.9999977257384357
  0.9999711553358043  0.7499986965409999  0.5000008259135407
  0.0000012012823438  0.0000004480188760  0.2500036247900580
  0.0000012170668998  0.5000002824114287  0.7500037591943327
  0.5000133002477535 -0.0000002971982501  0.2500175296200726
  0.5000034333267602  0.0000001071949480  0.7499848952499472
  0.5000034566775663  0.5000001783432257  0.2499848353304079
  0.5000133123069688  0.4999997429221638  0.7500175373690574
 
  0.00000000E+00  0.00000000E+00  0.00000000E+00
  0.00000000E+00  0.00000000E+00  0.00000000E+00
  0.00000000E+00  0.00000000E+00  0.00000000E+00
  0.00000000E+00  0.00000000E+00  0.00000000E+00
  0.00000000E+00  0.00000000E+00  0.00000000E+00
  0.00000000E+00  0.00000000E+00  0.00000000E+00
  0.00000000E+00  0.00000000E+00  0.00000000E+00
  0.00000000E+00  0.00000000E+00  0.00000000E+00
  0.00000000E+00  0.00000000E+00  0.00000000E+00
  0.00000000E+00  0.00000000E+00  0.00000000E+00
  0.00000000E+00  0.00000000E+00  0.00000000E+00
  0.00000000E+00  0.00000000E+00  0.00000000E+00
  0.00000000E+00  0.00000000E+00  0.00000000E+00
  0.00000000E+00  0.00000000E+00  0.00000000E+00
  0.00000000E+00  0.00000000E+00  0.00000000E+00
  0.00000000E+00  0.00000000E+00  0.00000000E+00
  0.00000000E+00  0.00000000E+00  0.00000000E+00
  0.00000000E+00  0.00000000E+00  0.00000000E+00
  0.00000000E+00  0.00000000E+00  0.00000000E+00
  0.00000000E+00  0.00000000E+00  0.00000000E+00
  0.00000000E+00  0.00000000E+00  0.00000000E+00
  0.00000000E+00  0.00000000E+00  0.00000000E+00
  0.00000000E+00  0.00000000E+00  0.00000000E+00
  0.00000000E+00  0.00000000E+00  0.00000000E+00
  0.00000000E+00  0.00000000E+00  0.00000000E+00
  0.00000000E+00  0.00000000E+00  0.00000000E+00
  0.00000000E+00  0.00000000E+00  0.00000000E+00
  0.00000000E+00  0.00000000E+00  0.00000000E+00
  0.00000000E+00  0.00000000E+00  0.00000000E+00
  0.00000000E+00  0.00000000E+00  0.00000000E+00
  0.00000000E+00  0.00000000E+00  0.00000000E+00
  0.00000000E+00  0.00000000E+00  0.00000000E+00
  0.00000000E+00  0.00000000E+00  0.00000000E+00
  0.00000000E+00  0.00000000E+00  0.00000000E+00
  0.00000000E+00  0.00000000E+00  0.00000000E+00
  0.00000000E+00  0.00000000E+00  0.00000000E+00
  0.00000000E+00  0.00000000E+00  0.00000000E+00
  0.00000000E+00  0.00000000E+00  0.00000000E+00
  0.00000000E+00  0.00000000E+00  0.00000000E+00
  0.00000000E+00  0.00000000E+00  0.00000000E+00
