Ti4 O4 F8                               
   1.00000000000000     
     5.1818288333268221   -0.0001418796125899    0.0000155067715713
    -0.0001470953776099    5.3457516063298689    0.0007503556460640
     0.0000241942580025   -0.0008140468261570    7.6262511874696699
   Ti   O    F 
     4     4     8
Direct
  0.4923347251320607  0.0266558688460137  0.9995969334621293
  0.9922851317109291  0.4733335969987706  0.0004115810415328
  0.5076748644669991  0.9733468922528914  0.4996034396419802
  0.0077204844298819  0.5266704502605108  0.5004040227991240
  0.7054251528384015  0.2895302827359387  0.0441347920450781
  0.2053680666670630  0.2105048101769142  0.9558648540154451
  0.2944990278391657  0.7105892999774994  0.5441751249245357
  0.7945479140597485  0.7893777218702169  0.4558199387406674
  0.2880120886518327  0.7122865006767398  0.9650763761190149
  0.7880246170230336  0.7877070316865868  0.0349157222594698
  0.7119931005771178  0.2877022132467886  0.4650533661960807
  0.2119773918950258  0.2122992598973426  0.5349419736703140
  0.0866318860698385  0.4880672703595934  0.2496013747982104
  0.9134371732461943  0.5119233959191547  0.7495988701351237
  0.5866250154199832  0.0119342642839939  0.7503989174760974
  0.4134433599727245  0.9880711408110443  0.2504027126751893
 
  0.00000000E+00  0.00000000E+00  0.00000000E+00
  0.00000000E+00  0.00000000E+00  0.00000000E+00
  0.00000000E+00  0.00000000E+00  0.00000000E+00
  0.00000000E+00  0.00000000E+00  0.00000000E+00
  0.00000000E+00  0.00000000E+00  0.00000000E+00
  0.00000000E+00  0.00000000E+00  0.00000000E+00
  0.00000000E+00  0.00000000E+00  0.00000000E+00
  0.00000000E+00  0.00000000E+00  0.00000000E+00
  0.00000000E+00  0.00000000E+00  0.00000000E+00
  0.00000000E+00  0.00000000E+00  0.00000000E+00
  0.00000000E+00  0.00000000E+00  0.00000000E+00
  0.00000000E+00  0.00000000E+00  0.00000000E+00
  0.00000000E+00  0.00000000E+00  0.00000000E+00
  0.00000000E+00  0.00000000E+00  0.00000000E+00
  0.00000000E+00  0.00000000E+00  0.00000000E+00
  0.00000000E+00  0.00000000E+00  0.00000000E+00
