Na2 Cr2 O4 F2                           
   1.00000000000000     
    -2.7636720645933219   -4.5409859482637485   -0.0133168142925609
    -5.3143454713036125   -0.0879156081879379   -0.0250738468536400
    -2.5018289465036139   -1.4475393595761235   -4.3064395600524126
   Na   Cr   O    F 
     2     2     4     2
Direct
  0.2345103116645575  0.2761580336911109  0.2366241103351143
  0.7756002293739854  0.7339884734418405  0.7365353530995620
  0.0044213159313458  0.0046307360754270  0.9870261297763818
  0.5045091305862286  0.5044410056753463  0.4869749381352264
  0.2203182376954729  0.7064981496442897  0.2706579935162097
  0.2057555954024011  0.7194941478587751  0.7714148181507738
  0.7887602058893890  0.3022127274626456  0.7008906219519631
  0.8030632157192699  0.2896083700510346  0.2000495909749205
  0.6658240827516408  0.8432012131686903  0.2368676711811020
  0.3432376749857085  0.1657671429308465  0.7349587728787341
 
  0.00000000E+00  0.00000000E+00  0.00000000E+00
  0.00000000E+00  0.00000000E+00  0.00000000E+00
  0.00000000E+00  0.00000000E+00  0.00000000E+00
  0.00000000E+00  0.00000000E+00  0.00000000E+00
  0.00000000E+00  0.00000000E+00  0.00000000E+00
  0.00000000E+00  0.00000000E+00  0.00000000E+00
  0.00000000E+00  0.00000000E+00  0.00000000E+00
  0.00000000E+00  0.00000000E+00  0.00000000E+00
  0.00000000E+00  0.00000000E+00  0.00000000E+00
  0.00000000E+00  0.00000000E+00  0.00000000E+00
