Na2 Ti2 O4 F2                           
   1.00000000000000     
     3.8291299871105435    0.0000000005101175    0.0000031372800979
    -0.0000000000317811    3.8291781447095552    0.0000000118522657
     0.0000158361761223    0.0000000230468682    8.0003101302570769
   Na   Ti   O    F 
     2     2     4     2
Direct
  0.9999987549791030  0.0000000071207680  0.0004433968960740
  0.9999987582674592  0.0000000003002114  0.5004433593546551
  0.4999720238766798  0.5000000101184838  0.2547191418965085
  0.4999720181577558  0.4999999871512273  0.7547191425750199
  0.5000076658074164  0.0000000025478215  0.2556532349596949
  0.5000076559700517  0.9999999967102724  0.7556532316636861
  0.0000137584593460  0.5000000008307879  0.2556533121302706
  0.0000137542449679  0.4999999913272930  0.7556533085554236
  0.5000078070996707  0.5000000005193783  0.0050309383943272
  0.5000078031375494  0.5000000033737564  0.5050309335743322
 
  0.00000000E+00  0.00000000E+00  0.00000000E+00
  0.00000000E+00  0.00000000E+00  0.00000000E+00
  0.00000000E+00  0.00000000E+00  0.00000000E+00
  0.00000000E+00  0.00000000E+00  0.00000000E+00
  0.00000000E+00  0.00000000E+00  0.00000000E+00
  0.00000000E+00  0.00000000E+00  0.00000000E+00
  0.00000000E+00  0.00000000E+00  0.00000000E+00
  0.00000000E+00  0.00000000E+00  0.00000000E+00
  0.00000000E+00  0.00000000E+00  0.00000000E+00
  0.00000000E+00  0.00000000E+00  0.00000000E+00
