Ti2 O2 F4                               
    1.000000000000000     
     3.9249821299391381   -0.0000002156042490   -0.0000029157898223
    -0.0000001952797600    3.9249985917616392   -0.0000001380526183
    -0.0000932146160603   -0.0000002604353058    7.4143118372870251
   Ti   O    F 
     2     2     4
Direct
  0.5000399910028451  0.5000002120478224  0.2471432569280792
  0.5000397461628525  0.4999996655350878  0.7471302973344149
  0.5000238523933882  0.5000000518132534  0.0072429797281746
  0.5000237646524692  0.4999999968368196  0.5072361294844269
  0.5000102154250640  0.0000001581166966  0.2585634679119918
  0.5000100920548084  0.9999998899833387  0.7585633820985430
 -0.0000734384166002  0.5000001201406419  0.2585602636151630
 -0.0000742232748272  0.4999999055263468  0.7585602228991916
 
  0.00000000E+00  0.00000000E+00  0.00000000E+00
  0.00000000E+00  0.00000000E+00  0.00000000E+00
  0.00000000E+00  0.00000000E+00  0.00000000E+00
  0.00000000E+00  0.00000000E+00  0.00000000E+00
  0.00000000E+00  0.00000000E+00  0.00000000E+00
  0.00000000E+00  0.00000000E+00  0.00000000E+00
  0.00000000E+00  0.00000000E+00  0.00000000E+00
  0.00000000E+00  0.00000000E+00  0.00000000E+00
