Fe4 O4 F8                               
   1.00000000000000     
     5.0222109949277511    0.0093370206365673   -0.0528262610991644
     0.0268117197978081    5.3763572245156137    0.0046334433440885
    -0.0304773080887983    0.0119846152795972    7.3060138207116401
   Fe   O    F 
     4     4     8
Direct
  0.5245474574338607  0.9796563329712190  0.9909832481536440
  0.0195754391292572  0.4823197070275487  0.9960726809629424
  0.4870864663770996  0.0213083567914946  0.5168618995671865
  0.9695812208905424  0.5194158542554586  0.4942355944580797
  0.1998256411410408  0.1619297482957371  0.9450082772209394
  0.7747220932271567  0.8323504755245889  0.4420418425895730
  0.5917970064938713  0.0399159690867814  0.7473405171951142
  0.4334793474133837  0.9524228856067574  0.2579571901809764
  0.7200261161674020  0.2781953092448232  0.0653609542304553
  0.3428961804054740  0.6615818789380008  0.9495145759195545
  0.8425837651046768  0.7934264253200584  0.0488829878979553
  0.2655880581388246  0.7253656320297980  0.5574569112937485
  0.6577790813979235  0.3330828575016787  0.4378646034445841
  0.1718774366317158  0.2138062643037552  0.5467253768459263
  0.1173676757065704  0.4841614455726137  0.2536942394662829
  0.8812670143412001  0.5210608575296937  0.7499991005730449
 
  0.00000000E+00  0.00000000E+00  0.00000000E+00
  0.00000000E+00  0.00000000E+00  0.00000000E+00
  0.00000000E+00  0.00000000E+00  0.00000000E+00
  0.00000000E+00  0.00000000E+00  0.00000000E+00
  0.00000000E+00  0.00000000E+00  0.00000000E+00
  0.00000000E+00  0.00000000E+00  0.00000000E+00
  0.00000000E+00  0.00000000E+00  0.00000000E+00
  0.00000000E+00  0.00000000E+00  0.00000000E+00
  0.00000000E+00  0.00000000E+00  0.00000000E+00
  0.00000000E+00  0.00000000E+00  0.00000000E+00
  0.00000000E+00  0.00000000E+00  0.00000000E+00
  0.00000000E+00  0.00000000E+00  0.00000000E+00
  0.00000000E+00  0.00000000E+00  0.00000000E+00
  0.00000000E+00  0.00000000E+00  0.00000000E+00
  0.00000000E+00  0.00000000E+00  0.00000000E+00
  0.00000000E+00  0.00000000E+00  0.00000000E+00
