Ti4 O4 F8                               
   1.00000000000000     
     5.1971579406324304    0.0002228968108261    0.0002967335788036
    -0.0002632342659829    5.3325405156667598    0.0031881023098574
    -0.0005096054257387   -0.0055175594236664    7.6312600276096152
   Ti   O    F 
     4     4     8
Direct
  0.5260261575616765  0.0061093962031265  0.0039498724490124
  0.9739479684166010  0.5061064189524696  0.0039564628622733
  0.4739549357142701  0.9936410705528895  0.5039653547724410
  0.0260449374860226  0.4936422164354902  0.5039677727518040
  0.7064280573938371  0.2935017027599176  0.0381816838104163
  0.7935512247590734  0.7935013554793188  0.0381703915143697
  0.2936356795075665  0.7063511126465547  0.5382424070362356
  0.2063855074446258  0.2063603852197866  0.5382245808953579
  0.0849783995859960  0.4873417465953181  0.2488202806906685
  0.9150173210803537  0.5130388874130722  0.7488065335093962
  0.5849902652218423  0.0130489048114507  0.7488040301840422
  0.4150217038032385  0.9873080426938878  0.2488168992471625
  0.2897628423507837  0.7144716666895391  0.9590029224312594
  0.2102255543808347  0.2144521088179255  0.9589966923064119
  0.7100663175874118  0.2855676724884830  0.4590464565708475
  0.7899631277058523  0.7855573122407769  0.4590476589682947
 
  0.00000000E+00  0.00000000E+00  0.00000000E+00
  0.00000000E+00  0.00000000E+00  0.00000000E+00
  0.00000000E+00  0.00000000E+00  0.00000000E+00
  0.00000000E+00  0.00000000E+00  0.00000000E+00
  0.00000000E+00  0.00000000E+00  0.00000000E+00
  0.00000000E+00  0.00000000E+00  0.00000000E+00
  0.00000000E+00  0.00000000E+00  0.00000000E+00
  0.00000000E+00  0.00000000E+00  0.00000000E+00
  0.00000000E+00  0.00000000E+00  0.00000000E+00
  0.00000000E+00  0.00000000E+00  0.00000000E+00
  0.00000000E+00  0.00000000E+00  0.00000000E+00
  0.00000000E+00  0.00000000E+00  0.00000000E+00
  0.00000000E+00  0.00000000E+00  0.00000000E+00
  0.00000000E+00  0.00000000E+00  0.00000000E+00
  0.00000000E+00  0.00000000E+00  0.00000000E+00
  0.00000000E+00  0.00000000E+00  0.00000000E+00
