Ti8 O10                                 
   1.00000000000000     
     6.7715891355410456   -0.0111996223487783    0.0002807846415868
    -0.0152794533094414    6.9615447231454741    0.0006521092868947
    -0.0005566529787073    0.0004235478597171    4.2271810375922838
   Ti   O 
     8    10
Direct
  0.7903682877694309  0.3933617801017941 -0.0022919014522322
  0.2251994844796554  0.6059442862002365  0.0001788347439676
  0.3948979364420100  0.2112406794275957 -0.0001724623444196
  0.5986634897406117  0.7866188391574036  0.0001184707270028
  0.2769156162838726  0.8935064591176280  0.5002525816663733
  0.7207899118639726  0.1001554518645176  0.5000283780229888
  0.8866943563032833  0.7086402867175320  0.5000137899356236
  0.1090792119780061  0.2985575656865035  0.5012130189374150
  0.0027437559838001  0.0100431313697300  0.5004498553137748
  0.5118322992220471  0.4932680637954834 -0.0001572434732563
  0.6917638531946260  0.1040868692553535  0.0000692786406702
  0.3089150182532043  0.9145912644286711  0.0002793728697571
  0.0943729505802600  0.3149099263373658  0.0010495414204099
  0.9018898463670031  0.6694461788329248 -0.0000056592132527
  0.1795846661403117  0.6010909421290400  0.5002240249931384
  0.8087349647917773  0.3928341921585148  0.4984870932529972
  0.5894580267474575  0.8221796857038254  0.5001617216667286
  0.4080963238586637  0.1795243977158799  0.5001013042923069
 
  0.00000000E+00  0.00000000E+00  0.00000000E+00
  0.00000000E+00  0.00000000E+00  0.00000000E+00
  0.00000000E+00  0.00000000E+00  0.00000000E+00
  0.00000000E+00  0.00000000E+00  0.00000000E+00
  0.00000000E+00  0.00000000E+00  0.00000000E+00
  0.00000000E+00  0.00000000E+00  0.00000000E+00
  0.00000000E+00  0.00000000E+00  0.00000000E+00
  0.00000000E+00  0.00000000E+00  0.00000000E+00
  0.00000000E+00  0.00000000E+00  0.00000000E+00
  0.00000000E+00  0.00000000E+00  0.00000000E+00
  0.00000000E+00  0.00000000E+00  0.00000000E+00
  0.00000000E+00  0.00000000E+00  0.00000000E+00
  0.00000000E+00  0.00000000E+00  0.00000000E+00
  0.00000000E+00  0.00000000E+00  0.00000000E+00
  0.00000000E+00  0.00000000E+00  0.00000000E+00
  0.00000000E+00  0.00000000E+00  0.00000000E+00
  0.00000000E+00  0.00000000E+00  0.00000000E+00
  0.00000000E+00  0.00000000E+00  0.00000000E+00
