Fe8 O8 F16                              
    1.000000000000000     
     7.5571458583524889    0.0847873814758403    0.0142143647493596
     0.0875927041206341    7.6685711076280736    0.0001644236731516
    -0.0284995328311775   -0.0006228722686607    7.7138607180150789
   Fe   O    F 
     8     8    16
Direct
  0.0092239515488415  0.9975090767454210  0.0000111974129517
 -0.0019689865954913 -0.0025991505720753  0.4999086266557050
  0.9907767927696841  0.5025543031121723  0.0000119888768611
  0.0021902142150279  0.5023736950504284  0.5001047870286225
  0.4907788480986909  0.0024513947019584 -0.0000888434171809
  0.4986792775430861  0.0161447669229152  0.4999406381606190
  0.5092125368240814  0.4979109193869971  0.0001008475470952
  0.5016002545558826  0.4853726571548129  0.5001410449106695
  0.7504993517646200  0.4992987448817982  0.0010077891336340
  0.2493782897664262  0.0008251684883292  0.9989872657621582
  0.9999701006236629  0.2500146061872873 -0.0000911339663593
 -0.0000679305774341  0.2497328913110606  0.4999757785360296
  0.0000534437748706  0.7498414120834306  0.4999993593045570
  0.4985755636578796  0.2425385210840314  0.4999939064326345
  0.5001351293641626  0.7498057938328312  0.0000472022333267
  0.4998628094492709  0.7593454429157677  0.4999657422099756
  0.9974276248479857  0.9824136880847518  0.2506515619608897
  0.5016657963119331  0.0073486696431797  0.7496128981903761
  0.2478469415074939  0.0088660459366084  0.5007215116897733
  0.2513774951073204  0.4910349312859308  0.5003634017064512
  0.7519857893002897  0.4892155349588271  0.4993716830375199
  0.0001442197367644  0.7500312906481953 -0.0000123248853935
  0.5002072666927400  0.2503333154364805 -0.0000382965896160
  0.9947132566167535  0.9818969767338860  0.7492268691325433
  0.0053314649889143  0.5182346517622511  0.2507489816068724
  0.0026288429492449  0.5177879713147806  0.7493523352511868
  0.5029730216218903  0.0070206339693837  0.2502656612080470
  0.4983300525422640  0.4925788792105983  0.2515872821884847
  0.4972784692221739  0.4929580749326124  0.7486064786790506
  0.2501217797712671  0.4997444055424801  0.9990955893835994
  0.7501048711917709  0.0004221126984723  0.0008616276304946
  0.7489634608079393  0.0069925745544022  0.4995685429884424
 
  0.00000000E+00  0.00000000E+00  0.00000000E+00
  0.00000000E+00  0.00000000E+00  0.00000000E+00
  0.00000000E+00  0.00000000E+00  0.00000000E+00
  0.00000000E+00  0.00000000E+00  0.00000000E+00
  0.00000000E+00  0.00000000E+00  0.00000000E+00
  0.00000000E+00  0.00000000E+00  0.00000000E+00
  0.00000000E+00  0.00000000E+00  0.00000000E+00
  0.00000000E+00  0.00000000E+00  0.00000000E+00
  0.00000000E+00  0.00000000E+00  0.00000000E+00
  0.00000000E+00  0.00000000E+00  0.00000000E+00
  0.00000000E+00  0.00000000E+00  0.00000000E+00
  0.00000000E+00  0.00000000E+00  0.00000000E+00
  0.00000000E+00  0.00000000E+00  0.00000000E+00
  0.00000000E+00  0.00000000E+00  0.00000000E+00
  0.00000000E+00  0.00000000E+00  0.00000000E+00
  0.00000000E+00  0.00000000E+00  0.00000000E+00
  0.00000000E+00  0.00000000E+00  0.00000000E+00
  0.00000000E+00  0.00000000E+00  0.00000000E+00
  0.00000000E+00  0.00000000E+00  0.00000000E+00
  0.00000000E+00  0.00000000E+00  0.00000000E+00
  0.00000000E+00  0.00000000E+00  0.00000000E+00
  0.00000000E+00  0.00000000E+00  0.00000000E+00
  0.00000000E+00  0.00000000E+00  0.00000000E+00
  0.00000000E+00  0.00000000E+00  0.00000000E+00
  0.00000000E+00  0.00000000E+00  0.00000000E+00
  0.00000000E+00  0.00000000E+00  0.00000000E+00
  0.00000000E+00  0.00000000E+00  0.00000000E+00
  0.00000000E+00  0.00000000E+00  0.00000000E+00
  0.00000000E+00  0.00000000E+00  0.00000000E+00
  0.00000000E+00  0.00000000E+00  0.00000000E+00
  0.00000000E+00  0.00000000E+00  0.00000000E+00
  0.00000000E+00  0.00000000E+00  0.00000000E+00
