Na4 Cr4 O8 F4                           
   1.00000000000000     
     5.2733943919268862    0.0796770048436559    0.0687982104133593
     0.0649984422345506    5.3432364146394287    0.0231156561312579
    -0.0116440031116420   -0.0429017958314981    7.3279520110245091
   Na   Cr   O    F 
     4     4     8     4
Direct
  0.9811071763067966  0.0263338862664012  0.2388124324284710
  0.0058207154481011  0.9569429793176870  0.7534995461976203
  0.4958627892501757  0.4553212388232143  0.7485986047572840
  0.5057069707476958  0.5404850215945298  0.2555322394922538
  0.4992931921010704  0.0025330176954600  0.0094090458615459
  0.0046989587490585  0.5018316291317931 -0.0014123895728231
  0.4645205004620320  0.0012019859295920  0.4864572359181335
  0.9783208248572181  0.4557807283483578  0.4967236236053068
  0.2114465300680449  0.2156757751548879  0.9636203381404078
  0.7855203239866929  0.7867297546957086  0.0319984343172438
  0.3295783779944950  0.7332651809278253  0.5448576965709160
  0.7121779126422183  0.2731804578416152  0.4611839256658459
  0.2208290177784416  0.2140742209625900  0.5507808975549661
  0.0757933538588982  0.4896033698309897  0.2590911620574691
  0.9361996308446932  0.5212647711990115  0.7399301977274699
  0.4054094476752044  0.9940053776508465  0.2529645040561307
  0.7081689374098479  0.2934970353790641  0.0456511219407240
  0.2961706371451656  0.7135819328420934  0.9545648493855610
  0.7931128230334022  0.7917073386721709  0.4557578588037232
  0.5902618796407487  0.0329842977361539  0.7519786750917565
 
  0.00000000E+00  0.00000000E+00  0.00000000E+00
  0.00000000E+00  0.00000000E+00  0.00000000E+00
  0.00000000E+00  0.00000000E+00  0.00000000E+00
  0.00000000E+00  0.00000000E+00  0.00000000E+00
  0.00000000E+00  0.00000000E+00  0.00000000E+00
  0.00000000E+00  0.00000000E+00  0.00000000E+00
  0.00000000E+00  0.00000000E+00  0.00000000E+00
  0.00000000E+00  0.00000000E+00  0.00000000E+00
  0.00000000E+00  0.00000000E+00  0.00000000E+00
  0.00000000E+00  0.00000000E+00  0.00000000E+00
  0.00000000E+00  0.00000000E+00  0.00000000E+00
  0.00000000E+00  0.00000000E+00  0.00000000E+00
  0.00000000E+00  0.00000000E+00  0.00000000E+00
  0.00000000E+00  0.00000000E+00  0.00000000E+00
  0.00000000E+00  0.00000000E+00  0.00000000E+00
  0.00000000E+00  0.00000000E+00  0.00000000E+00
  0.00000000E+00  0.00000000E+00  0.00000000E+00
  0.00000000E+00  0.00000000E+00  0.00000000E+00
  0.00000000E+00  0.00000000E+00  0.00000000E+00
  0.00000000E+00  0.00000000E+00  0.00000000E+00
