Na4 Ni4 O8 F4                           
   1.00000000000000     
     5.3634767117213684   -0.0675170939672642    0.0903050227430337
    -2.7351011384844979    4.5655379012605382   -0.0926686414287765
    -0.0122321048504598   -0.0747368103514097    8.8754571972030121
   Na   Ni   O    F 
     4     4     8     4
Direct
  0.0361773324265973  0.0205774937427163  0.0380944048456687
  0.9564644979764283  0.9866128118961839  0.5429834300406813
  0.3485442843724152  0.6762414052567595  0.2472660670824165
  0.6754513455142855  0.3431000079534308  0.7604820624446145
  0.2992042664060792  0.6609011575870790  0.6023145969740882
  0.6508540481996754  0.3224568225253354  0.3889061491326916
  0.7105549455690054  0.3461910030453340  0.1070231989840325
  0.3554680122890560  0.6910617313595083  0.8827075425641231
  0.6466903705659686  0.0447347712166483  0.9742280610686730
  0.0768838353673081  0.6195250401175166  0.0280783693616204
  0.5290052397564958  0.9570869965863570  0.4703875748274835
  0.9306647492074387  0.5471527707245192  0.5303057728368232
  0.7722793227428901  0.6242868611368799  0.2545705832375052
  0.6086571893160070  0.7576736903094380  0.7255409591127863
  0.8709354068701985  0.2397589735213821  0.2565422024066242
  0.2363701254889223  0.8708644430619551  0.7503088090530486
  0.4801176549979809  0.4494319643143959  0.9820015590112060
  0.3583625853757171  0.3887485633500060  0.4802597341846186
  0.1023790928791422  0.3400602165458966  0.7569845260347201
  0.3549356946783742  0.1135332757486720  0.2210143967965611
 
  0.00000000E+00  0.00000000E+00  0.00000000E+00
  0.00000000E+00  0.00000000E+00  0.00000000E+00
  0.00000000E+00  0.00000000E+00  0.00000000E+00
  0.00000000E+00  0.00000000E+00  0.00000000E+00
  0.00000000E+00  0.00000000E+00  0.00000000E+00
  0.00000000E+00  0.00000000E+00  0.00000000E+00
  0.00000000E+00  0.00000000E+00  0.00000000E+00
  0.00000000E+00  0.00000000E+00  0.00000000E+00
  0.00000000E+00  0.00000000E+00  0.00000000E+00
  0.00000000E+00  0.00000000E+00  0.00000000E+00
  0.00000000E+00  0.00000000E+00  0.00000000E+00
  0.00000000E+00  0.00000000E+00  0.00000000E+00
  0.00000000E+00  0.00000000E+00  0.00000000E+00
  0.00000000E+00  0.00000000E+00  0.00000000E+00
  0.00000000E+00  0.00000000E+00  0.00000000E+00
  0.00000000E+00  0.00000000E+00  0.00000000E+00
  0.00000000E+00  0.00000000E+00  0.00000000E+00
  0.00000000E+00  0.00000000E+00  0.00000000E+00
  0.00000000E+00  0.00000000E+00  0.00000000E+00
  0.00000000E+00  0.00000000E+00  0.00000000E+00
