Na4 Ni4 O8 F4                           
   1.00000000000000     
     5.0738971901683216   -0.2188019289241420   -0.5870904154532651
    -0.1685915501434146    5.2978973408852195   -0.1494876970437853
     0.8429639116858323    0.0763156619413347    7.7610255297200794
   Na   Ni   O    F 
     4     4     8     4
Direct
  0.9925935176514581  0.0311770061745345  0.2519439747575311
  0.0082296796244176  0.9471208626128447  0.7448093124441384
  0.5047318670656710  0.4690218092117793  0.7481246665567231
  0.5165815967405605  0.5506031926182939  0.2487159063021071
  0.4961181429168865  0.0011906812605558  0.9947646191374323
  0.0094146093958328  0.4910991426493815  0.0044634328249383
  0.5005108619603478  0.0054563822888915  0.5105122499379989
  0.9983529587466241  0.5104511933989618  0.4945359886055853
  0.0538413172180735  0.4876565907387543  0.2521250635700627
  0.5779771821577924  0.0398631193856942  0.7521305469784119
  0.7013198690706175  0.3071572600677460  0.0463737275070633
  0.3082759191969651  0.6842240307505253  0.9575639748842517
  0.1957222570016195  0.2003412381597630  0.9596161337834906
  0.3205250468368843  0.7053181383855243  0.5502519300217680
  0.6807051431595154  0.3031265053682444  0.4537595380175865
  0.7725759165627073  0.7987782772558359  0.4759037485698128
  0.9351245767304820  0.5139867794152446  0.7495615152599118
  0.4201043617752235  0.9624984732255767  0.2487776419359054
  0.8225198011752418  0.8087752185056378  0.0289250874960038
  0.1847753750130660  0.1821540985262243  0.5271409414092771
 
  0.00000000E+00  0.00000000E+00  0.00000000E+00
  0.00000000E+00  0.00000000E+00  0.00000000E+00
  0.00000000E+00  0.00000000E+00  0.00000000E+00
  0.00000000E+00  0.00000000E+00  0.00000000E+00
  0.00000000E+00  0.00000000E+00  0.00000000E+00
  0.00000000E+00  0.00000000E+00  0.00000000E+00
  0.00000000E+00  0.00000000E+00  0.00000000E+00
  0.00000000E+00  0.00000000E+00  0.00000000E+00
  0.00000000E+00  0.00000000E+00  0.00000000E+00
  0.00000000E+00  0.00000000E+00  0.00000000E+00
  0.00000000E+00  0.00000000E+00  0.00000000E+00
  0.00000000E+00  0.00000000E+00  0.00000000E+00
  0.00000000E+00  0.00000000E+00  0.00000000E+00
  0.00000000E+00  0.00000000E+00  0.00000000E+00
  0.00000000E+00  0.00000000E+00  0.00000000E+00
  0.00000000E+00  0.00000000E+00  0.00000000E+00
  0.00000000E+00  0.00000000E+00  0.00000000E+00
  0.00000000E+00  0.00000000E+00  0.00000000E+00
  0.00000000E+00  0.00000000E+00  0.00000000E+00
  0.00000000E+00  0.00000000E+00  0.00000000E+00
