Titanium fluoride                       
   1.00000000000000     
    22.3217087859213521    0.0000021424588083   -0.0000008179392400
     0.0000003663842997    3.8874414091286256    0.0000004423182800
    -0.0000004039632155    0.0000010334213024    9.4993159390434183
   Ti   F 
    12    48
Direct
  0.2359234944646600  0.2499997966780816  0.6976576373997146
  0.7640746717425306  0.7499996584015921  0.3023341443392847
  0.2640745373741785  0.7499997882761941  0.1976659309417027
  0.7359240455583667  0.2500000144847693  0.8023420916374034
  0.5981248432220777  0.2500037062909581  0.0539100684308658
  0.4018694960056155  0.7499980885770815  0.9460885638463684
  0.9018695376221270  0.7500050906988437  0.5539116970177620
  0.0981244465578629  0.2499970398101086  0.4460891259939880
  0.0735644088432212  0.2499996447387935  0.8525938535936227
  0.9264365637699353  0.7499994098945832  0.1474160248420795
  0.4264364757918361  0.7500001327297655  0.3525839835492919
  0.5735647721044627  0.2499998826885640  0.6474060050985251
  0.7718740621809085  0.2499997669142300  0.3041388890510660
  0.2281154711592321  0.7499997671890617  0.6958602836179165
  0.7281159765772701  0.7500000320301411  0.8041394269416114
  0.2718739607107054  0.2499997894791617  0.1958612470471532
  0.4215297457222107  0.2500000397488770  0.3359080069141616
  0.5784751365979098  0.7499999297795000  0.6640956215034656
  0.0784743094962252  0.7499996763420520  0.8359048067497239
  0.9215297270629265  0.2499995953652731  0.1640921209574680
  0.5232199307201527  0.2500007277721060  0.1174905797960362
  0.4767770168000716  0.7499994818832646  0.8825044593087040
  0.9767770750685387  0.7500008708531690  0.6174957398471143
  0.0232196478158180  0.2499992991154104  0.3825086622715497
  0.0906268497450647  0.2499996893081887  0.0335001216329066
  0.9093663450154263  0.7499998418759947  0.9665063524028650
  0.4093663084688147  0.7499998922105217  0.5334936823266955
  0.5906268531010128  0.2499999135478090  0.4664995113239208
  0.1607869001620581  0.2499997641879924  0.8097481745791812
  0.8392199961638312  0.7499997269804798  0.1902667085345162
  0.3392199939772920  0.7499999103914960  0.3097333623343455
  0.6607874010459486  0.2499999440173047  0.6902556956692261
  0.3999513183842403  0.2499983411670819  0.9640873941188353
  0.6000464562324047  0.7500012472841446  0.0359173202404281
  0.1000464484028152  0.7499975586370726  0.4640799481594696
  0.8999515334660110  0.2500041103275614  0.5359127919319397
  0.2762284590938928  0.2499997418064575  0.8593262212463179
  0.7237791801313214  0.7499998915769372  0.1406565801982025
  0.2237792038279739  0.7499997492949902  0.3593436929569028
  0.7762296755181480  0.2500000092632603  0.6406743254585707
  0.6376147350119471  0.2500004960212612  0.2152947831345612
  0.3623811919380816  0.7499995825598276  0.7847137087427206
  0.8623814342776371  0.7500007259081731  0.7152865871071488
  0.1376145026364965  0.2499993990198067  0.2847045648042736
  0.1765622507669703  0.2499994174494872  0.5442980258901736
  0.8234415419503550  0.7500006024393355  0.4557021163771949
  0.3234414624210858  0.7499995616356854  0.0442980293494096
  0.6765624687393841  0.2500006108783249  0.9557010761220651
  0.2953353307773428  0.2499998414819487  0.5738833990282919
  0.7046683196716684  0.7499997500356936  0.4261124358128677
  0.2046682612612052  0.7499998951887475  0.0738878059387545
  0.7953353273475338  0.2499998928376939  0.9261169065338696
  0.9941509407517969  0.2499997989176701  0.8642478767961062
  0.0058480811499165  0.7499997160368241  0.1357418419880451
  0.5058480365308882  0.7499999349729595  0.3642583419925079
  0.4941512095838101  0.2499999061963293  0.6357522694483284
  0.5694754626264419  0.2500006750571683  0.8571299928067326
  0.4305311120797939  0.7499996171416443  0.1428645912185344
  0.9305311523754689  0.7500006677754089  0.3571354752357255
  0.0694749163970633  0.2499993468271424  0.6428693138617861
 
  0.00000000E+00  0.00000000E+00  0.00000000E+00
  0.00000000E+00  0.00000000E+00  0.00000000E+00
  0.00000000E+00  0.00000000E+00  0.00000000E+00
  0.00000000E+00  0.00000000E+00  0.00000000E+00
  0.00000000E+00  0.00000000E+00  0.00000000E+00
  0.00000000E+00  0.00000000E+00  0.00000000E+00
  0.00000000E+00  0.00000000E+00  0.00000000E+00
  0.00000000E+00  0.00000000E+00  0.00000000E+00
  0.00000000E+00  0.00000000E+00  0.00000000E+00
  0.00000000E+00  0.00000000E+00  0.00000000E+00
  0.00000000E+00  0.00000000E+00  0.00000000E+00
  0.00000000E+00  0.00000000E+00  0.00000000E+00
  0.00000000E+00  0.00000000E+00  0.00000000E+00
  0.00000000E+00  0.00000000E+00  0.00000000E+00
  0.00000000E+00  0.00000000E+00  0.00000000E+00
  0.00000000E+00  0.00000000E+00  0.00000000E+00
  0.00000000E+00  0.00000000E+00  0.00000000E+00
  0.00000000E+00  0.00000000E+00  0.00000000E+00
  0.00000000E+00  0.00000000E+00  0.00000000E+00
  0.00000000E+00  0.00000000E+00  0.00000000E+00
  0.00000000E+00  0.00000000E+00  0.00000000E+00
  0.00000000E+00  0.00000000E+00  0.00000000E+00
  0.00000000E+00  0.00000000E+00  0.00000000E+00
  0.00000000E+00  0.00000000E+00  0.00000000E+00
  0.00000000E+00  0.00000000E+00  0.00000000E+00
  0.00000000E+00  0.00000000E+00  0.00000000E+00
  0.00000000E+00  0.00000000E+00  0.00000000E+00
  0.00000000E+00  0.00000000E+00  0.00000000E+00
  0.00000000E+00  0.00000000E+00  0.00000000E+00
  0.00000000E+00  0.00000000E+00  0.00000000E+00
  0.00000000E+00  0.00000000E+00  0.00000000E+00
  0.00000000E+00  0.00000000E+00  0.00000000E+00
  0.00000000E+00  0.00000000E+00  0.00000000E+00
  0.00000000E+00  0.00000000E+00  0.00000000E+00
  0.00000000E+00  0.00000000E+00  0.00000000E+00
  0.00000000E+00  0.00000000E+00  0.00000000E+00
  0.00000000E+00  0.00000000E+00  0.00000000E+00
  0.00000000E+00  0.00000000E+00  0.00000000E+00
  0.00000000E+00  0.00000000E+00  0.00000000E+00
  0.00000000E+00  0.00000000E+00  0.00000000E+00
  0.00000000E+00  0.00000000E+00  0.00000000E+00
  0.00000000E+00  0.00000000E+00  0.00000000E+00
  0.00000000E+00  0.00000000E+00  0.00000000E+00
  0.00000000E+00  0.00000000E+00  0.00000000E+00
  0.00000000E+00  0.00000000E+00  0.00000000E+00
  0.00000000E+00  0.00000000E+00  0.00000000E+00
  0.00000000E+00  0.00000000E+00  0.00000000E+00
  0.00000000E+00  0.00000000E+00  0.00000000E+00
  0.00000000E+00  0.00000000E+00  0.00000000E+00
  0.00000000E+00  0.00000000E+00  0.00000000E+00
  0.00000000E+00  0.00000000E+00  0.00000000E+00
  0.00000000E+00  0.00000000E+00  0.00000000E+00
  0.00000000E+00  0.00000000E+00  0.00000000E+00
  0.00000000E+00  0.00000000E+00  0.00000000E+00
  0.00000000E+00  0.00000000E+00  0.00000000E+00
  0.00000000E+00  0.00000000E+00  0.00000000E+00
  0.00000000E+00  0.00000000E+00  0.00000000E+00
  0.00000000E+00  0.00000000E+00  0.00000000E+00
  0.00000000E+00  0.00000000E+00  0.00000000E+00
  0.00000000E+00  0.00000000E+00  0.00000000E+00
