Na8 Fe8 O16 F8                          
   1.00000000000000     
     7.8001001279054529    0.0000000162964307    0.0000014907999012
     0.0000000346807123    7.3890419958526792   -0.0000260442302750
     0.0000014760147494   -0.0000269576045648    7.7158202379413066
   Na   Fe   O    F 
     8     8    16     8
Direct
  0.2496915315371735  0.2706367654756353  0.2637718387339539
  0.2496911482956010  0.2706396725086279  0.7362297799610832
  0.2496900600919149  0.7293607205574967  0.2637702465055245
  0.2496927453912062  0.7293628622205741  0.7362281308195527
  0.7500265187784730  0.2561736511649994  0.2545126119747673
  0.7500260316691982  0.2561620791567292  0.7454817277993424
  0.7500259073847008  0.7438381733862757  0.2545183928387009
  0.7500267157234445  0.7438258984852891  0.7454875451513630
  0.9916363624599235 -0.0000000091790202 -0.0000003186587426
  0.0131962660759641  0.0000000241842752  0.4999992296681166
  0.0018252275070821  0.4999999878476330  0.0000007749105001
  0.9849094555608903  0.5000000184432432  0.5000007877641537
  0.5084650029933770 -0.0000000037364428  0.0000004470083097
  0.4868371969443543  0.0000000348834277  0.5000011507330886
  0.4982126596534962  0.4999999906100789  0.9999991152441713
  0.5150615408023171  0.5000000228884011  0.4999989494347177
  0.2499905398928051 -0.0000000079615083  0.9999999759886351
  0.2500351973304861 -0.0000000031742527  0.5000000222518127
  0.7500939205695162 -0.0000000020270918  0.9999999984129582
  0.7500114320217266  0.4999999918691079  0.4999999865153630
  0.0086116884276460  0.2488567634373612  0.0000004902883174
  0.0006644688522600  0.2546169946146425  0.4999999581790207
  0.0086116709320851  0.7511432253885686  0.9999997024770498
  0.0006644676211191  0.7453830210259885  0.4999997715108667
  0.4916001765933626  0.2489196429517408  0.0000003390008369
  0.4993566365480972  0.2545930677899024  0.5000001358496546
  0.4916001841672233  0.7510803524264121  0.9999994893363926
  0.4993566376603233  0.7454069561027975  0.4999999658357613
  0.0002467677321181  0.4999999627996160  0.2525976683525233
  0.0002467456861615  0.5000000327501886  0.7474025913204121
  0.4997674656666771  0.4999999807840492  0.2525101110008126
  0.4997674687596935  0.5000000189340472  0.7474894289773233
  0.2500238545081330  0.5000000184512484  0.9999999287957477
  0.2500193072829252  0.5000000046319799  0.4999999572013510
  0.7500044059705691  0.0000000201940671  0.4999999477809085
  0.7500782896433853  0.5000000271314409  0.9999998790421587
  0.9827922787048662  0.9999995518328333  0.2532124705536961
  0.9827923492216932  0.0000004631751232  0.7467868600557451
  0.5173247756126095  0.9999995920652588  0.2531782870284555
  0.5173248997253868  0.0000004359092478  0.7468226243555940
 
  0.00000000E+00  0.00000000E+00  0.00000000E+00
  0.00000000E+00  0.00000000E+00  0.00000000E+00
  0.00000000E+00  0.00000000E+00  0.00000000E+00
  0.00000000E+00  0.00000000E+00  0.00000000E+00
  0.00000000E+00  0.00000000E+00  0.00000000E+00
  0.00000000E+00  0.00000000E+00  0.00000000E+00
  0.00000000E+00  0.00000000E+00  0.00000000E+00
  0.00000000E+00  0.00000000E+00  0.00000000E+00
  0.00000000E+00  0.00000000E+00  0.00000000E+00
  0.00000000E+00  0.00000000E+00  0.00000000E+00
  0.00000000E+00  0.00000000E+00  0.00000000E+00
  0.00000000E+00  0.00000000E+00  0.00000000E+00
  0.00000000E+00  0.00000000E+00  0.00000000E+00
  0.00000000E+00  0.00000000E+00  0.00000000E+00
  0.00000000E+00  0.00000000E+00  0.00000000E+00
  0.00000000E+00  0.00000000E+00  0.00000000E+00
  0.00000000E+00  0.00000000E+00  0.00000000E+00
  0.00000000E+00  0.00000000E+00  0.00000000E+00
  0.00000000E+00  0.00000000E+00  0.00000000E+00
  0.00000000E+00  0.00000000E+00  0.00000000E+00
  0.00000000E+00  0.00000000E+00  0.00000000E+00
  0.00000000E+00  0.00000000E+00  0.00000000E+00
  0.00000000E+00  0.00000000E+00  0.00000000E+00
  0.00000000E+00  0.00000000E+00  0.00000000E+00
  0.00000000E+00  0.00000000E+00  0.00000000E+00
  0.00000000E+00  0.00000000E+00  0.00000000E+00
  0.00000000E+00  0.00000000E+00  0.00000000E+00
  0.00000000E+00  0.00000000E+00  0.00000000E+00
  0.00000000E+00  0.00000000E+00  0.00000000E+00
  0.00000000E+00  0.00000000E+00  0.00000000E+00
  0.00000000E+00  0.00000000E+00  0.00000000E+00
  0.00000000E+00  0.00000000E+00  0.00000000E+00
  0.00000000E+00  0.00000000E+00  0.00000000E+00
  0.00000000E+00  0.00000000E+00  0.00000000E+00
  0.00000000E+00  0.00000000E+00  0.00000000E+00
  0.00000000E+00  0.00000000E+00  0.00000000E+00
  0.00000000E+00  0.00000000E+00  0.00000000E+00
  0.00000000E+00  0.00000000E+00  0.00000000E+00
  0.00000000E+00  0.00000000E+00  0.00000000E+00
  0.00000000E+00  0.00000000E+00  0.00000000E+00
