Na4 Mn4 O8 F4                           
   1.00000000000000     
     5.3585404784677619   -0.0153119027104819   -0.0001254464698363
    -2.6825340871260384    4.6228446954245985   -0.0001022306615244
    -0.0002580583379481   -0.0003299460014236    9.0373073031227857
   Na   Mn   O    F 
     4     4     8     4
Direct
  0.0042433500594016  0.9946913300113686  0.0642593144130411
  0.0041614529324165  0.9946329051080032  0.4357440583280011
  0.3239645946683409  0.6651011437924013  0.2500127634077396
  0.6648789056649228  0.3347441902157420  0.7499714429061612
  0.3365425644642891  0.6784076691770836  0.6096685969877119
  0.6906361078601351  0.3205246391973777  0.3918689425735023
  0.6906121254358529  0.3204996051383070  0.1081107354730273
  0.3365473177430833  0.6784223989169119  0.8903415020523048
  0.4193983172958317  0.9996997321084884  0.0056537084548461
  0.0003055665624337  0.4105015464098578  0.9994134107475896
  0.4195114625864038  0.9997121589086756  0.4943614346222497
  0.0004260625167078  0.4104790573750228  0.5005162697544596
  0.8696892398412115  0.6169976069856549  0.2500056034535297
  0.2497700277475363  0.3929252532167984  0.7500013310408303
  0.6125850242736534  0.8886049519274756  0.7500341088288238
  0.7473588603763996  0.1101000469287852  0.2499733284255046
  0.5850820867911629  0.5883777276498642  0.9988973221485287
  0.5852026111015554  0.5883720058724194  0.5011706031577408
  0.3532048397355463  0.2480516139189249  0.2500203225305281
  0.1058794823431293  0.7591544171408378  0.7499752006938869
 
  0.00000000E+00  0.00000000E+00  0.00000000E+00
  0.00000000E+00  0.00000000E+00  0.00000000E+00
  0.00000000E+00  0.00000000E+00  0.00000000E+00
  0.00000000E+00  0.00000000E+00  0.00000000E+00
  0.00000000E+00  0.00000000E+00  0.00000000E+00
  0.00000000E+00  0.00000000E+00  0.00000000E+00
  0.00000000E+00  0.00000000E+00  0.00000000E+00
  0.00000000E+00  0.00000000E+00  0.00000000E+00
  0.00000000E+00  0.00000000E+00  0.00000000E+00
  0.00000000E+00  0.00000000E+00  0.00000000E+00
  0.00000000E+00  0.00000000E+00  0.00000000E+00
  0.00000000E+00  0.00000000E+00  0.00000000E+00
  0.00000000E+00  0.00000000E+00  0.00000000E+00
  0.00000000E+00  0.00000000E+00  0.00000000E+00
  0.00000000E+00  0.00000000E+00  0.00000000E+00
  0.00000000E+00  0.00000000E+00  0.00000000E+00
  0.00000000E+00  0.00000000E+00  0.00000000E+00
  0.00000000E+00  0.00000000E+00  0.00000000E+00
  0.00000000E+00  0.00000000E+00  0.00000000E+00
  0.00000000E+00  0.00000000E+00  0.00000000E+00
