V4 O4 F8                                
   1.00000000000000     
     5.1274552429521405    0.0039865271087255   -0.0006718663052579
    -0.0056479284353428    5.2398714830703392   -0.0014238811303463
     0.0027075811159534   -0.0229362558690073    7.4549192758761773
   V    O    F 
     4     4     8
Direct
  0.5225056260745120  0.0251841627351794  0.0065647527485453
  0.9849596896929924  0.5237352806407856  0.0045678477482696
  0.4838949439220244  0.9720582989243383  0.5044285221306168
  0.9855749154770450  0.5213062500928771  0.4960838438960664
  0.7138962116475653  0.2771376045937473  0.0415834515089060
  0.7931911543061290  0.7765015123762353  0.0396697878142120
  0.2854367884014337  0.7244022282153679  0.5399548106643337
  0.7849362351690843  0.7674015154986975  0.4603862529315776
  0.2992414144230011  0.7183714467125952  0.9547016525404501
  0.2076762716045977  0.2173245727023172  0.9571994117253624
  0.7164146917238270  0.2649581167131885  0.4523602673127272
  0.2155922987806278  0.2265990796010726  0.5435760753292982
  0.1035250645452308  0.4832353706357182  0.2493494524012974
  0.9101446291402695  0.4969449961470715  0.7495998266558956
  0.5941393956286873  0.0146818917955613  0.7501109379496853
  0.3988706694629798  0.9901576726152541  0.2498631066427492
 
  0.00000000E+00  0.00000000E+00  0.00000000E+00
  0.00000000E+00  0.00000000E+00  0.00000000E+00
  0.00000000E+00  0.00000000E+00  0.00000000E+00
  0.00000000E+00  0.00000000E+00  0.00000000E+00
  0.00000000E+00  0.00000000E+00  0.00000000E+00
  0.00000000E+00  0.00000000E+00  0.00000000E+00
  0.00000000E+00  0.00000000E+00  0.00000000E+00
  0.00000000E+00  0.00000000E+00  0.00000000E+00
  0.00000000E+00  0.00000000E+00  0.00000000E+00
  0.00000000E+00  0.00000000E+00  0.00000000E+00
  0.00000000E+00  0.00000000E+00  0.00000000E+00
  0.00000000E+00  0.00000000E+00  0.00000000E+00
  0.00000000E+00  0.00000000E+00  0.00000000E+00
  0.00000000E+00  0.00000000E+00  0.00000000E+00
  0.00000000E+00  0.00000000E+00  0.00000000E+00
  0.00000000E+00  0.00000000E+00  0.00000000E+00
