Cr4 O4 F8                               
   1.00000000000000     
     4.9979772757411745   -0.0405349145501133   -0.0008183205274059
    -0.0420747933017383    5.1716212199692766    0.0232446833159631
     0.0211345483358546   -0.0267045225110146    6.9997699946947911
   Cr   O    F 
     4     4     8
Direct
  0.5031930500560272  0.0018636607493011  0.9975584698337031
  0.0013152119110214  0.5033765329261305  0.9955843160825117
  0.5111956505931700  0.0156752371164453  0.4929698844751797
  0.9725282137971181  0.4881217886141742  0.5133982922564676
  0.9058038085057724  0.5061382214668193  0.7498122977644133
  0.5744781920405472  0.0218707568180930  0.7389512550719219
  0.4274095033715158  0.9728779688121705  0.2574547541933686
  0.6824696831710714  0.3218577274666427  0.4468788636052383
  0.1083791333138509  0.4814211775694498  0.2543976952310845
  0.6846502442598308  0.3167264092158977  0.0580479201606073
  0.3253850013561715  0.6813370137149009  0.9467257206222891
  0.1801471978060535  0.1858979830298811  0.9561173695372335
  0.8264433713273953  0.8151544904287328  0.0491066649125751
  0.3011392448667473  0.6899130372721239  0.5482889612423538
  0.8202813117782731  0.8102591571747025  0.4505060900743336
  0.1751811818454342  0.1875088376245343  0.5442014449367183
 
  0.00000000E+00  0.00000000E+00  0.00000000E+00
  0.00000000E+00  0.00000000E+00  0.00000000E+00
  0.00000000E+00  0.00000000E+00  0.00000000E+00
  0.00000000E+00  0.00000000E+00  0.00000000E+00
  0.00000000E+00  0.00000000E+00  0.00000000E+00
  0.00000000E+00  0.00000000E+00  0.00000000E+00
  0.00000000E+00  0.00000000E+00  0.00000000E+00
  0.00000000E+00  0.00000000E+00  0.00000000E+00
  0.00000000E+00  0.00000000E+00  0.00000000E+00
  0.00000000E+00  0.00000000E+00  0.00000000E+00
  0.00000000E+00  0.00000000E+00  0.00000000E+00
  0.00000000E+00  0.00000000E+00  0.00000000E+00
  0.00000000E+00  0.00000000E+00  0.00000000E+00
  0.00000000E+00  0.00000000E+00  0.00000000E+00
  0.00000000E+00  0.00000000E+00  0.00000000E+00
  0.00000000E+00  0.00000000E+00  0.00000000E+00
