Na4 Co4 O8 F4                           
    1.000000000000000     
     5.3613533425588997    0.2941233023728649   -0.0172404654232259
     0.2844365602215967    5.4493260921069870   -0.0257297360706596
    -0.0192850888244302   -0.0249828404232561    7.3219066593001161
   Na   Co   O    F 
     4     4     8     4
Direct
  0.9829247759449369  0.0345700127881283  0.2557319530984557
  0.0051646120754660  0.9701152603344447  0.7364146626658494
  0.4985801144555030  0.4481233527387281  0.7431749883910433
  0.5141699486598396  0.5436320479471478  0.2568907561309771
  0.4911344229799088  0.9879386105880009  0.0019853224095565
  0.0087415131660891  0.4997732359324631  0.0048098027983561
  0.5018737254430752  0.9969185894420673  0.5008597071824710
 -0.0002007193998798  0.5000866277742131  0.4952953810352858
  0.2887769322346790  0.7319839953304704  0.9600764285040603
  0.1973632638073596  0.2293589162278719  0.9664759683796162
  0.8138165634586852  0.7724188116330081  0.0380719918487158
  0.7955137051588707  0.7824330472523364  0.4673224765366819
  0.2075809767136189  0.2164883962642034  0.5259124542924453
  0.0936678920622901  0.4968281230433960  0.2459056092225180
  0.5616829995258684  0.0137481309126931  0.7413182377492316
  0.4407518613529349  0.9839886544675494  0.2576454875883857
  0.6940659942055083  0.2865985860752800  0.0389562871983470
  0.2901188348262746  0.7035452919274328  0.5496611409901608
  0.7104181188783961  0.2943860942902183  0.4582930392237872
  0.9038544644505613  0.5070642150303323  0.7551983047540413
 
  0.00000000E+00  0.00000000E+00  0.00000000E+00
  0.00000000E+00  0.00000000E+00  0.00000000E+00
  0.00000000E+00  0.00000000E+00  0.00000000E+00
  0.00000000E+00  0.00000000E+00  0.00000000E+00
  0.00000000E+00  0.00000000E+00  0.00000000E+00
  0.00000000E+00  0.00000000E+00  0.00000000E+00
  0.00000000E+00  0.00000000E+00  0.00000000E+00
  0.00000000E+00  0.00000000E+00  0.00000000E+00
  0.00000000E+00  0.00000000E+00  0.00000000E+00
  0.00000000E+00  0.00000000E+00  0.00000000E+00
  0.00000000E+00  0.00000000E+00  0.00000000E+00
  0.00000000E+00  0.00000000E+00  0.00000000E+00
  0.00000000E+00  0.00000000E+00  0.00000000E+00
  0.00000000E+00  0.00000000E+00  0.00000000E+00
  0.00000000E+00  0.00000000E+00  0.00000000E+00
  0.00000000E+00  0.00000000E+00  0.00000000E+00
  0.00000000E+00  0.00000000E+00  0.00000000E+00
  0.00000000E+00  0.00000000E+00  0.00000000E+00
  0.00000000E+00  0.00000000E+00  0.00000000E+00
  0.00000000E+00  0.00000000E+00  0.00000000E+00
