Na2 V2 O4 F2                            
   1.00000000000000     
     3.8318159506341791   -0.0027216615995622   -0.0003503367080718
    -0.0021277127346873    3.8308719350224441    0.0009112025375794
    -0.0008850259951313    0.0018399057747860    7.5013741032309120
   Na   V    O    F 
     2     2     4     2
Direct
  0.0066261292893959 -0.0080168527127224  0.9632127404528940
  0.0076456858171404  0.9932347074999672  0.5457259407953449
  0.4935293320752040  0.5066232121981397  0.2542807291479959
  0.5056550956025102  0.4943465222673590  0.7543154831861298
  0.4986299162906138  0.5018206996996891  0.0178378209329805
  0.4985150523078811  0.5015322664512446  0.4906760189037928
  0.5035524035112343 -0.0020476322434306  0.7542628703499275
  0.0016526591129360  0.4960591920047351  0.7543036786119758
  0.4899307496217169  0.0057691041879707  0.2541911956652967
  0.9942629763713674  0.5106787806470550  0.2541935219536470
 
  0.00000000E+00  0.00000000E+00  0.00000000E+00
  0.00000000E+00  0.00000000E+00  0.00000000E+00
  0.00000000E+00  0.00000000E+00  0.00000000E+00
  0.00000000E+00  0.00000000E+00  0.00000000E+00
  0.00000000E+00  0.00000000E+00  0.00000000E+00
  0.00000000E+00  0.00000000E+00  0.00000000E+00
  0.00000000E+00  0.00000000E+00  0.00000000E+00
  0.00000000E+00  0.00000000E+00  0.00000000E+00
  0.00000000E+00  0.00000000E+00  0.00000000E+00
  0.00000000E+00  0.00000000E+00  0.00000000E+00
