V8 O8 F16                               
   1.00000000000000     
     7.4930666866094473   -0.0000001630544104    0.0071962633873041
     0.0000002734808527    7.6414770810630435    0.0000005337852602
     0.0130175384958561   -0.0000041087327148    7.6692325287481440
   V    O    F 
     8     8    16
Direct
  0.9668112089509058 -0.0000004587442326  0.0013984859485201
  0.9961024733124172  0.0000004274306606  0.5006498647315314
  0.0029647496074920  0.4999999463415509  0.9653122096742944
  0.0047295252316450  0.4999994713291034  0.4662621214383021
  0.4671122122012525 -0.0000000540264509  0.0021690990412755
  0.5228440656585276  0.0000005740341934  0.5016396930661764
  0.5032913494761049  0.4999992049914858  0.9662967174287258
  0.4792760670432632  0.5000004354180850  0.4703348475126348
  0.2555380869439336  0.4999997235096149  0.4998395372785323
  0.0000929416433051  0.4999945859041304  0.2541312413489422
  0.0027939007713035  0.5000027563619072  0.7528670067592624
  0.5013491382388021  0.5000029505555459  0.2591971594436308
  0.5043528888303906  0.4999924391089286  0.7541250785899034
  0.2487818889665365 -0.0000000485561454  0.0012892877912874
  0.7474719690906353  0.9999982608460013  0.0029037698964960
  0.7498947381754022 -0.0000003716240744  0.5006834753867681
  0.0084256023197063  0.0000055803643682  0.2475802200787125
  0.5006606042661943  0.0000061766661735  0.7528630470477869
  0.2570742432898182  0.0000051560967649  0.5030397886500632
  0.7528706053900382  0.5000018364909163  0.0141996505113474
  0.7470925826067139  0.5000001542027365  0.5087532920567579
  0.0032860975860965  0.7491604115099545  0.0058500956577724
  0.5034902337787066  0.2511301451236714  0.0079420291451302
  0.0067018735879697  0.9999922264423550  0.7555892678966933
  0.4977328032135486  0.0000007602698345  0.2522670040209929
  0.2531149614225799  0.4999973687346296  0.0138365538072823
  0.0032841055226867  0.2508386178439591  0.0058423083837633
  0.0022993728342864  0.2501979501084612  0.5056495993549400
  0.0023030268798527  0.7498027498181833  0.5056381795574389
  0.5023865595403110  0.2528048507799372  0.5069500604264048
  0.5034865117796388  0.7488688513793078  0.0079397764318302
  0.5023836118399344  0.7471973212884506  0.5069595316368083
 
  0.00000000E+00  0.00000000E+00  0.00000000E+00
  0.00000000E+00  0.00000000E+00  0.00000000E+00
  0.00000000E+00  0.00000000E+00  0.00000000E+00
  0.00000000E+00  0.00000000E+00  0.00000000E+00
  0.00000000E+00  0.00000000E+00  0.00000000E+00
  0.00000000E+00  0.00000000E+00  0.00000000E+00
  0.00000000E+00  0.00000000E+00  0.00000000E+00
  0.00000000E+00  0.00000000E+00  0.00000000E+00
  0.00000000E+00  0.00000000E+00  0.00000000E+00
  0.00000000E+00  0.00000000E+00  0.00000000E+00
  0.00000000E+00  0.00000000E+00  0.00000000E+00
  0.00000000E+00  0.00000000E+00  0.00000000E+00
  0.00000000E+00  0.00000000E+00  0.00000000E+00
  0.00000000E+00  0.00000000E+00  0.00000000E+00
  0.00000000E+00  0.00000000E+00  0.00000000E+00
  0.00000000E+00  0.00000000E+00  0.00000000E+00
  0.00000000E+00  0.00000000E+00  0.00000000E+00
  0.00000000E+00  0.00000000E+00  0.00000000E+00
  0.00000000E+00  0.00000000E+00  0.00000000E+00
  0.00000000E+00  0.00000000E+00  0.00000000E+00
  0.00000000E+00  0.00000000E+00  0.00000000E+00
  0.00000000E+00  0.00000000E+00  0.00000000E+00
  0.00000000E+00  0.00000000E+00  0.00000000E+00
  0.00000000E+00  0.00000000E+00  0.00000000E+00
  0.00000000E+00  0.00000000E+00  0.00000000E+00
  0.00000000E+00  0.00000000E+00  0.00000000E+00
  0.00000000E+00  0.00000000E+00  0.00000000E+00
  0.00000000E+00  0.00000000E+00  0.00000000E+00
  0.00000000E+00  0.00000000E+00  0.00000000E+00
  0.00000000E+00  0.00000000E+00  0.00000000E+00
  0.00000000E+00  0.00000000E+00  0.00000000E+00
  0.00000000E+00  0.00000000E+00  0.00000000E+00
