Na8 Fe8 O16 F8                          
   1.00000000000000     
     7.8158894447963236   -0.0006285836183101    0.0002100746432574
     0.0021919020394072    7.3307331642130853    0.0000070859012340
     0.0001848208873233    0.0000361783880829    7.5323688002692499
   Na   Fe   O    F 
     8     8    16     8
Direct
  0.2555106833829942  0.2335665132164489  0.2510604942529311
  0.2542208848006651  0.2349400722316917  0.7497841023401062
  0.2503610985663119  0.7619199057996011  0.2559457255684994
  0.2507767470624592  0.7612887743900225  0.7446850018819258
  0.7399299297511633  0.2558924260852516  0.2535784189312232
  0.7387213892076460  0.2562748566955980  0.7461104156055111
  0.7371481485593155  0.7433200597164750  0.2476631625743498
  0.7375785198154798  0.7432290728960222  0.7524242130188374
  0.9757513057054688  0.0061782384963210 -0.0001726854232343
  0.9831075627012563  0.9965538967552328  0.5000534999530051
  0.0015322323939338  0.5067351036698363  0.0000806457318555
  0.9987852549335499  0.4973874571983555  0.4999910673753885
  0.4957948547728698  0.0098540887595075 -0.0001225942795865
  0.5150596783825940  0.9929843304518904  0.5000158982045625
  0.4946629850359873  0.4901009940570323  0.0000244566866266
  0.4956656951169943  0.5002495053113475  0.4999373020700008
  0.2766984053122957  0.9537990313433750  0.0001253992300533
  0.7433838594931663  0.0500257608778636  0.9995952923703364
  0.7570566799133490  0.9469279720609554  0.5002910897750792
  0.0477821197025189  0.2638396914364763  0.0002271865857951
  0.9458733286230520  0.2506562452415210  0.5001763406729323
  0.9499625440523961  0.7476904671768740 -0.0000920737419261
  0.0446239833786969  0.7447708287128590  0.4998632187727651
  0.4438242974699146  0.2498801662958674  0.0000176631893455
  0.5433607363478535  0.2483727979924491  0.4997687272668761
  0.4484979783195723  0.7484590664636903  0.4997975524212072
  0.9985923444404109  0.5001546305542661  0.2470359630377982
  0.0005674265210996  0.5001569818161281  0.7529655525215215
  0.5049326520347170  0.0005357912345644  0.2568842186807995
  0.5045115891229701  0.0005768684866432  0.7429874537879029
  0.5000763303833732  0.4983915135324599  0.2557193753204324
  0.4985295591377624  0.4984885839096768  0.7441677199518942
  0.2420444402131964  0.0460293369128641  0.4998066989535224
  0.2569120767371728  0.5744309814696017  0.0007136172292065
  0.2461130179204075  0.4331286607205054  0.4991009721950033
  0.7437357860522812  0.4441513197524495  0.9990843471873881
  0.7487238866396392  0.5565581072010412  0.5008470457999364
  0.5655359519680883  0.7469782179970130  0.9999547593403891
  0.0316401380276807  0.0028313566455449  0.2475745707186748
  0.0324138979997174  0.0026903264346691  0.7523281842410781
 
  0.00000000E+00  0.00000000E+00  0.00000000E+00
  0.00000000E+00  0.00000000E+00  0.00000000E+00
  0.00000000E+00  0.00000000E+00  0.00000000E+00
  0.00000000E+00  0.00000000E+00  0.00000000E+00
  0.00000000E+00  0.00000000E+00  0.00000000E+00
  0.00000000E+00  0.00000000E+00  0.00000000E+00
  0.00000000E+00  0.00000000E+00  0.00000000E+00
  0.00000000E+00  0.00000000E+00  0.00000000E+00
  0.00000000E+00  0.00000000E+00  0.00000000E+00
  0.00000000E+00  0.00000000E+00  0.00000000E+00
  0.00000000E+00  0.00000000E+00  0.00000000E+00
  0.00000000E+00  0.00000000E+00  0.00000000E+00
  0.00000000E+00  0.00000000E+00  0.00000000E+00
  0.00000000E+00  0.00000000E+00  0.00000000E+00
  0.00000000E+00  0.00000000E+00  0.00000000E+00
  0.00000000E+00  0.00000000E+00  0.00000000E+00
  0.00000000E+00  0.00000000E+00  0.00000000E+00
  0.00000000E+00  0.00000000E+00  0.00000000E+00
  0.00000000E+00  0.00000000E+00  0.00000000E+00
  0.00000000E+00  0.00000000E+00  0.00000000E+00
  0.00000000E+00  0.00000000E+00  0.00000000E+00
  0.00000000E+00  0.00000000E+00  0.00000000E+00
  0.00000000E+00  0.00000000E+00  0.00000000E+00
  0.00000000E+00  0.00000000E+00  0.00000000E+00
  0.00000000E+00  0.00000000E+00  0.00000000E+00
  0.00000000E+00  0.00000000E+00  0.00000000E+00
  0.00000000E+00  0.00000000E+00  0.00000000E+00
  0.00000000E+00  0.00000000E+00  0.00000000E+00
  0.00000000E+00  0.00000000E+00  0.00000000E+00
  0.00000000E+00  0.00000000E+00  0.00000000E+00
  0.00000000E+00  0.00000000E+00  0.00000000E+00
  0.00000000E+00  0.00000000E+00  0.00000000E+00
  0.00000000E+00  0.00000000E+00  0.00000000E+00
  0.00000000E+00  0.00000000E+00  0.00000000E+00
  0.00000000E+00  0.00000000E+00  0.00000000E+00
  0.00000000E+00  0.00000000E+00  0.00000000E+00
  0.00000000E+00  0.00000000E+00  0.00000000E+00
  0.00000000E+00  0.00000000E+00  0.00000000E+00
  0.00000000E+00  0.00000000E+00  0.00000000E+00
  0.00000000E+00  0.00000000E+00  0.00000000E+00
