Na4 Ti4 O8 F4                           
   1.00000000000000     
     5.4315041196155613    0.0673380895220732    0.0038258642861995
     0.0650943506999030    5.4962112095166855    0.0021092999786254
     0.0068349002243552    0.0033958076247323    7.5017114107892908
   Na   Ti   O    F 
     4     4     8     4
Direct
  0.0113722385143895 -0.0003507539605039  0.2470499319048462
  0.9955999830138880  0.9620914630959515  0.7544684591124465
  0.5081676630883510  0.4726367402181068  0.7467442931331960
  0.4928747777223271  0.5467204042215354  0.2542907080451837
  0.5106145736374759  0.9955923375494913  0.9990030392587961
  0.0071797996491439  0.4917578349360193  0.0004365100917539
  0.4936672951362812  0.0324120592999542  0.4970331230897304
  0.9890601878807155  0.4690901756115217  0.4995895012770964
  0.2049355287304041  0.2090158227030002  0.9753009692507889
  0.7912367061344986  0.7935874273046194  0.0252367658760605
  0.6929058115745291  0.3051077061536246  0.4622257890907238
  0.1906898436726847  0.1941270051127188  0.5290698061221121
  0.0630119135077908  0.5105445959451939  0.2514777689820105
  0.9404616332241988  0.5176262780184943  0.7491892114185822
  0.5601760923160592  0.0221055604809356  0.7486820179965288
  0.4419978714000292  0.9701743904309058  0.2505488948700677
  0.6975369232499558  0.3032077006543245  0.0421407094237647
  0.3029994974544328  0.7005855627658081  0.9575484114928080
  0.3033749591324900  0.6999604314275870  0.5377772230978027
  0.8021367009603620  0.8040072580307043  0.4721868664657015
 
  0.00000000E+00  0.00000000E+00  0.00000000E+00
  0.00000000E+00  0.00000000E+00  0.00000000E+00
  0.00000000E+00  0.00000000E+00  0.00000000E+00
  0.00000000E+00  0.00000000E+00  0.00000000E+00
  0.00000000E+00  0.00000000E+00  0.00000000E+00
  0.00000000E+00  0.00000000E+00  0.00000000E+00
  0.00000000E+00  0.00000000E+00  0.00000000E+00
  0.00000000E+00  0.00000000E+00  0.00000000E+00
  0.00000000E+00  0.00000000E+00  0.00000000E+00
  0.00000000E+00  0.00000000E+00  0.00000000E+00
  0.00000000E+00  0.00000000E+00  0.00000000E+00
  0.00000000E+00  0.00000000E+00  0.00000000E+00
  0.00000000E+00  0.00000000E+00  0.00000000E+00
  0.00000000E+00  0.00000000E+00  0.00000000E+00
  0.00000000E+00  0.00000000E+00  0.00000000E+00
  0.00000000E+00  0.00000000E+00  0.00000000E+00
  0.00000000E+00  0.00000000E+00  0.00000000E+00
  0.00000000E+00  0.00000000E+00  0.00000000E+00
  0.00000000E+00  0.00000000E+00  0.00000000E+00
  0.00000000E+00  0.00000000E+00  0.00000000E+00
