Sodium ferrate(III)                     
   1.00000000000000     
     5.6059917828571733    0.0053625448483800    0.0032875136749634
     4.7913421710228921    2.9103541100057115    0.0032893723151014
     4.7913152760769231    1.3436264202147783    2.5816591275093743
   Na   Fe   O 
     1     1     2
Direct
  0.9999956984375515  0.0000072688331372  0.9999980709867557
  0.5000246755211535  0.4999720763277580  0.5000027730337209
  0.2343125893304219  0.2343348892977630  0.2343255610093422
  0.7656670367108731  0.7656857655413418  0.7656735949701883
 
  0.00000000E+00  0.00000000E+00  0.00000000E+00
  0.00000000E+00  0.00000000E+00  0.00000000E+00
  0.00000000E+00  0.00000000E+00  0.00000000E+00
  0.00000000E+00  0.00000000E+00  0.00000000E+00
