Ni4 O4 F8                               
   1.00000000000000     
     5.3120971327887272    0.0004556165995932    0.0030951763679586
    -2.6620080611064214    4.6786967048747874   -0.0001612338861439
     0.0158077279142189   -0.0105098030984922    9.5251698959618665
   Ni   O    F 
     4     4     8
Direct
  0.3287718161957112  0.6598920044345311  0.6130044851151563
  0.6694920164714333  0.3404076233904828  0.3870558564915044
  0.6691536666999817  0.3402563172536901  0.1129756264487805
  0.3299849537667483  0.6594780146759506  0.8871729930384249
  0.0007833275758764  0.4998572837312633 -0.0000015979173177
  0.5009836954898643  0.4998545880138954  0.0000337272947844
  0.0012631951041714  0.5001336648668042  0.5001313808117411
  0.5010167014886150  0.5001922562701017  0.4999407599174316
  0.5004853744601092  0.0000654265974173 -0.0001190932010167
  0.5005003429648698 -0.0000152974787055  0.4999215615116595
  0.8240668427992779  0.6517207662782435  0.2501159252005827
  0.1757313857399994  0.3482382268215309  0.7497871561472136
  0.3629048256685873  0.1885711522182035  0.2502211776935924
  0.6359473142930072  0.8111416867297074  0.7495774677661566
  0.8282033451076950  0.1926303941570637  0.2496144701117265
  0.1707111961740534  0.8075758920398126  0.7505681035695730
 
  0.00000000E+00  0.00000000E+00  0.00000000E+00
  0.00000000E+00  0.00000000E+00  0.00000000E+00
  0.00000000E+00  0.00000000E+00  0.00000000E+00
  0.00000000E+00  0.00000000E+00  0.00000000E+00
  0.00000000E+00  0.00000000E+00  0.00000000E+00
  0.00000000E+00  0.00000000E+00  0.00000000E+00
  0.00000000E+00  0.00000000E+00  0.00000000E+00
  0.00000000E+00  0.00000000E+00  0.00000000E+00
  0.00000000E+00  0.00000000E+00  0.00000000E+00
  0.00000000E+00  0.00000000E+00  0.00000000E+00
  0.00000000E+00  0.00000000E+00  0.00000000E+00
  0.00000000E+00  0.00000000E+00  0.00000000E+00
  0.00000000E+00  0.00000000E+00  0.00000000E+00
  0.00000000E+00  0.00000000E+00  0.00000000E+00
  0.00000000E+00  0.00000000E+00  0.00000000E+00
  0.00000000E+00  0.00000000E+00  0.00000000E+00
