Na2 Cr2 O4 F2                           
   1.00000000000000     
     3.6881138811102439    0.0000015207001178   -0.0000017686057044
     0.0000015491061645    3.6881532529711931   -0.0000006052731559
     0.0000092095495436   -0.0000014425144376    7.7939977085239498
   Na   Cr   O    F 
     2     2     4     2
Direct
  0.0000082803567420  0.0000000110934927  0.0016735051474710
  0.0000080367727775  0.0000000123529087  0.5016558771318212
  0.5000597576840092  0.4999999287283678  0.2542751936278926
  0.5000596198492853  0.5000000202585717  0.7542953404659736
  0.4999874258985389  0.0000000490882133  0.2554246711543500
  0.4999895438766629 -0.0000000007402237  0.7554194460488665
  0.9999424053694009  0.4999999987546533  0.2554252168860652
  0.9999433219147574  0.4999999959747249  0.7554198422649150
  0.5000006420553422  0.4999999849660440  0.0047008016478158
  0.5000009662224765  0.4999999995232400  0.5047101056248213
 
  0.00000000E+00  0.00000000E+00  0.00000000E+00
  0.00000000E+00  0.00000000E+00  0.00000000E+00
  0.00000000E+00  0.00000000E+00  0.00000000E+00
  0.00000000E+00  0.00000000E+00  0.00000000E+00
  0.00000000E+00  0.00000000E+00  0.00000000E+00
  0.00000000E+00  0.00000000E+00  0.00000000E+00
  0.00000000E+00  0.00000000E+00  0.00000000E+00
  0.00000000E+00  0.00000000E+00  0.00000000E+00
  0.00000000E+00  0.00000000E+00  0.00000000E+00
  0.00000000E+00  0.00000000E+00  0.00000000E+00
