Ni2 O2 F4                               
   1.00000000000000     
     3.7509207960397877    0.0000233308814557    0.0003660777355699
     0.0000509198914216    3.7421131878754772   -0.0009549548615582
     0.0024599942719627   -0.0052651709940687    7.5928628073343400
   Ni   O    F 
     2     2     4
Direct
  0.5000244955205243  0.4998709925610662  0.2551626659498900
  0.4999911033816447  0.5000042416263664  0.7571991611811323
  0.5002421619494134  0.0000529354744010  0.7552580642483601
  0.0000076557452272  0.4998426949506965  0.2548178926350714
  0.5001295679777970  0.5011049593555809  0.0079149756329891
  0.4997234540539400  0.4991173958276389  0.5034120531621221
  0.5000524569940251  0.9999138061464312  0.2543654031500229
  0.9998291043774357  0.5000929740578117  0.7548697840404112
 
  0.00000000E+00  0.00000000E+00  0.00000000E+00
  0.00000000E+00  0.00000000E+00  0.00000000E+00
  0.00000000E+00  0.00000000E+00  0.00000000E+00
  0.00000000E+00  0.00000000E+00  0.00000000E+00
  0.00000000E+00  0.00000000E+00  0.00000000E+00
  0.00000000E+00  0.00000000E+00  0.00000000E+00
  0.00000000E+00  0.00000000E+00  0.00000000E+00
  0.00000000E+00  0.00000000E+00  0.00000000E+00
