Sodium chromium tetrafluoride           
   1.00000000000000     
     7.7665688366902152   -0.0000006179230732    0.0066173726630010
    -0.0000003922639486    5.2585677881548625   -0.0000012044718984
    -1.4151257938720152   -0.0000016029007321    7.2077946605815795
   Na   Cr   F 
     4     4    16
Direct
  0.3655393020903475  0.7828357162236443  0.1084992712965089
  0.6344459300810854  0.2171644650354452  0.8914548550713519
  0.6344460675952774  0.2828355152129873  0.3914550139504414
  0.3655388652432805  0.7171640388447358  0.6084990994398680
  0.1709016054254278  0.2588241719954496  0.2972628815603358
  0.8291166950609181  0.7411718973101742  0.7027558767490305
  0.8291168081479796  0.7588280010088013  0.2027557494180812
  0.1709017244528539  0.2411762465622402  0.7972627821524298
  0.1698419472402932  0.1367890383760368  0.0485091095549564
  0.8301466887641169  0.8633069043006927  0.9514999890514133
  0.8301465675406305  0.6366930743767298  0.4514998769747933
  0.1698419697674183  0.3632108317122302  0.5485091930962938
  0.0390675696580800  0.5616452602862765  0.2023266052801844
  0.9609663842424254  0.4384695018950353  0.7977148728035459
  0.9609665107040044  0.0615303322537102  0.2977149256291156
  0.0390675350457386  0.9383547229038598  0.7023265452437286
  0.3718968624455243  0.4618876326559800  0.3110961351732371
  0.6280430903726497  0.5381474130250226  0.6889145532872192
  0.6280432279549260  0.9618528206095647  0.1889145252349564
  0.3718967571393677  0.0381123348688774  0.8110961297989761
  0.3139146865328541  0.9819295213945125  0.3750467757843481
  0.6861194237748762  0.0180898912580005  0.6249192591048924
  0.6861193313588601  0.4819098975336260  0.1249192520550508
  0.3139145593610593  0.5180707703563741  0.8750467412892249
 
  0.00000000E+00  0.00000000E+00  0.00000000E+00
  0.00000000E+00  0.00000000E+00  0.00000000E+00
  0.00000000E+00  0.00000000E+00  0.00000000E+00
  0.00000000E+00  0.00000000E+00  0.00000000E+00
  0.00000000E+00  0.00000000E+00  0.00000000E+00
  0.00000000E+00  0.00000000E+00  0.00000000E+00
  0.00000000E+00  0.00000000E+00  0.00000000E+00
  0.00000000E+00  0.00000000E+00  0.00000000E+00
  0.00000000E+00  0.00000000E+00  0.00000000E+00
  0.00000000E+00  0.00000000E+00  0.00000000E+00
  0.00000000E+00  0.00000000E+00  0.00000000E+00
  0.00000000E+00  0.00000000E+00  0.00000000E+00
  0.00000000E+00  0.00000000E+00  0.00000000E+00
  0.00000000E+00  0.00000000E+00  0.00000000E+00
  0.00000000E+00  0.00000000E+00  0.00000000E+00
  0.00000000E+00  0.00000000E+00  0.00000000E+00
  0.00000000E+00  0.00000000E+00  0.00000000E+00
  0.00000000E+00  0.00000000E+00  0.00000000E+00
  0.00000000E+00  0.00000000E+00  0.00000000E+00
  0.00000000E+00  0.00000000E+00  0.00000000E+00
  0.00000000E+00  0.00000000E+00  0.00000000E+00
  0.00000000E+00  0.00000000E+00  0.00000000E+00
  0.00000000E+00  0.00000000E+00  0.00000000E+00
  0.00000000E+00  0.00000000E+00  0.00000000E+00
