Na4 Cr4 O8 F4                           
   1.00000000000000     
     5.3482651648391899    0.0028080755537847    0.0510048249918376
     0.0015244205987630    5.4041379538767469    0.0002159293377598
    -0.0525340904284481   -0.0021686591147457    7.1686152227789499
   Na   Cr   O    F 
     4     4     8     4
Direct
  0.0055896691401926  0.0327404905173138  0.2463131935825236
  0.0017499830988935  0.9633211653573557  0.7528902805932857
  0.5067408273014657  0.4667746270988581  0.7470209334343940
  0.5015770327110523  0.5375224690360221  0.2540748547773853
  0.5196775200761201  0.9760146347408207  0.0011010792328528
  0.0107416322927597  0.4714798307726025  0.9973846473781848
  0.5110848583330355  0.0287870898570482  0.4965340553515836
  0.0209761075720719  0.5242600285858370  0.5019363102024522
  0.1968981695831567  0.2090710577811822  0.9686520220098246
  0.7835548909140940  0.7911293307611512  0.0323402416622390
  0.2848776697579223  0.7081684738208249  0.5327844035319856
  0.6973830899636041  0.2903325028399903  0.4681491272112920
  0.0467574603707320  0.4917096445377606  0.2500892075722939
  0.9281495094144711  0.5164545249834949  0.7499202042160811
  0.5465683339382142  0.0090061152135180  0.7495144217889245
  0.4275001776484041  0.9831900858271080  0.2498671992284414
  0.7028950808677210  0.2845426416811047  0.0373274725651489
  0.3015905336394646  0.6889032963639820  0.9632748904205134
  0.8024451234032260  0.8113138487041898  0.4638584046609133
  0.2032423299733914  0.2152781415198357  0.5369670505796597
 
  0.00000000E+00  0.00000000E+00  0.00000000E+00
  0.00000000E+00  0.00000000E+00  0.00000000E+00
  0.00000000E+00  0.00000000E+00  0.00000000E+00
  0.00000000E+00  0.00000000E+00  0.00000000E+00
  0.00000000E+00  0.00000000E+00  0.00000000E+00
  0.00000000E+00  0.00000000E+00  0.00000000E+00
  0.00000000E+00  0.00000000E+00  0.00000000E+00
  0.00000000E+00  0.00000000E+00  0.00000000E+00
  0.00000000E+00  0.00000000E+00  0.00000000E+00
  0.00000000E+00  0.00000000E+00  0.00000000E+00
  0.00000000E+00  0.00000000E+00  0.00000000E+00
  0.00000000E+00  0.00000000E+00  0.00000000E+00
  0.00000000E+00  0.00000000E+00  0.00000000E+00
  0.00000000E+00  0.00000000E+00  0.00000000E+00
  0.00000000E+00  0.00000000E+00  0.00000000E+00
  0.00000000E+00  0.00000000E+00  0.00000000E+00
  0.00000000E+00  0.00000000E+00  0.00000000E+00
  0.00000000E+00  0.00000000E+00  0.00000000E+00
  0.00000000E+00  0.00000000E+00  0.00000000E+00
  0.00000000E+00  0.00000000E+00  0.00000000E+00
