Fe4 O4 F8                               
   1.00000000000000     
     5.3503465498777691   -0.0000729766570353   -0.0456529062692087
    -0.0000436350279277    5.1372936935557112   -0.0003253112900507
     0.0106152340799433   -0.0002435058320624    7.4567596287159796
   Fe   O    F 
     4     4     8
Direct
  0.5061972499971926  0.9977364701361023 -0.0006515013500378
  0.0044272086087433  0.5015019324141433 -0.0002516478654907
  0.5044829456995146 -0.0015279812687278  0.4997074379160852
  0.0062004249272539  0.5022451405115552  0.4993566558367773
  0.2931678809149043  0.7120512775365089  0.9456268240222445
  0.1903510232317284  0.1788171747042319  0.9550467710071093
  0.6903722690648804  0.3211741407391732  0.4550390914095025
  0.7932339811796615  0.7879607727015114  0.4456194708238995
  0.6953335281836789  0.3102079520787414  0.0528076134633125
  0.8043224944375404  0.8045045129332467  0.0490983642186456
  0.3043342860900309  0.6955238710013675  0.5491017741431564
  0.1954351034152248  0.1898791632448472  0.5527591085495958
  0.1032024068780373  0.4613249211072141  0.2488881648264839
  0.9028493282499087  0.4984436502670563  0.7494745517985226
  0.6032231566321287  0.0386229762817041  0.7488901602642741
  0.4028667124895642  0.0015340256113234  0.2494871609359121
 
  0.00000000E+00  0.00000000E+00  0.00000000E+00
  0.00000000E+00  0.00000000E+00  0.00000000E+00
  0.00000000E+00  0.00000000E+00  0.00000000E+00
  0.00000000E+00  0.00000000E+00  0.00000000E+00
  0.00000000E+00  0.00000000E+00  0.00000000E+00
  0.00000000E+00  0.00000000E+00  0.00000000E+00
  0.00000000E+00  0.00000000E+00  0.00000000E+00
  0.00000000E+00  0.00000000E+00  0.00000000E+00
  0.00000000E+00  0.00000000E+00  0.00000000E+00
  0.00000000E+00  0.00000000E+00  0.00000000E+00
  0.00000000E+00  0.00000000E+00  0.00000000E+00
  0.00000000E+00  0.00000000E+00  0.00000000E+00
  0.00000000E+00  0.00000000E+00  0.00000000E+00
  0.00000000E+00  0.00000000E+00  0.00000000E+00
  0.00000000E+00  0.00000000E+00  0.00000000E+00
  0.00000000E+00  0.00000000E+00  0.00000000E+00
