Na4 Fe4 O8 F4                           
   1.00000000000000     
     5.3301073150383127    0.2714145451669380   -0.0191233605260629
     0.2739035570622641    5.3704256764457021   -0.0000730658905017
    -0.0276429001994366   -0.0098476595821164    7.3469231396055923
   Na   Fe   O    F 
     4     4     8     4
Direct
  0.9761141698978389  0.0395853720410334  0.2413512101425877
  0.0075678030082877  0.9726681858903996  0.7491671083520660
  0.5056315192027296  0.4500437650735695  0.7599996375229185
  0.5071957774830204  0.5316702269145943  0.2420086979973277
  0.4785713960943792  0.9809034795080833  0.0079775997376249
  0.0169103525239024  0.5161659909522202  0.9989902178711961
  0.4955056199846652  0.9989725854314673  0.4880777398010709
  0.0045155858910438  0.5036338255926047  0.4984807803730896
  0.0788716638511189  0.4659114460246032  0.2502148686951873
  0.9287645890692231  0.5310579796782967  0.7510124315800110
  0.4079542349517419  0.9958476372688290  0.2508293812637192
  0.2848267623996842  0.7245225175297371  0.9656001529749956
  0.2176707555983358  0.2232597051647242  0.9491437104082991
  0.7745342568969746  0.7741385210592581  0.0473421962113663
  0.7962428886999323  0.7907639469486270  0.4574161966228198
  0.2144546179937047  0.2155054321081554  0.5475865082501360
  0.5900338774017437  0.0139606185479005  0.7485767437963755
  0.7040894527544069  0.2711525203465004  0.0349958127474283
  0.3091626200048020  0.7059332537280073  0.5481583935212349
  0.7013820562924645  0.2943029901913678  0.4630706121305456
 
  0.00000000E+00  0.00000000E+00  0.00000000E+00
  0.00000000E+00  0.00000000E+00  0.00000000E+00
  0.00000000E+00  0.00000000E+00  0.00000000E+00
  0.00000000E+00  0.00000000E+00  0.00000000E+00
  0.00000000E+00  0.00000000E+00  0.00000000E+00
  0.00000000E+00  0.00000000E+00  0.00000000E+00
  0.00000000E+00  0.00000000E+00  0.00000000E+00
  0.00000000E+00  0.00000000E+00  0.00000000E+00
  0.00000000E+00  0.00000000E+00  0.00000000E+00
  0.00000000E+00  0.00000000E+00  0.00000000E+00
  0.00000000E+00  0.00000000E+00  0.00000000E+00
  0.00000000E+00  0.00000000E+00  0.00000000E+00
  0.00000000E+00  0.00000000E+00  0.00000000E+00
  0.00000000E+00  0.00000000E+00  0.00000000E+00
  0.00000000E+00  0.00000000E+00  0.00000000E+00
  0.00000000E+00  0.00000000E+00  0.00000000E+00
  0.00000000E+00  0.00000000E+00  0.00000000E+00
  0.00000000E+00  0.00000000E+00  0.00000000E+00
  0.00000000E+00  0.00000000E+00  0.00000000E+00
  0.00000000E+00  0.00000000E+00  0.00000000E+00
