Ti4 O4 F8                               
   1.00000000000000     
     5.2266294540668508    0.0450617189938007   -0.0107806832144509
     0.0427479672795104    5.3835914207707969   -0.0252585822843026
    -0.0131138915618325   -0.0360677103026424    7.5354012970315809
   Ti   O    F 
     4     4     8
Direct
  0.4812072013986238  0.9753602277788935  0.9916563937422394
  0.0112515687728161  0.5026967215038117  0.0188578005964112
  0.5154741600772003  0.9896774808079507  0.4958153860593014
  0.0162365815214114  0.4834314338805683  0.4997720656926402
  0.2959188151605751  0.7113390097344899  0.9593537917252406
  0.7689416259678619  0.7781193383163597  0.4639177790430258
  0.2246056530014609  0.2270939420218289  0.5394915055241086
  0.0767329715703874  0.4877761492102941  0.2459350632512236
  0.7039429359985053  0.2890398588587735  0.0329336455673254
  0.2021183322470334  0.2038255394230388  0.9473188865471376
  0.7957110540077551  0.8021540312910517  0.0450216435653554
  0.2753006968927043  0.7311503573483863  0.5518702902850877
  0.7121896598661350  0.2847690093995395  0.4563356682594667
  0.9141884382265290  0.5152558638189479  0.7565049495770321
  0.5948224226252142  0.0174487645200674  0.7533677539749417
  0.4113578826657796  0.0008622720860052  0.2418473765894699
 
  0.00000000E+00  0.00000000E+00  0.00000000E+00
  0.00000000E+00  0.00000000E+00  0.00000000E+00
  0.00000000E+00  0.00000000E+00  0.00000000E+00
  0.00000000E+00  0.00000000E+00  0.00000000E+00
  0.00000000E+00  0.00000000E+00  0.00000000E+00
  0.00000000E+00  0.00000000E+00  0.00000000E+00
  0.00000000E+00  0.00000000E+00  0.00000000E+00
  0.00000000E+00  0.00000000E+00  0.00000000E+00
  0.00000000E+00  0.00000000E+00  0.00000000E+00
  0.00000000E+00  0.00000000E+00  0.00000000E+00
  0.00000000E+00  0.00000000E+00  0.00000000E+00
  0.00000000E+00  0.00000000E+00  0.00000000E+00
  0.00000000E+00  0.00000000E+00  0.00000000E+00
  0.00000000E+00  0.00000000E+00  0.00000000E+00
  0.00000000E+00  0.00000000E+00  0.00000000E+00
  0.00000000E+00  0.00000000E+00  0.00000000E+00
