Co8 O8 F16                              
   1.00000000000000     
     7.5477949573603667    0.0017016319113064    0.0005811937475371
    -0.0008250655382895    7.6083896140727312   -0.0019210659145084
    -0.0024092318378780   -0.0161226565862523    7.6362066786644913
   Co   O    F 
     8     8    16
Direct
  0.9955343070997806 -0.0018362659212662  0.0001884781071534
  0.9972308905234276  0.0047851516624158  0.4999883370625395
 -0.0001878804836072  0.4996412590706187  0.0003083650795692
  0.0064011220118010  0.4987254815859824  0.5002364916614355
  0.4954674004913886 -0.0018736291307277  0.0001855388544982
  0.5060776891316976  0.0044019929079269  0.4999444960615330
  0.5000725602837239  0.4996400993069390  0.0000823922494168
  0.4965970134198601  0.4981360377493579  0.4993417924865000
  0.2510627116438101  0.5004876618282494  0.5004252529809605
  0.7500309495836699  0.4990016543478200  0.0001402303046030
  0.2471744017498444 -0.0006189245871137 -0.0002232605402758
  0.2500161175424619  0.4990433672565406  0.9998248918277425
  0.7472221961819390 -0.0002583720603480 -0.0002064602109832
  0.7512737998725342  0.0023183904583182  0.4998834552807357
  0.0015056779581676  0.2510536820571158  0.5002543627737237
  0.5011135616903153  0.2506874642586092  0.4999754282163677
  0.0055666536986351 -0.0046835681718781  0.2534565976924511
  0.4946960514844719 -0.0043833423638588  0.7463792523993973
  0.2511702719809805  0.0109226030571205  0.4998495493559021
  0.7511519373793346  0.4897447971634277  0.4994346204944846
 -0.0014104893765252  0.7533067831148313 -0.0005567567556116
  0.4988733117965817  0.2448917303232228  0.0009657201348403
  0.0052618215288168 -0.0042387909270012  0.7465753089487425
  0.9966637271763499  0.5032167460421356  0.2539130115547114
  0.9958407705441418  0.5047502985346547  0.7465430986698882
  0.4947362751830318 -0.0047068921974617  0.2534825532874655
  0.5046685277375434  0.5034543983017188  0.2534621946304299
  0.5051497903395795  0.5046297498433723  0.7459773960349430
 -0.0012499613489319  0.2448688159092457  0.0010758139006755
  0.0010218886334831  0.7509423963070224  0.5000991868352191
  0.4994386301633679  0.7532372964013279 -0.0007402348645446
  0.5018282743783381  0.7507119278716743  0.4997328954854858
 
  0.00000000E+00  0.00000000E+00  0.00000000E+00
  0.00000000E+00  0.00000000E+00  0.00000000E+00
  0.00000000E+00  0.00000000E+00  0.00000000E+00
  0.00000000E+00  0.00000000E+00  0.00000000E+00
  0.00000000E+00  0.00000000E+00  0.00000000E+00
  0.00000000E+00  0.00000000E+00  0.00000000E+00
  0.00000000E+00  0.00000000E+00  0.00000000E+00
  0.00000000E+00  0.00000000E+00  0.00000000E+00
  0.00000000E+00  0.00000000E+00  0.00000000E+00
  0.00000000E+00  0.00000000E+00  0.00000000E+00
  0.00000000E+00  0.00000000E+00  0.00000000E+00
  0.00000000E+00  0.00000000E+00  0.00000000E+00
  0.00000000E+00  0.00000000E+00  0.00000000E+00
  0.00000000E+00  0.00000000E+00  0.00000000E+00
  0.00000000E+00  0.00000000E+00  0.00000000E+00
  0.00000000E+00  0.00000000E+00  0.00000000E+00
  0.00000000E+00  0.00000000E+00  0.00000000E+00
  0.00000000E+00  0.00000000E+00  0.00000000E+00
  0.00000000E+00  0.00000000E+00  0.00000000E+00
  0.00000000E+00  0.00000000E+00  0.00000000E+00
  0.00000000E+00  0.00000000E+00  0.00000000E+00
  0.00000000E+00  0.00000000E+00  0.00000000E+00
  0.00000000E+00  0.00000000E+00  0.00000000E+00
  0.00000000E+00  0.00000000E+00  0.00000000E+00
  0.00000000E+00  0.00000000E+00  0.00000000E+00
  0.00000000E+00  0.00000000E+00  0.00000000E+00
  0.00000000E+00  0.00000000E+00  0.00000000E+00
  0.00000000E+00  0.00000000E+00  0.00000000E+00
  0.00000000E+00  0.00000000E+00  0.00000000E+00
  0.00000000E+00  0.00000000E+00  0.00000000E+00
  0.00000000E+00  0.00000000E+00  0.00000000E+00
  0.00000000E+00  0.00000000E+00  0.00000000E+00
