Sodium vanadium trifluoride             
   1.00000000000000     
     4.0954688623798994   -0.0000001492317069   -0.0000000231091957
    -0.0000001502265632    4.0954382069743076    0.0000000786281972
    -0.0000000221170895    0.0000000782982887    4.0952386784929065
   Na   V    F 
     1     1     3
Direct
  0.0000134592147107 -0.0000000061336706  0.0000000035671062
  0.4999668671863038  0.5000000051435943  0.4999999987993600
  0.5000239409567628  0.4999999982517128  0.0000000019459752
  0.9999141065933999  0.5000000001749604  0.4999999972838539
  0.5000816260488299  0.0000000025634030  0.4999999984037118
 
  0.00000000E+00  0.00000000E+00  0.00000000E+00
  0.00000000E+00  0.00000000E+00  0.00000000E+00
  0.00000000E+00  0.00000000E+00  0.00000000E+00
  0.00000000E+00  0.00000000E+00  0.00000000E+00
  0.00000000E+00  0.00000000E+00  0.00000000E+00
