Na4 Co4 O8 F4                           
   1.00000000000000     
     5.5673639870157867   -0.0223707498507976   -0.0002922376836668
    -2.8116238197616470    4.5627039025687433    0.0005113648298308
    -0.0006108774309247    0.0007201578469751    9.2555048450536184
   Na   Co   O    F 
     4     4     8     4
Direct
  0.0145204934994019  0.9988709450325219  0.0643650301226223
  0.0145180605626596  0.9989166377916046  0.4356898429871700
  0.3403688797187314  0.6472588195263799  0.2500053825058198
  0.6447281527282120  0.3253507356503739  0.7499766804984468
  0.3085988178197558  0.6695102867234781  0.6060650238993892
  0.6700511822072206  0.3115170862727075  0.3981078861991081
  0.6701539912529110  0.3111046351664600  0.1017153897828488
  0.3086564471219533  0.6694056526236586  0.8939476777824596
  0.4254091387149658  0.0154078467975612  0.9910792359046268
  0.0241921311833728  0.4355223037818480  0.9959803993918156
  0.4256282772291188  0.0157610103648465  0.5089954016326192
  0.0242264336889808  0.4358680891798797  0.5040119035533682
  0.8924684060355470  0.5946918164890165  0.2499207324082106
  0.2807466706921327  0.4054125880104327  0.7500478462240903
  0.5758789241982223  0.8565668333483457  0.7500298922046054
  0.7790164718104721  0.1235270052256184  0.2500533537543169
  0.5934955345612460  0.6094867620011091  0.0163507918479812
  0.5935464762659901  0.6097294022595735  0.4836189064032105
  0.3476767683371993  0.2267449166593884  0.2499940935118741
  0.0661187423719130  0.7393466270951951  0.7500445293854311
 
  0.00000000E+00  0.00000000E+00  0.00000000E+00
  0.00000000E+00  0.00000000E+00  0.00000000E+00
  0.00000000E+00  0.00000000E+00  0.00000000E+00
  0.00000000E+00  0.00000000E+00  0.00000000E+00
  0.00000000E+00  0.00000000E+00  0.00000000E+00
  0.00000000E+00  0.00000000E+00  0.00000000E+00
  0.00000000E+00  0.00000000E+00  0.00000000E+00
  0.00000000E+00  0.00000000E+00  0.00000000E+00
  0.00000000E+00  0.00000000E+00  0.00000000E+00
  0.00000000E+00  0.00000000E+00  0.00000000E+00
  0.00000000E+00  0.00000000E+00  0.00000000E+00
  0.00000000E+00  0.00000000E+00  0.00000000E+00
  0.00000000E+00  0.00000000E+00  0.00000000E+00
  0.00000000E+00  0.00000000E+00  0.00000000E+00
  0.00000000E+00  0.00000000E+00  0.00000000E+00
  0.00000000E+00  0.00000000E+00  0.00000000E+00
  0.00000000E+00  0.00000000E+00  0.00000000E+00
  0.00000000E+00  0.00000000E+00  0.00000000E+00
  0.00000000E+00  0.00000000E+00  0.00000000E+00
  0.00000000E+00  0.00000000E+00  0.00000000E+00
