Mn4 O4 F8                               
   1.00000000000000     
     4.8287414227894265   -0.0053927862606821   -0.0012219506399239
     0.0008916322515395    5.0946922615137229    0.0285470340711733
    -0.0043945029054542    0.0418955102785009    6.9714083483317228
   Mn   O    F 
     4     4     8
Direct
  0.5112790839690220  0.0103892765485320  0.0138006711214955
  0.9847198483798952  0.4864882484733314  0.9887818861053179
  0.5152637285607378  0.9861016088158879  0.4859104660010975
  0.9891117810337786  0.5121255304438829  0.5105964075310644
  0.6843669259760705  0.3088131696185420  0.0672251051155700
  0.8266302718174834  0.8130227513408141  0.4364596308046123
  0.8606509033719798  0.5278150121908431  0.7494716820470021
  0.3762110589513236  0.9656524022343125  0.2502625925693462
  0.3082092182920833  0.6963951270608385  0.9407662131679871
  0.1852821945993162  0.1903702472400553  0.9343913608932274
  0.8217180382572601  0.8099206122982529  0.0586638577026734
  0.3206515516820327  0.6869104961119196  0.5652846554299149
  0.6844656811916476  0.3100360655045807  0.4389651229339837
  0.1943166313604730  0.1985428609424814  0.5591038416699783
  0.1177246991624516  0.4708969208647565  0.2498215974976564
  0.6193983833944304  0.0265196703109762  0.7504949094090656
 
  0.00000000E+00  0.00000000E+00  0.00000000E+00
  0.00000000E+00  0.00000000E+00  0.00000000E+00
  0.00000000E+00  0.00000000E+00  0.00000000E+00
  0.00000000E+00  0.00000000E+00  0.00000000E+00
  0.00000000E+00  0.00000000E+00  0.00000000E+00
  0.00000000E+00  0.00000000E+00  0.00000000E+00
  0.00000000E+00  0.00000000E+00  0.00000000E+00
  0.00000000E+00  0.00000000E+00  0.00000000E+00
  0.00000000E+00  0.00000000E+00  0.00000000E+00
  0.00000000E+00  0.00000000E+00  0.00000000E+00
  0.00000000E+00  0.00000000E+00  0.00000000E+00
  0.00000000E+00  0.00000000E+00  0.00000000E+00
  0.00000000E+00  0.00000000E+00  0.00000000E+00
  0.00000000E+00  0.00000000E+00  0.00000000E+00
  0.00000000E+00  0.00000000E+00  0.00000000E+00
  0.00000000E+00  0.00000000E+00  0.00000000E+00
