Na4 Mn4 O8 F4                           
   1.00000000000000     
     5.2921523583307506    0.0002220655316597   -0.0013717553787687
    -0.0002479310673011    5.2695983552899870    0.0039580729044154
     0.0017153298960075   -0.0051973244138682    7.2115099118319987
   Na   Mn   O    F 
     4     4     8     4
Direct
  0.9979825608310031  0.0411754700027946  0.2462936125154156
  0.0020227472259688  0.9589801292496157  0.7461972950221698
  0.4979753396787074  0.4589774550222550  0.7461959389352122
  0.5020219526612352  0.5411595591066395  0.2462796689526991
  0.4699750917848261  0.9996513776944540  0.0021262818800893
  0.0300262778761871  0.4996531176878320  0.0021288373764739
  0.5299805072308124  0.0002910243877755  0.5020967685443454
  0.9700165037666308  0.5002928022585543  0.5020916791920178
  0.0770294600905327  0.4827454124046776  0.2518431759715301
  0.9229448185105233  0.5173678879321519  0.7518791246315720
  0.5770571083355105  0.0173772914509390  0.7518685808712843
  0.4229770780727534  0.9827157694356397  0.2518584039963269
  0.3011868918472674  0.7021753585119349  0.9576087710900605
  0.1988319791951051  0.2021812637565064  0.9575464528932193
  0.6992099313665785  0.2974606974297961  0.4574270854952462
  0.8008139748470413  0.7974724204274853  0.4575084716852378
  0.7052220506858368  0.2870210411688355  0.0422078399563133
  0.7947555594825616  0.7870029759788737  0.0422411377456733
  0.2943833440622302  0.7131612981619889  0.5423327482246295
  0.2055868224487026  0.2131376479312576  0.5422681250204835
 
  0.00000000E+00  0.00000000E+00  0.00000000E+00
  0.00000000E+00  0.00000000E+00  0.00000000E+00
  0.00000000E+00  0.00000000E+00  0.00000000E+00
  0.00000000E+00  0.00000000E+00  0.00000000E+00
  0.00000000E+00  0.00000000E+00  0.00000000E+00
  0.00000000E+00  0.00000000E+00  0.00000000E+00
  0.00000000E+00  0.00000000E+00  0.00000000E+00
  0.00000000E+00  0.00000000E+00  0.00000000E+00
  0.00000000E+00  0.00000000E+00  0.00000000E+00
  0.00000000E+00  0.00000000E+00  0.00000000E+00
  0.00000000E+00  0.00000000E+00  0.00000000E+00
  0.00000000E+00  0.00000000E+00  0.00000000E+00
  0.00000000E+00  0.00000000E+00  0.00000000E+00
  0.00000000E+00  0.00000000E+00  0.00000000E+00
  0.00000000E+00  0.00000000E+00  0.00000000E+00
  0.00000000E+00  0.00000000E+00  0.00000000E+00
  0.00000000E+00  0.00000000E+00  0.00000000E+00
  0.00000000E+00  0.00000000E+00  0.00000000E+00
  0.00000000E+00  0.00000000E+00  0.00000000E+00
  0.00000000E+00  0.00000000E+00  0.00000000E+00
