Ni4 O4 F8                               
   1.00000000000000     
     4.6816681868866361   -0.1127761795025139   -0.0830298287883869
    -2.3705489434716496    4.2160245707188642    0.1201814269541840
    -0.0823886487495849   -0.1978960645320856    9.3601985996222119
   Ni   O    F 
     4     4     8
Direct
  0.3474076937656810  0.6797112758084349  0.6100809936719358
  0.7021568550192085  0.3544258449954211  0.3900103615499412
  0.6469343786844911  0.3176156751845821  0.1139142957427321
  0.3286824615835663  0.6584453611929890  0.8922484300494854
  0.5946208815545835  0.9683543104851241  0.0254608368612580
  0.0248962996635713  0.6765480520515921  0.4954772252161385
  0.0504252617161772  0.3829521974058286  0.7278749105415441
  0.3902973577500328  0.0665019561473816  0.2612447332109171
  0.9352218226075653  0.6023637944023325  0.9861941098328886
  0.2804785785918226  0.3076175638280007 -0.0041548932213502
  0.6712528037124035  0.0008780636411789  0.5050537270624467
  0.3851004507240761  0.3620266493018838  0.4963480994573926
  0.6933200259945960  0.6390404188317685  0.2292291669999088
  0.6461112631424986  0.6906019864231058  0.7478192558430183
  0.9867432011516455  0.3378412022779032  0.2629490603870979
  0.3163506643380788  0.9550756480224667  0.7602496867946371
 
  0.00000000E+00  0.00000000E+00  0.00000000E+00
  0.00000000E+00  0.00000000E+00  0.00000000E+00
  0.00000000E+00  0.00000000E+00  0.00000000E+00
  0.00000000E+00  0.00000000E+00  0.00000000E+00
  0.00000000E+00  0.00000000E+00  0.00000000E+00
  0.00000000E+00  0.00000000E+00  0.00000000E+00
  0.00000000E+00  0.00000000E+00  0.00000000E+00
  0.00000000E+00  0.00000000E+00  0.00000000E+00
  0.00000000E+00  0.00000000E+00  0.00000000E+00
  0.00000000E+00  0.00000000E+00  0.00000000E+00
  0.00000000E+00  0.00000000E+00  0.00000000E+00
  0.00000000E+00  0.00000000E+00  0.00000000E+00
  0.00000000E+00  0.00000000E+00  0.00000000E+00
  0.00000000E+00  0.00000000E+00  0.00000000E+00
  0.00000000E+00  0.00000000E+00  0.00000000E+00
  0.00000000E+00  0.00000000E+00  0.00000000E+00
