Tetrasodium dimanganese(III) oxide      
   1.00000000000000     
     5.7474728316577588   -0.0000393669497346   -0.0000122276689565
    -0.0000644320893216    9.3843183453516286    0.0003563288275428
    -0.0000445802910519    0.0007461233952700   19.5432624621800066
   Na   Mn   O 
    32    16    40
Direct
  0.8783616436489154  0.1250537725552476  0.0344134372490217
  0.1216499985887864  0.8749466472029042  0.9655885397877739
  0.8716497704160702  0.6249427789722617  0.0344109606957446
  0.1283619601953561  0.3750577069730667  0.9655868867235284
  0.8716371225555619  0.1250530570485324  0.7155861801781640
  0.1283746935766814  0.8749463446404775  0.2844159070116916
  0.8783746387233435  0.6249406876547141  0.7155831210967918
  0.1216369884536235  0.3750588403779531  0.2844148352831795
  0.8783615437657417  0.6250537774169658  0.5344133654996384
  0.1216499079624640  0.3749466444417919  0.4655885079105886
  0.8716498433991617  0.1249427738875966  0.5344109404673461
  0.1283620240214418  0.8750577116509604  0.4655868377143264
  0.8716370372230955  0.6250530569029564  0.2155861454945551
  0.1283746243535901  0.3749463488415046  0.7844158783385140
  0.8783747386884571  0.1249406866037504  0.2155830664130747
  0.1216370924744083  0.8750588355578230  0.7844147953147314
  0.3783615536300218  0.1250537738220103  0.5344133812787319
  0.6216499031466185  0.8749466536616097  0.4655885112706599
  0.3716498596772553  0.6249427782519703  0.5344109111772255
  0.6283620501079952  0.3750577043340400  0.4655868566835224
  0.3716369792226644  0.1250530665193068  0.2155861378922026
  0.6283746213244754  0.8749463463638278  0.7844158860458990
  0.3783747215895943  0.6249406779958733  0.2155830783719068
  0.6216370746548492  0.3750588379182886  0.7844147865545210
  0.3783616387788982  0.6250537723633229  0.0344133978732089
  0.6216500123711768  0.3749466476140668  0.9655885260189834
  0.3716497338868407  0.1249427783788519  0.0344109463854352
  0.6283619286085838  0.8750577071236876  0.9655868758417512
  0.3716371414060688  0.6250530612907497  0.7155861516460504
  0.6283747372243766  0.3749463440297376  0.2844159294796356
  0.3783746298291177  0.1249406837788811  0.7155831319508081
  0.6216370011782146  0.8750588412526312  0.2844148085193794
  0.8750262399121240  0.0953364515944344  0.8749811012126330
  0.1250365613965556  0.9046635576405180  0.1250176974572383
  0.8750338840430487  0.6546029000292819  0.8749772105835092
  0.1250316347980203  0.3453966616274826  0.1250242981674745
  0.8750261859186139  0.5953364623178885  0.3749810818538180
  0.1250366408194807  0.4046635819833000  0.6250176972024732
  0.8750338853537158  0.1546028727802522  0.3749771992355875
  0.1250316428732461  0.8453966338650574  0.6250242896682963
  0.3750262382138558  0.0953364574339730  0.3749810843597672
  0.6250366150508171  0.9046635723034697  0.6250176964514793
  0.3750339343459146  0.6546028858142705  0.3749771951518781
  0.6250316191142602  0.3453966335168985  0.6250242915662483
  0.3750262405241216  0.5953364400938526  0.8749810910720370
  0.6250366297481094  0.4046635565697159  0.1250177022112808
  0.3750338811825245  0.1546029143844265  0.8749772128533735
  0.6250316952962010  0.8453966520359089  0.1250242900940393
  0.8749785647915900  0.8749705836442985  0.5580513478987044
  0.1249760693202546  0.1249968002872350  0.4419486384568501
  0.8749778653944560  0.8750087705221148  0.1919723393799160
  0.1249757685758865  0.1250248957150291  0.8080278904028759
  0.8749785661699505  0.3749705847871780  0.0580513758889154
  0.1249760666471857  0.6249967962461653  0.9419486510643083
  0.8749778595520823  0.3750087727693767  0.6919723338005355
  0.1249757741145743  0.6250248923633279  0.3080278797874740
  0.3749785643438344  0.8749705861568486  0.0580513813030166
  0.6249760681020362  0.1249968007792788  0.9419486703414961
  0.3749778660237411  0.8750087704715526  0.6919723340855199
  0.6249757680861094  0.1250248913292040  0.3080278650177632
  0.3749785664396512  0.3749705869514983  0.5580513557655991
  0.6249760665832511  0.6249967971279773  0.4419486421157117
  0.3749778627747702  0.3750087690969011  0.1919723410283964
  0.6249757742356437  0.6250248912552578  0.8080278746250187
  0.8749681214562770  0.8750572389134561  0.0591137904637051
  0.1249739168218298  0.1249892400512067  0.9408863897210153
  0.8749670400334111  0.8749701439601694  0.6909040607248684
  0.1249741058644673  0.1249830397539498  0.3090956489760401
  0.8749681240557905  0.3750572400559236  0.5591137619253956
  0.1249739266632872  0.6249892358316558  0.4408863841733250
  0.8749670402329812  0.3749701471244862  0.1909040693738149
  0.1249741086244498  0.6249830367353155  0.8090956488900503
  0.3749681194531078  0.8750572356429203  0.5591137661595909
  0.6249739246812638  0.1249892393532406  0.4408863673330714
  0.3749670385816302  0.8749701477493090  0.1909040901614887
  0.6249741125194390  0.1249830421180533  0.8090956670669414
  0.3749681303890995  0.3750572367534488  0.0591137729190763
  0.6249739272559154  0.6249892360827616  0.9408863750704910
  0.3749670439609503  0.3749701479265397  0.6909040580660175
  0.6249741034371041  0.6249830385817816  0.3090956647056515
  0.8750150242567827  0.8749850059919879  0.8749854514720710
  0.1250183532899385  0.1250148850083406  0.1250144667734290
  0.8750150328146304  0.3749850064718387  0.3749854552026264
  0.1250183135759002  0.6250148866544407  0.6250144557934831
  0.3750150180477192  0.8749850037941584  0.3749854468901574
  0.6250183284651172  0.1250148886117657  0.6250144670350153
  0.3750150212091370  0.3749850044821912  0.8749854490749200
  0.6250183098806730  0.6250148894297496  0.1250144657558891
 
  0.00000000E+00  0.00000000E+00  0.00000000E+00
  0.00000000E+00  0.00000000E+00  0.00000000E+00
  0.00000000E+00  0.00000000E+00  0.00000000E+00
  0.00000000E+00  0.00000000E+00  0.00000000E+00
  0.00000000E+00  0.00000000E+00  0.00000000E+00
  0.00000000E+00  0.00000000E+00  0.00000000E+00
  0.00000000E+00  0.00000000E+00  0.00000000E+00
  0.00000000E+00  0.00000000E+00  0.00000000E+00
  0.00000000E+00  0.00000000E+00  0.00000000E+00
  0.00000000E+00  0.00000000E+00  0.00000000E+00
  0.00000000E+00  0.00000000E+00  0.00000000E+00
  0.00000000E+00  0.00000000E+00  0.00000000E+00
  0.00000000E+00  0.00000000E+00  0.00000000E+00
  0.00000000E+00  0.00000000E+00  0.00000000E+00
  0.00000000E+00  0.00000000E+00  0.00000000E+00
  0.00000000E+00  0.00000000E+00  0.00000000E+00
  0.00000000E+00  0.00000000E+00  0.00000000E+00
  0.00000000E+00  0.00000000E+00  0.00000000E+00
  0.00000000E+00  0.00000000E+00  0.00000000E+00
  0.00000000E+00  0.00000000E+00  0.00000000E+00
  0.00000000E+00  0.00000000E+00  0.00000000E+00
  0.00000000E+00  0.00000000E+00  0.00000000E+00
  0.00000000E+00  0.00000000E+00  0.00000000E+00
  0.00000000E+00  0.00000000E+00  0.00000000E+00
  0.00000000E+00  0.00000000E+00  0.00000000E+00
  0.00000000E+00  0.00000000E+00  0.00000000E+00
  0.00000000E+00  0.00000000E+00  0.00000000E+00
  0.00000000E+00  0.00000000E+00  0.00000000E+00
  0.00000000E+00  0.00000000E+00  0.00000000E+00
  0.00000000E+00  0.00000000E+00  0.00000000E+00
  0.00000000E+00  0.00000000E+00  0.00000000E+00
  0.00000000E+00  0.00000000E+00  0.00000000E+00
  0.00000000E+00  0.00000000E+00  0.00000000E+00
  0.00000000E+00  0.00000000E+00  0.00000000E+00
  0.00000000E+00  0.00000000E+00  0.00000000E+00
  0.00000000E+00  0.00000000E+00  0.00000000E+00
  0.00000000E+00  0.00000000E+00  0.00000000E+00
  0.00000000E+00  0.00000000E+00  0.00000000E+00
  0.00000000E+00  0.00000000E+00  0.00000000E+00
  0.00000000E+00  0.00000000E+00  0.00000000E+00
  0.00000000E+00  0.00000000E+00  0.00000000E+00
  0.00000000E+00  0.00000000E+00  0.00000000E+00
  0.00000000E+00  0.00000000E+00  0.00000000E+00
  0.00000000E+00  0.00000000E+00  0.00000000E+00
  0.00000000E+00  0.00000000E+00  0.00000000E+00
  0.00000000E+00  0.00000000E+00  0.00000000E+00
  0.00000000E+00  0.00000000E+00  0.00000000E+00
  0.00000000E+00  0.00000000E+00  0.00000000E+00
  0.00000000E+00  0.00000000E+00  0.00000000E+00
  0.00000000E+00  0.00000000E+00  0.00000000E+00
  0.00000000E+00  0.00000000E+00  0.00000000E+00
  0.00000000E+00  0.00000000E+00  0.00000000E+00
  0.00000000E+00  0.00000000E+00  0.00000000E+00
  0.00000000E+00  0.00000000E+00  0.00000000E+00
  0.00000000E+00  0.00000000E+00  0.00000000E+00
  0.00000000E+00  0.00000000E+00  0.00000000E+00
  0.00000000E+00  0.00000000E+00  0.00000000E+00
  0.00000000E+00  0.00000000E+00  0.00000000E+00
  0.00000000E+00  0.00000000E+00  0.00000000E+00
  0.00000000E+00  0.00000000E+00  0.00000000E+00
  0.00000000E+00  0.00000000E+00  0.00000000E+00
  0.00000000E+00  0.00000000E+00  0.00000000E+00
  0.00000000E+00  0.00000000E+00  0.00000000E+00
  0.00000000E+00  0.00000000E+00  0.00000000E+00
  0.00000000E+00  0.00000000E+00  0.00000000E+00
  0.00000000E+00  0.00000000E+00  0.00000000E+00
  0.00000000E+00  0.00000000E+00  0.00000000E+00
  0.00000000E+00  0.00000000E+00  0.00000000E+00
  0.00000000E+00  0.00000000E+00  0.00000000E+00
  0.00000000E+00  0.00000000E+00  0.00000000E+00
  0.00000000E+00  0.00000000E+00  0.00000000E+00
  0.00000000E+00  0.00000000E+00  0.00000000E+00
  0.00000000E+00  0.00000000E+00  0.00000000E+00
  0.00000000E+00  0.00000000E+00  0.00000000E+00
  0.00000000E+00  0.00000000E+00  0.00000000E+00
  0.00000000E+00  0.00000000E+00  0.00000000E+00
  0.00000000E+00  0.00000000E+00  0.00000000E+00
  0.00000000E+00  0.00000000E+00  0.00000000E+00
  0.00000000E+00  0.00000000E+00  0.00000000E+00
  0.00000000E+00  0.00000000E+00  0.00000000E+00
  0.00000000E+00  0.00000000E+00  0.00000000E+00
  0.00000000E+00  0.00000000E+00  0.00000000E+00
  0.00000000E+00  0.00000000E+00  0.00000000E+00
  0.00000000E+00  0.00000000E+00  0.00000000E+00
  0.00000000E+00  0.00000000E+00  0.00000000E+00
  0.00000000E+00  0.00000000E+00  0.00000000E+00
  0.00000000E+00  0.00000000E+00  0.00000000E+00
  0.00000000E+00  0.00000000E+00  0.00000000E+00
