Co8 O8 F16                              
   1.00000000000000     
     7.6086191100139251    0.0003266709832630    0.0048018451793734
    -0.0001882738849960    7.5948344772632943    0.0142760482291258
     0.0054145862026801   -0.0099933499201197    7.6416379195253930
   Co   O    F 
     8     8    16
Direct
  0.0041774077054172 -0.0015986334548380  0.0000781793737590
  0.9912495634814831  0.9997912438011280  0.5002673769497102
 -0.0140395232747339  0.4987772714671129  0.9992703628251303
  0.0034324077294210  0.4998792887410700  0.4998472608764076
  0.5051261058594344  0.0023003996204622  0.0002549293149029
  0.4915217859075062 -0.0001828067932685  0.5004899318078284
  0.4867383872397007  0.5028686955681774  0.9991086766752665
  0.4991968547295142  0.4999182146673657  0.4990788376387163
  0.9879984287477463  0.9986937008818940  0.2470430570390594
  0.2626169851015792  0.4996749997957691  0.5003815018787419
  0.7506476992446302  0.5001565288291310  0.9995755578988446
  0.9881687576950854 -0.0004686639323046  0.7533864228554862
  0.2508573368092049  0.5010017213250468  0.9996238170816263
  0.7589987736773390  0.0000616265165148  0.0004050592491583
  0.4920980571708820  0.2527517641620970  0.4997833287734380
  0.4919747902167226  0.7469921755379887  0.5000370317212776
  0.5017915473743794  0.0007744914759353  0.7500576826607773
  0.2367724911078952  0.9993109838542668  0.5000702853956347
  0.7465416817261891  0.4994881063371930  0.5000990292781474
  0.0217898725266556  0.7399053656745632  0.9999103443581357
  0.4927060278203342  0.2444500012946043  0.0006483744997506
  0.9949247148666212  0.4994801895484339  0.2586598321067785
  0.9948603744005953  0.4986934098981921  0.7410507160784869
  0.5006866964784688  0.0004008850144231  0.2506774167291065
  0.5212553663403815  0.5009127516667401  0.2408186182783202
  0.5219404740096365  0.5002970882701789  0.7579338068885110
  0.2496458067215945  0.0000752390489869  0.0001936446212643
  0.7489190886254040  0.9989901546162134  0.5006549148389647
  0.0217021405533897  0.2578315141607022  0.0003348166059284
  0.0013471039774019  0.2505773321854442  0.4996621537985463
  0.0015225125227303  0.7487835448408503  0.5008243330912149
  0.4928302829073974  0.7594114153799041  0.9997726988111005
 
  0.00000000E+00  0.00000000E+00  0.00000000E+00
  0.00000000E+00  0.00000000E+00  0.00000000E+00
  0.00000000E+00  0.00000000E+00  0.00000000E+00
  0.00000000E+00  0.00000000E+00  0.00000000E+00
  0.00000000E+00  0.00000000E+00  0.00000000E+00
  0.00000000E+00  0.00000000E+00  0.00000000E+00
  0.00000000E+00  0.00000000E+00  0.00000000E+00
  0.00000000E+00  0.00000000E+00  0.00000000E+00
  0.00000000E+00  0.00000000E+00  0.00000000E+00
  0.00000000E+00  0.00000000E+00  0.00000000E+00
  0.00000000E+00  0.00000000E+00  0.00000000E+00
  0.00000000E+00  0.00000000E+00  0.00000000E+00
  0.00000000E+00  0.00000000E+00  0.00000000E+00
  0.00000000E+00  0.00000000E+00  0.00000000E+00
  0.00000000E+00  0.00000000E+00  0.00000000E+00
  0.00000000E+00  0.00000000E+00  0.00000000E+00
  0.00000000E+00  0.00000000E+00  0.00000000E+00
  0.00000000E+00  0.00000000E+00  0.00000000E+00
  0.00000000E+00  0.00000000E+00  0.00000000E+00
  0.00000000E+00  0.00000000E+00  0.00000000E+00
  0.00000000E+00  0.00000000E+00  0.00000000E+00
  0.00000000E+00  0.00000000E+00  0.00000000E+00
  0.00000000E+00  0.00000000E+00  0.00000000E+00
  0.00000000E+00  0.00000000E+00  0.00000000E+00
  0.00000000E+00  0.00000000E+00  0.00000000E+00
  0.00000000E+00  0.00000000E+00  0.00000000E+00
  0.00000000E+00  0.00000000E+00  0.00000000E+00
  0.00000000E+00  0.00000000E+00  0.00000000E+00
  0.00000000E+00  0.00000000E+00  0.00000000E+00
  0.00000000E+00  0.00000000E+00  0.00000000E+00
  0.00000000E+00  0.00000000E+00  0.00000000E+00
  0.00000000E+00  0.00000000E+00  0.00000000E+00
