Na4 Cr4 O8 F4                           
   1.00000000000000     
     5.4047087016270225    0.0090084686841454    0.2137935134704119
    -2.6911766080099708    4.7318639582200825   -0.5720853570599200
     0.4233265130246079   -0.7088568764536113    9.4816093171928060
   Na   Cr   O    F 
     4     4     8     4
Direct
  0.9302912662032131  0.9480132094342890  0.0407672577071704
  0.0437130576960795  0.0188956127903345  0.5668390835715664
  0.3627599647932411  0.6903948798362640  0.2754749878858694
  0.7006014643470864  0.2790037928953771  0.7741917957892367
  0.3781293507500625  0.6984850273838881  0.6084063687635473
  0.7202050902960019  0.3147515569224115  0.4291299115063995
  0.6067000346558208  0.3109790410715953  0.1015912231771929
  0.2805285885297035  0.5694586560671984  0.9192276872677707
  0.3993787047561328  0.9142267727910136  0.9960260964222686
 -0.0331604947885587  0.3767783372106959  0.0024667810658392
  0.5286067118450212  0.4819258095561094  0.9573234561040587
  0.6390073961252528  0.0291925377984622  0.5100352850823113
  0.0607263872091774  0.5835621780807315  0.4765648997679174
  0.4847696308957714  0.4302733094332089  0.4892793946798130
  0.1757965246866910  0.4452900560483825  0.7408007367395596
  0.6996234438409876  0.1759164070099956  0.2517147776544085
  0.7886339839114700  0.6804696506164066  0.2130716395110456
  0.2677012568787799  0.2527214420613536  0.1941502586487912
  0.6966712445333607  0.8454205281320568  0.7338456800051010
  0.2693163928347062  0.9542411948602045  0.7190926786501385
 
  0.00000000E+00  0.00000000E+00  0.00000000E+00
  0.00000000E+00  0.00000000E+00  0.00000000E+00
  0.00000000E+00  0.00000000E+00  0.00000000E+00
  0.00000000E+00  0.00000000E+00  0.00000000E+00
  0.00000000E+00  0.00000000E+00  0.00000000E+00
  0.00000000E+00  0.00000000E+00  0.00000000E+00
  0.00000000E+00  0.00000000E+00  0.00000000E+00
  0.00000000E+00  0.00000000E+00  0.00000000E+00
  0.00000000E+00  0.00000000E+00  0.00000000E+00
  0.00000000E+00  0.00000000E+00  0.00000000E+00
  0.00000000E+00  0.00000000E+00  0.00000000E+00
  0.00000000E+00  0.00000000E+00  0.00000000E+00
  0.00000000E+00  0.00000000E+00  0.00000000E+00
  0.00000000E+00  0.00000000E+00  0.00000000E+00
  0.00000000E+00  0.00000000E+00  0.00000000E+00
  0.00000000E+00  0.00000000E+00  0.00000000E+00
  0.00000000E+00  0.00000000E+00  0.00000000E+00
  0.00000000E+00  0.00000000E+00  0.00000000E+00
  0.00000000E+00  0.00000000E+00  0.00000000E+00
  0.00000000E+00  0.00000000E+00  0.00000000E+00
