V4 O4 F8                                
   1.00000000000000     
     5.0735386333643673    0.0605071456144103   -0.0011429948367189
     0.0395867040679134    5.2901958353137797    0.0059519667213640
    -0.0003213179906194   -0.0028611366688379    7.3888299308284022
   V    O    F 
     4     4     8
Direct
  0.5272466530394982  0.9810071027712333  0.0049103149292698
  0.0183949044127706  0.4726931894058478  0.9948393815970640
  0.5274941319816278  0.9812225732158572  0.4957790148937898
  0.0186017412136468  0.4730059909561634  0.5042063693399372
  0.2023805522373216  0.2176786587613057  0.9599934929495910
  0.7819218296365528  0.7902287413552216  0.0416510501621414
  0.7827232364755863  0.7913649701311871  0.4584859339008651
  0.2019286053715761  0.2176064582390891  0.5399667586260648
  0.1044814138668583  0.5073536762356319  0.2497192328210584
  0.8853757811433949  0.5123522623626260  0.7496939217366361
  0.5971081562349758  0.0421605308183139  0.7503131785783200
  0.3892951076069193  0.9802695462967479  0.2503524355616618
  0.6971606415977659  0.2980134250353440  0.0582439806740315
  0.2839981162748380  0.7185768244372736  0.9388926791903391
  0.2851086736777106  0.7177278826074055  0.5610241657045543
  0.6967804552289566  0.2987381673707525  0.4419280893346687
 
  0.00000000E+00  0.00000000E+00  0.00000000E+00
  0.00000000E+00  0.00000000E+00  0.00000000E+00
  0.00000000E+00  0.00000000E+00  0.00000000E+00
  0.00000000E+00  0.00000000E+00  0.00000000E+00
  0.00000000E+00  0.00000000E+00  0.00000000E+00
  0.00000000E+00  0.00000000E+00  0.00000000E+00
  0.00000000E+00  0.00000000E+00  0.00000000E+00
  0.00000000E+00  0.00000000E+00  0.00000000E+00
  0.00000000E+00  0.00000000E+00  0.00000000E+00
  0.00000000E+00  0.00000000E+00  0.00000000E+00
  0.00000000E+00  0.00000000E+00  0.00000000E+00
  0.00000000E+00  0.00000000E+00  0.00000000E+00
  0.00000000E+00  0.00000000E+00  0.00000000E+00
  0.00000000E+00  0.00000000E+00  0.00000000E+00
  0.00000000E+00  0.00000000E+00  0.00000000E+00
  0.00000000E+00  0.00000000E+00  0.00000000E+00
