Cr8 O8 F16                              
   1.00000000000000     
     7.5450216906643854   -0.0021955522919737   -0.0001458974414073
    -0.0021531955934459    7.3390051091626711   -0.0000610811419915
    -0.0000488645911993   -0.0000578173667611    7.4734186830721621
   Cr   O    F 
     8     8    16
Direct
  0.9783159090951478 -0.0000970146043148 -0.0000060555675028
  0.0014471749367071  0.0000182591919552  0.4999941515177248
  0.0017235171247010  0.4999441862618542 -0.0000037316064138
  0.0001527369969073  0.5000873269772246  0.5000046810823900
  0.5018024975878913 -0.0006958373864023  0.0000200735123922
  0.4682331997484008  0.0015598792553699  0.5000225326287762
  0.5012893552266370  0.4978310519022149  0.0000053876581233
  0.5016350941374713  0.5031257200739883  0.5000026991359614
  0.2494989815434938  0.0000124805296284  0.4999290631803268
  0.5024947357803589  0.2349274461783758  0.0000535353263842
  0.0007475874620362  0.4999468828985766  0.2661596403650514
  0.0007686532957428  0.4998978032085248  0.7338573167170880
  0.7546682439615829 -0.0002747383254978 -0.0000154757156344
  0.5018124559031792  0.2324676594087953  0.5000094603685576
  0.5024872576374284  0.7645615675121190 -0.0000015070651559
  0.5016305920826361  0.7684637529433466  0.5000516730613479
  0.9988042665831383  0.9998489428977223  0.2493228082002211
  0.4987790196399237 -0.0000045899332879  0.7478211093370780
  0.2507223917473420  0.5000064221690116  0.5000110620483506
  0.7523589768891897  0.4998115645703525  0.0000114887096818
  0.7516281886334135  0.4998260876982790  0.5000345503830161
  0.0092994364067653  0.7529379064800799 -0.0000503830949785
  0.9987650425102361 -0.0000798224550680  0.7506523249555460
  0.4987983175011771  0.9999252460979385  0.2522330593252085
  0.5024023933923848  0.4997287434278556  0.2498131054810794
  0.5023774562199801  0.4996731958829826  0.7502144542153044
  0.2435011224136445 -0.0001599893332438 -0.0000670225215738
  0.2512232933090480  0.4998251804223771  0.0000502707213692
  0.7575990720674789 -0.0000202319804388  0.4998954849609818
  0.0093273478719854  0.2469115379002592 -0.0000132041877581
  0.0029515680232582  0.2503127769020941  0.4999455085484621
  0.0027541142706985  0.7496806032273418  0.5000419383185875
 
  0.00000000E+00  0.00000000E+00  0.00000000E+00
  0.00000000E+00  0.00000000E+00  0.00000000E+00
  0.00000000E+00  0.00000000E+00  0.00000000E+00
  0.00000000E+00  0.00000000E+00  0.00000000E+00
  0.00000000E+00  0.00000000E+00  0.00000000E+00
  0.00000000E+00  0.00000000E+00  0.00000000E+00
  0.00000000E+00  0.00000000E+00  0.00000000E+00
  0.00000000E+00  0.00000000E+00  0.00000000E+00
  0.00000000E+00  0.00000000E+00  0.00000000E+00
  0.00000000E+00  0.00000000E+00  0.00000000E+00
  0.00000000E+00  0.00000000E+00  0.00000000E+00
  0.00000000E+00  0.00000000E+00  0.00000000E+00
  0.00000000E+00  0.00000000E+00  0.00000000E+00
  0.00000000E+00  0.00000000E+00  0.00000000E+00
  0.00000000E+00  0.00000000E+00  0.00000000E+00
  0.00000000E+00  0.00000000E+00  0.00000000E+00
  0.00000000E+00  0.00000000E+00  0.00000000E+00
  0.00000000E+00  0.00000000E+00  0.00000000E+00
  0.00000000E+00  0.00000000E+00  0.00000000E+00
  0.00000000E+00  0.00000000E+00  0.00000000E+00
  0.00000000E+00  0.00000000E+00  0.00000000E+00
  0.00000000E+00  0.00000000E+00  0.00000000E+00
  0.00000000E+00  0.00000000E+00  0.00000000E+00
  0.00000000E+00  0.00000000E+00  0.00000000E+00
  0.00000000E+00  0.00000000E+00  0.00000000E+00
  0.00000000E+00  0.00000000E+00  0.00000000E+00
  0.00000000E+00  0.00000000E+00  0.00000000E+00
  0.00000000E+00  0.00000000E+00  0.00000000E+00
  0.00000000E+00  0.00000000E+00  0.00000000E+00
  0.00000000E+00  0.00000000E+00  0.00000000E+00
  0.00000000E+00  0.00000000E+00  0.00000000E+00
  0.00000000E+00  0.00000000E+00  0.00000000E+00
