V4 O4 F8                                
   1.00000000000000     
     5.0987781804209558   -0.0021501358119722   -0.0007105942385749
     0.0129604481626935    5.2904027165661640   -0.0036133974621154
     0.0123676974153045   -0.0490761501585006    7.3645479375159697
   V    O    F 
     4     4     8
Direct
  0.4834395480979694  0.9979987277282589  0.0298661912477058
  0.9774503613266390  0.5261082818044542  0.0004291915478731
  0.5182648218739416  0.0009056600983257  0.5295970164415920
  0.0355591136058138  0.5178892244242661  0.5006162482759891
  0.7928442392887405  0.7808432284946321  0.0375357488275370
  0.2911485552493218  0.7047322768866522  0.5395311235297129
  0.5842855461320937  0.0129572924535708  0.7475328340180099
  0.4163666943389330  0.9820228898876167  0.2474681944273556
  0.6952645893216811  0.2950762773135764  0.0451510388071128
  0.2952481350323524  0.7026523314471618  0.9431947935588809
  0.1920805630452449  0.2114071217258058  0.9527380316225376
  0.7153213437982870  0.2972876342157775  0.4530100857629691
  0.8018623798634934  0.7923511883738996  0.4416992644465765
  0.1998357599330589  0.1988101387892414  0.5428356893433701
  0.1017887409446203  0.4733099760546153  0.2442922614594067
  0.8992396081478233  0.5056477503021384  0.7445022866833710
 
  0.00000000E+00  0.00000000E+00  0.00000000E+00
  0.00000000E+00  0.00000000E+00  0.00000000E+00
  0.00000000E+00  0.00000000E+00  0.00000000E+00
  0.00000000E+00  0.00000000E+00  0.00000000E+00
  0.00000000E+00  0.00000000E+00  0.00000000E+00
  0.00000000E+00  0.00000000E+00  0.00000000E+00
  0.00000000E+00  0.00000000E+00  0.00000000E+00
  0.00000000E+00  0.00000000E+00  0.00000000E+00
  0.00000000E+00  0.00000000E+00  0.00000000E+00
  0.00000000E+00  0.00000000E+00  0.00000000E+00
  0.00000000E+00  0.00000000E+00  0.00000000E+00
  0.00000000E+00  0.00000000E+00  0.00000000E+00
  0.00000000E+00  0.00000000E+00  0.00000000E+00
  0.00000000E+00  0.00000000E+00  0.00000000E+00
  0.00000000E+00  0.00000000E+00  0.00000000E+00
  0.00000000E+00  0.00000000E+00  0.00000000E+00
