Sodium vanadate *                       
   1.00000000000000     
     5.7959917941004750    0.0800981010171658    0.0003365414343256
    -2.8468926904327452    4.9722894234002952   -0.0016199003578965
    -0.0028657421621588    0.0028308307332208   13.0642931212398885
   V    O    Na
    12    22     2
Direct
  0.5000896844589670  0.0001150334118231 -0.0000476657905211
  0.0001287676214728  0.4999054903762740 -0.0000173135376898
  0.4999096661159927  0.5001980279799828 -0.0000780045548618
  0.5001325600274804  0.0002311805400866  0.4999971638929458
  0.0001217741596711  0.4999416738103766  0.4999928984167268
  0.4999620021406125  0.5002181556806010  0.5000151565196664
  0.0029852943578158  0.0023411237765186  0.1462070111615897
  0.9970998214442468  0.9974334764222608  0.8537870963328069
  0.9973928645103600  0.9976186909571081  0.6463382104435902
  0.0027226303619891  0.0022741407144478  0.3535798283840487
  0.3384996010803732  0.6665574678960595  0.7501257363509892
  0.6617959695900697  0.3332099725705872  0.2498323706246048
  0.1806696844331258  0.3456898491474860  0.0796503370195873
  0.8192885436273981  0.6541774616888050  0.9203069490760561
  0.6510668893630730  0.8276206762735809  0.0779001231163812
  0.3493958050886153  0.1729060420474068  0.9218764475625633
  0.1750441208729214  0.8312699408153543  0.0776465373982663
  0.8248289149343636  0.1690520490538588  0.9220171651407668
  0.8192914805133239  0.6541132934206040  0.5796199904293030
  0.1807787152266818  0.3462976233227060  0.4200344205218988
  0.3495067697428549  0.1730828978307992  0.5780836317753817
  0.6505191446109365  0.8273402312350100  0.4217739384539889
  0.8247115072552516  0.1691334922833369  0.5779054101653204
  0.1752851198468789  0.8310884477568005  0.4221048606936738
  0.8548185546260371  0.1538041089679931  0.2500312489544679
  0.1455127689785557  0.8458284336870230  0.7498750467628199
  0.8563201304555621  0.6948867059483725  0.2500690246301976
  0.1442161966060001  0.3046783002464061  0.7498651767674160
  0.3188370953217511  0.1485727025880818  0.2500777847881974
  0.6813625026398968  0.8491945932555598  0.7498189380577074
  0.3413926862440203  0.6716051091917461  0.5881324295238232
  0.6584783864559979  0.3284254261705280  0.4117596981211262
  0.6585707014277019  0.3284180070471124  0.0882861366392441
  0.3412467035546946  0.6715034967087803  0.9116322452932734
  0.3230490925366723  0.6754666885291044  0.2542756731012240
  0.6749676697686413  0.3257999286474267  0.7475242977634119
 
  0.00000000E+00  0.00000000E+00  0.00000000E+00
  0.00000000E+00  0.00000000E+00  0.00000000E+00
  0.00000000E+00  0.00000000E+00  0.00000000E+00
  0.00000000E+00  0.00000000E+00  0.00000000E+00
  0.00000000E+00  0.00000000E+00  0.00000000E+00
  0.00000000E+00  0.00000000E+00  0.00000000E+00
  0.00000000E+00  0.00000000E+00  0.00000000E+00
  0.00000000E+00  0.00000000E+00  0.00000000E+00
  0.00000000E+00  0.00000000E+00  0.00000000E+00
  0.00000000E+00  0.00000000E+00  0.00000000E+00
  0.00000000E+00  0.00000000E+00  0.00000000E+00
  0.00000000E+00  0.00000000E+00  0.00000000E+00
  0.00000000E+00  0.00000000E+00  0.00000000E+00
  0.00000000E+00  0.00000000E+00  0.00000000E+00
  0.00000000E+00  0.00000000E+00  0.00000000E+00
  0.00000000E+00  0.00000000E+00  0.00000000E+00
  0.00000000E+00  0.00000000E+00  0.00000000E+00
  0.00000000E+00  0.00000000E+00  0.00000000E+00
  0.00000000E+00  0.00000000E+00  0.00000000E+00
  0.00000000E+00  0.00000000E+00  0.00000000E+00
  0.00000000E+00  0.00000000E+00  0.00000000E+00
  0.00000000E+00  0.00000000E+00  0.00000000E+00
  0.00000000E+00  0.00000000E+00  0.00000000E+00
  0.00000000E+00  0.00000000E+00  0.00000000E+00
  0.00000000E+00  0.00000000E+00  0.00000000E+00
  0.00000000E+00  0.00000000E+00  0.00000000E+00
  0.00000000E+00  0.00000000E+00  0.00000000E+00
  0.00000000E+00  0.00000000E+00  0.00000000E+00
  0.00000000E+00  0.00000000E+00  0.00000000E+00
  0.00000000E+00  0.00000000E+00  0.00000000E+00
  0.00000000E+00  0.00000000E+00  0.00000000E+00
  0.00000000E+00  0.00000000E+00  0.00000000E+00
  0.00000000E+00  0.00000000E+00  0.00000000E+00
  0.00000000E+00  0.00000000E+00  0.00000000E+00
  0.00000000E+00  0.00000000E+00  0.00000000E+00
  0.00000000E+00  0.00000000E+00  0.00000000E+00
