Na1 Ti16 O16 F32                        
   1.00000000000000     
    11.4568610000000000    0.1416040000000000   -0.0000460000000000
     0.1385750000000000   11.4984889999999993    0.0000980000000000
    -0.0000330000000000    0.0000720000000000    8.0151730000000008
   Na   Ti   O    F 
     1    16    16    32
Direct
  0.4720193635484184  0.4569859162357948  0.2758924060248571
  0.2241544762387107  0.0117681756555495  0.0240131594830046
  0.2209568688791223  0.5276988836567488  0.0257575385651004
  0.7490874746034918  0.0159897794004276  0.0530471595636354
  0.7256792707883939  0.5214556015331047  0.0223817101647555
  0.0056892041434679  0.2526074882482919  0.9836372484076457
  0.9904970782487761  0.7526663983831213  0.9811085459983165
  0.5044458415592444  0.2246450809781990  0.9856494852352187
  0.5034123081242868  0.7554592386978121  0.9827978267517345
  0.2494105512675669  0.9898631928616697  0.4817988511197266
  0.2264245462399374  0.5137317197430801  0.4861493005742196
  0.7520960171066235  0.0170303051728928  0.5159868967873583
  0.7499996948034526  0.5040325349792294  0.4822425500490122
  0.0296894823703706  0.2274979217314578  0.5261162728205770
  0.0002152458551711  0.7456460866535046  0.5161000327056933
  0.5047110173507482  0.2265957575917724  0.5279965660026854
  0.5294899407482234  0.7459425440342904  0.5264668914482686
  0.1242669582407329  0.1272987294970373  0.0253640321087203
  0.1116436184386940  0.6346249296630422  0.0216350743617550
  0.6312282125699730  0.1220468717687890  0.0218648361134228
  0.6105612010753013  0.6249416864326247  0.0275683263700969
  0.1362184476485397  0.1176210630305551  0.5253490586980254
  0.1160204374053665  0.6248378335693415  0.5118359294878873
  0.6347158515753965  0.1229775550227447  0.5216883217674873
  0.6289632462136465  0.6302834679048431  0.5235090333032266
  0.5051005487093961  0.2368285449181130  0.7654916279193664
  0.4988348901142888  0.7507144012287086  0.7665810573913261
  0.0059458352591666  0.2489417570860770  0.7675402755548701
  0.9954194853759214  0.7525780088567814  0.7652384698649509
  0.2419386840039103  0.4994932775918128  0.2641122007073421
  0.2494880881575877  0.9940705285901885  0.2649209620047381
  0.7490892933174566  0.5092260061351691  0.2644010574668476
  0.7549488504659696  0.0042933817057636  0.2712432272707908
  0.3791373959938432  0.1178056176664836  1.0169373495039564
  0.3627089190479602  0.6192381402498616  0.0243917405223436
  0.8784958385048990  0.1236096049730648  1.0192977728577628
  0.8661862889256201  0.6385799836518197  1.0165972955589975
  0.1216973837429173  0.3765019234178451  0.0193998585786971
  0.1131191428792593  0.8816920163088529  1.0163037563813415
  0.6359943744301535  0.3839206150751720  0.0243440699556073
  0.6205291928867773  0.8709834604394119  1.0178396628380952
  0.4087271755896114  0.3554858565257223  0.0414429957434227
  0.3786408482505497  0.8582241984823510  0.0294371051912822
  0.8876024155872507  0.3621337688254107  0.0273330307272161
  0.8714193636814170  0.8776095755946922  1.0155941527824845
  0.1329478587565589  0.3691687836432935  0.5258396985959398
  0.1289738205974931  0.8713779054118361  0.5135847713257159
  0.6298001111125249  0.3894733931374075  0.5076547090579497
  0.6309160858979962  0.8747272964103451  0.5181066634233135
  0.3840013239710801  0.1122270521194652  0.5141621937957787
  0.3646252470738313  0.5982497733313370  0.5184856525780670
  0.8853999973467702  0.1247327333602662  0.5230485060547594
  0.8725966101686056  0.6325451831125382  0.5141638240706339
  0.3912677707928457  0.3562412236199967  0.5072634479818737
  0.3711186940714303  0.8771797618889039  0.5259907136483835
  0.8680671845709211  0.3950209604567315  0.5255643820154522
  0.8821997219666129  0.8762350947425457  0.5173005025307549
  0.0051244919075598  0.2504477803218800  0.2980134619857416
  0.9944452148128750  0.7563875729469695  0.2800757081306455
  0.5154031407813516  0.2441523347992064  0.2872950285794587
  0.4904373157338002  0.7429130508098080  0.2989672884711558
  0.2526107804784521  0.9938116492553697  0.7944182794616311
  0.2419356586371861  0.4965053264410644  0.7951810850159021
  0.7577602953325610 -0.0028504078426591  0.7530732733233378
  0.7534258067496279  0.5085163778167512  0.7926782080973388
 
             NaN             NaN             NaN
             NaN             NaN             NaN
             NaN             NaN             NaN
             NaN             NaN             NaN
             NaN             NaN             NaN
             NaN             NaN             NaN
             NaN             NaN             NaN
             NaN             NaN             NaN
             NaN             NaN             NaN
             NaN             NaN             NaN
             NaN             NaN             NaN
             NaN             NaN             NaN
             NaN             NaN             NaN
             NaN             NaN             NaN
             NaN             NaN             NaN
             NaN             NaN             NaN
             NaN             NaN             NaN
             NaN             NaN             NaN
             NaN             NaN             NaN
             NaN             NaN             NaN
             NaN             NaN             NaN
             NaN             NaN             NaN
             NaN             NaN             NaN
             NaN             NaN             NaN
             NaN             NaN             NaN
             NaN             NaN             NaN
             NaN             NaN             NaN
             NaN             NaN             NaN
             NaN             NaN             NaN
             NaN             NaN             NaN
             NaN             NaN             NaN
             NaN             NaN             NaN
             NaN             NaN             NaN
             NaN             NaN             NaN
             NaN             NaN             NaN
             NaN             NaN             NaN
             NaN             NaN             NaN
             NaN             NaN             NaN
             NaN             NaN             NaN
             NaN             NaN             NaN
             NaN             NaN             NaN
             NaN             NaN             NaN
             NaN             NaN             NaN
             NaN             NaN             NaN
             NaN             NaN             NaN
             NaN             NaN             NaN
             NaN             NaN             NaN
             NaN             NaN             NaN
             NaN             NaN             NaN
             NaN             NaN             NaN
             NaN             NaN             NaN
             NaN             NaN             NaN
             NaN             NaN             NaN
             NaN             NaN             NaN
             NaN             NaN             NaN
             NaN             NaN             NaN
             NaN             NaN             NaN
             NaN             NaN             NaN
             NaN             NaN             NaN
             NaN             NaN             NaN
             NaN             NaN             NaN
             NaN             NaN             NaN
             NaN             NaN             NaN
             NaN             NaN             NaN
             NaN             NaN             NaN
