Na1 Ti16 O16 F32
1.0
11.456861 0.141604 -0.000046
0.138575 11.498489 0.000098
-0.000033 0.000072 8.015173
Na Ti O F
1 16 16 32
direct
0.474705 0.456957 0.330620 Na
0.220489 0.016482 0.005714 Ti
0.219580 0.529226 0.006702 Ti
0.747881 0.017789 0.028400 Ti
0.729525 0.522546 0.004735 Ti
0.002220 0.256287 0.964826 Ti
0.991360 0.755958 0.962025 Ti
0.500356 0.221409 0.965502 Ti
0.505564 0.754859 0.963749 Ti
0.246349 0.993019 0.462544 Ti
0.227119 0.515175 0.465260 Ti
0.754749 0.014632 0.491180 Ti
0.754683 0.503652 0.463435 Ti
0.026826 0.231424 0.506944 Ti
1.002645 0.746717 0.498143 Ti
0.506724 0.222173 0.507068 Ti
0.532550 0.743185 0.508535 Ti
0.121187 0.132445 0.007004 O
0.112424 0.638451 0.003778 O
0.628712 0.121477 0.002085 O
0.613911 0.626246 0.009805 O
0.134019 0.121977 0.507015 O
0.117119 0.629254 0.492884 O
0.635365 0.122103 0.502169 O
0.632375 0.628236 0.505814 O
0.501089 0.232806 0.745268 O
0.501208 0.750029 0.746881 O
0.004218 0.253449 0.748754 O
0.995637 0.755350 0.746053 O
0.241860 0.502007 0.244848 O
0.245386 0.996061 0.245317 O
0.754350 0.509923 0.246386 O
0.756768 0.006010 0.251022 O
0.374074 0.114133 0.997967 F
0.365512 0.617480 0.002605 F
0.876538 0.129727 -0.000330 F
0.866989 0.640212 0.997168 F
0.120236 0.381961 0.001018 F
0.109647 0.884498 0.998862 F
0.635133 0.386597 0.008334 F
0.621711 0.872633 0.998325 F
0.406459 0.353279 0.015616 F
0.380700 0.854893 0.011989 F
0.885528 0.368989 0.007686 F
0.871287 0.879139 0.996858 F
0.134317 0.373220 0.505433 F
0.125211 0.874470 0.495097 F
0.635065 0.386531 0.488310 F
0.633968 0.874757 0.499654 F
0.381243 0.113224 0.493330 F
0.366278 0.602397 0.503808 F
0.885342 0.126597 0.502848 F
0.874237 0.632308 0.498055 F
0.394441 0.362886 0.491877 F
0.366231 0.882008 0.508224 F
0.873511 0.393987 0.506816 F
0.878611 0.879902 0.500100 F
0.004190 0.254880 0.277904 F
0.991775 0.759290 0.263218 F
0.511055 0.239346 0.266270 F
0.491842 0.743874 0.283667 F
0.247092 0.994602 0.776383 F
0.241173 0.500327 0.775858 F
0.759032 0.000965 0.741237 F
0.753854 0.507988 0.774185 F
