Na4 Ti4 O8 F4                           
   1.00000000000000     
     5.3589131907256817    0.1034026705951559   -0.0001681118262542
     0.1041821096248183    5.4567578484311463    0.0002584799163590
     0.0001982379955520   -0.0003180552318421    7.6543721920906949
   Na   Ti   O    F 
     4     4     8     4
Direct
  0.9902764048420932  0.0188417603814114  0.2452974226759091
  0.0097182023974606  0.9811769588206785  0.7452966893157831
  0.4805070676032744  0.4527051618592686  0.7460404749772128
  0.5194820717142764  0.5472977229554780  0.2460259028354666
  0.4895133037592431  0.9830958818249882  0.9904836184265917
  0.0197142903604501  0.5127380497617039  0.9991683151383378
  0.5104531547410784  0.0169363626827997  0.4904890109760858
  0.9802405444515089  0.4873070095634759  0.4991622364721667
  0.2813737796533992  0.7074525095809291  0.9515034548007619
  0.2043371505749725  0.2161946235320867  0.9691643557059456
  0.7839506119647184  0.7684422990913988  0.0409818638193367
  0.7185828406870873  0.2925916370858160  0.4515168783905927
  0.7957115553332671  0.7838259664569516  0.4691850863908978
  0.2160452844279457  0.2314967534974610  0.5409730767532950
  0.5725047979100255  0.0221486293089815  0.7537088001422351
  0.4275409449860036  0.9778306931145082  0.2536949620637767
  0.7178361993396308  0.2833350757190577  0.0505614755622162
  0.2822126093607930  0.7166149085236062  0.5505530167263588
  0.1008529420649031  0.4948092635718558  0.2530961503335777
  0.8991462438278610  0.5051587326675362  0.7530972084934522
 
  0.00000000E+00  0.00000000E+00  0.00000000E+00
  0.00000000E+00  0.00000000E+00  0.00000000E+00
  0.00000000E+00  0.00000000E+00  0.00000000E+00
  0.00000000E+00  0.00000000E+00  0.00000000E+00
  0.00000000E+00  0.00000000E+00  0.00000000E+00
  0.00000000E+00  0.00000000E+00  0.00000000E+00
  0.00000000E+00  0.00000000E+00  0.00000000E+00
  0.00000000E+00  0.00000000E+00  0.00000000E+00
  0.00000000E+00  0.00000000E+00  0.00000000E+00
  0.00000000E+00  0.00000000E+00  0.00000000E+00
  0.00000000E+00  0.00000000E+00  0.00000000E+00
  0.00000000E+00  0.00000000E+00  0.00000000E+00
  0.00000000E+00  0.00000000E+00  0.00000000E+00
  0.00000000E+00  0.00000000E+00  0.00000000E+00
  0.00000000E+00  0.00000000E+00  0.00000000E+00
  0.00000000E+00  0.00000000E+00  0.00000000E+00
  0.00000000E+00  0.00000000E+00  0.00000000E+00
  0.00000000E+00  0.00000000E+00  0.00000000E+00
  0.00000000E+00  0.00000000E+00  0.00000000E+00
  0.00000000E+00  0.00000000E+00  0.00000000E+00
