Na8 Fe8 O16 F8                          
   1.00000000000000     
     7.8029442364180017   -0.0000029720381770   -0.0000218003346948
    -0.0000028865835040    7.5133451481831397    0.0000010285768148
    -0.0000211201952427    0.0000010648460887    7.5134187036733824
   Na   Fe   O    F 
     8     8    16     8
Direct
  0.2443592229639683  0.2567873229864795  0.2426981864461261
  0.2443622804243687  0.2567971913644474  0.7573186533876420
  0.2443593867771104  0.7432129254403567  0.2426976924077137
  0.2443621143960305  0.7432030045223442  0.7573181026626565
  0.7443508953916296  0.2428516059312560  0.2566922108576044
  0.7443504524490518  0.2428531050473275  0.7433080705179937
  0.7443503976641215  0.7571534668473524  0.2566961884674375
  0.7443509946556510  0.7571425899983035  0.7433118586646724
  0.9956806188673886 -0.0000004803601050  0.0000016112686000
  0.0128942140175368  0.0000000222664944  0.5000005227442194
  0.9817520315345020  0.4999991599251292  0.0000005337474704
  0.9958244494494497  0.5000000971336727  0.5000005352352619
  0.4956936008495615  0.0000001293792001  0.0000018678753675
  0.4817531658674493  0.0000000787333000  0.4999991946170834
  0.5128985254833301  0.5000000445815702  0.9999944103599524
  0.4958183963467543  0.5000000647574477  0.5000034877846541
  0.2585775879669513 -0.0000001723438424  0.9999995268266820
  0.2529115712738461  0.0000001143071982  0.5000011004261361
  0.7585798274141223  0.0000001787236829  0.9999993161570783
  0.7529244455549865  0.4999999626933292  0.9999989517800278
  0.9956498526127885  0.2490351270636938  0.4999998575708048
  0.9956498619219668  0.7509651120068153  0.5000003744111328
  0.4996684086723526  0.2568238855935270  0.0000053440485749
  0.4973074236568084  0.2535592735048667  0.4999893462504513
  0.4996684326571805  0.7431763359710709  0.0000055265158112
  0.4973074187821856  0.7464409674014245  0.4999889110108385
  0.9996758849435925  0.9999998370651915  0.2568361973114517
  0.9996747243855512  0.0000003925885135  0.7431639854113788
  0.9972940508883035  0.5000001167553785  0.2535417042162772
  0.9972942287323049  0.4999998070797467  0.7464586117663952
  0.4956363034398050  0.4999999241073084  0.2490522634268719
  0.4956437902907601  0.5000003413990691  0.7509385070580027
  0.2429389685628508  0.5000002150781263  0.9999989255917302
  0.2458480059987882  0.5000001158886583  0.4999989143257814
  0.7429487006515675  0.0000001359179311  0.4999863702049092
  0.7458639067613204  0.5000001310490538  0.4999978873277592
  0.0254480895077827  0.2516594862425239 -0.0000045043400459
  0.0254428912918589  0.7483380749826380  0.0000000222360740
  0.5254435043626979  0.0000005312015884  0.2516669036108944
  0.5254413725317240  0.9999997771679231  0.7483328298105337
 
  0.00000000E+00  0.00000000E+00  0.00000000E+00
  0.00000000E+00  0.00000000E+00  0.00000000E+00
  0.00000000E+00  0.00000000E+00  0.00000000E+00
  0.00000000E+00  0.00000000E+00  0.00000000E+00
  0.00000000E+00  0.00000000E+00  0.00000000E+00
  0.00000000E+00  0.00000000E+00  0.00000000E+00
  0.00000000E+00  0.00000000E+00  0.00000000E+00
  0.00000000E+00  0.00000000E+00  0.00000000E+00
  0.00000000E+00  0.00000000E+00  0.00000000E+00
  0.00000000E+00  0.00000000E+00  0.00000000E+00
  0.00000000E+00  0.00000000E+00  0.00000000E+00
  0.00000000E+00  0.00000000E+00  0.00000000E+00
  0.00000000E+00  0.00000000E+00  0.00000000E+00
  0.00000000E+00  0.00000000E+00  0.00000000E+00
  0.00000000E+00  0.00000000E+00  0.00000000E+00
  0.00000000E+00  0.00000000E+00  0.00000000E+00
  0.00000000E+00  0.00000000E+00  0.00000000E+00
  0.00000000E+00  0.00000000E+00  0.00000000E+00
  0.00000000E+00  0.00000000E+00  0.00000000E+00
  0.00000000E+00  0.00000000E+00  0.00000000E+00
  0.00000000E+00  0.00000000E+00  0.00000000E+00
  0.00000000E+00  0.00000000E+00  0.00000000E+00
  0.00000000E+00  0.00000000E+00  0.00000000E+00
  0.00000000E+00  0.00000000E+00  0.00000000E+00
  0.00000000E+00  0.00000000E+00  0.00000000E+00
  0.00000000E+00  0.00000000E+00  0.00000000E+00
  0.00000000E+00  0.00000000E+00  0.00000000E+00
  0.00000000E+00  0.00000000E+00  0.00000000E+00
  0.00000000E+00  0.00000000E+00  0.00000000E+00
  0.00000000E+00  0.00000000E+00  0.00000000E+00
  0.00000000E+00  0.00000000E+00  0.00000000E+00
  0.00000000E+00  0.00000000E+00  0.00000000E+00
  0.00000000E+00  0.00000000E+00  0.00000000E+00
  0.00000000E+00  0.00000000E+00  0.00000000E+00
  0.00000000E+00  0.00000000E+00  0.00000000E+00
  0.00000000E+00  0.00000000E+00  0.00000000E+00
  0.00000000E+00  0.00000000E+00  0.00000000E+00
  0.00000000E+00  0.00000000E+00  0.00000000E+00
  0.00000000E+00  0.00000000E+00  0.00000000E+00
  0.00000000E+00  0.00000000E+00  0.00000000E+00
