Ti4 O4 F8                               
   1.00000000000000     
     5.4957764842218939   -0.0000564370280246    0.0000025513114261
    -2.7479382651279707    4.9614540476753648   -0.0000000814578319
     0.0000042083273158    0.0000024278486197    9.4802264318872727
   Ti   O    F 
     4     4     8
Direct
  0.3663591404528357  0.6970905481843978  0.6068254464457282
  0.6692546923168899  0.3028897743973908  0.3932121387780875
  0.6692553599159645  0.3028900560613773  0.1067878977289263
  0.3663602238088801  0.6970911075213052  0.8931743515101274
  0.4954490767405929  0.0000245564357768  0.0000117823526018
  0.4954481832774257  0.0000239438656392  0.4999881419278825
  0.6234415532007845  0.8105986219239951  0.7499995714326528
  0.8128615402594375  0.1894012832349748  0.2499999695009109
  0.9987560232752467  0.5017437251581117  0.9947446270201379
  0.4970236257839147  0.4982503452191795  0.0052613280883886
  0.9987546667602314  0.5017425428940774  0.5052557562052158
  0.4970225993863086  0.4982496063428119  0.4947384075633023
  0.7924191972496974  0.6105860441161716  0.2499999049041903
  0.1818199600910899  0.3894171778526241  0.7500004391131025
  0.3646168984586573  0.1934611925720073  0.2499999601867143
  0.1711572590220363  0.8065394742201523  0.7500002772420310
 
  0.00000000E+00  0.00000000E+00  0.00000000E+00
  0.00000000E+00  0.00000000E+00  0.00000000E+00
  0.00000000E+00  0.00000000E+00  0.00000000E+00
  0.00000000E+00  0.00000000E+00  0.00000000E+00
  0.00000000E+00  0.00000000E+00  0.00000000E+00
  0.00000000E+00  0.00000000E+00  0.00000000E+00
  0.00000000E+00  0.00000000E+00  0.00000000E+00
  0.00000000E+00  0.00000000E+00  0.00000000E+00
  0.00000000E+00  0.00000000E+00  0.00000000E+00
  0.00000000E+00  0.00000000E+00  0.00000000E+00
  0.00000000E+00  0.00000000E+00  0.00000000E+00
  0.00000000E+00  0.00000000E+00  0.00000000E+00
  0.00000000E+00  0.00000000E+00  0.00000000E+00
  0.00000000E+00  0.00000000E+00  0.00000000E+00
  0.00000000E+00  0.00000000E+00  0.00000000E+00
  0.00000000E+00  0.00000000E+00  0.00000000E+00
