Na4 Ni4 O8 F4                           
   1.00000000000000     
     5.5190367989148719    0.6803978985174458    0.0021517847007081
     0.6333797326200883    5.5251986532912127    0.0021817094875170
    -0.0025709801042520   -0.0021824372967299    6.8740901600119484
   Na   Ni   O    F 
     4     4     8     4
Direct
  0.9993432793869628  0.0024361199555846  0.2453104407933050
  0.0007973365977239  0.9974966047956655  0.7454083740655356
  0.4992830521526880  0.5000826803556979  0.7502729574717022
  0.4994593348649662  0.5013008654143434  0.2509636832481490
  0.5003812002051916 -0.0000787837317351  0.0016488207987972
 -0.0003135538781690  0.5002258178516870  0.0016649088550342
  0.4997259076967888  0.0001537783939827  0.5016696338209462
  0.0002717128792703  0.4995549536537282  0.5016553252562003
  0.1412213096465219  0.3596616672338546  0.2508705991669417
  0.8589614047394346  0.6402020734425118  0.7508756645755390
  0.6409254135788333  0.8593391215429731  0.7509022857816302
  0.3592659441325822  0.1404822264383861  0.2509209442924273
  0.2480944240654353  0.2477995619116704  0.8601646906476230
  0.7489340385578470  0.7486212511036340  0.1414962044304508
  0.7522972977855572  0.7518359212561091  0.3602489152930795
  0.2515034022026941  0.2510222123430306  0.6414549967419172
  0.7489245153107236  0.2493487623903423 -0.0012762239066348
  0.2493816348153474  0.7488971421722621  0.9985152178133527
  0.2508763191924857  0.7506432476260290  0.4986764773040079
  0.7506660260671146  0.2509747758502420  0.4985560835499823
 
  0.00000000E+00  0.00000000E+00  0.00000000E+00
  0.00000000E+00  0.00000000E+00  0.00000000E+00
  0.00000000E+00  0.00000000E+00  0.00000000E+00
  0.00000000E+00  0.00000000E+00  0.00000000E+00
  0.00000000E+00  0.00000000E+00  0.00000000E+00
  0.00000000E+00  0.00000000E+00  0.00000000E+00
  0.00000000E+00  0.00000000E+00  0.00000000E+00
  0.00000000E+00  0.00000000E+00  0.00000000E+00
  0.00000000E+00  0.00000000E+00  0.00000000E+00
  0.00000000E+00  0.00000000E+00  0.00000000E+00
  0.00000000E+00  0.00000000E+00  0.00000000E+00
  0.00000000E+00  0.00000000E+00  0.00000000E+00
  0.00000000E+00  0.00000000E+00  0.00000000E+00
  0.00000000E+00  0.00000000E+00  0.00000000E+00
  0.00000000E+00  0.00000000E+00  0.00000000E+00
  0.00000000E+00  0.00000000E+00  0.00000000E+00
  0.00000000E+00  0.00000000E+00  0.00000000E+00
  0.00000000E+00  0.00000000E+00  0.00000000E+00
  0.00000000E+00  0.00000000E+00  0.00000000E+00
  0.00000000E+00  0.00000000E+00  0.00000000E+00
