Mn4 O4 F8                               
   1.00000000000000     
     4.7848709797738964    0.0019050095147384    0.1863741817518842
    -2.3956380155663579    4.2062774673173191   -0.0881722308920289
    -0.0663747891476124   -0.0314562910905103    9.1627954652633203
   Mn   O    F 
     4     4     8
Direct
  0.3269268454155184  0.6353155768673272  0.6102522200763245
  0.6480241528142581  0.3364765923898974  0.3904130406502126
  0.6938635658276410  0.3657259259023230  0.1103582699202640
  0.3120278860585450  0.6626860497386373  0.8903985925462714
  0.0078146756554610  0.6689501862504683  0.0035541380385076
  0.3370195952872026  0.3312069531470330  0.5028834848664194
  0.6928281730858711  0.6207530035190985  0.2557455210404733
  0.0714267134341698  0.3787915636792020  0.7551534271364808
  0.6497454711108267  0.0178420199002570  0.9934435452778246
  0.3662955940783352  0.3757091567190831  0.0034578207665931
  0.6309979172450074  0.9826115363980247  0.4936132008591548
  0.9889261034836373  0.6244150006922731  0.5040869278874288
  0.3708145619796965  0.0543926917247520  0.2518843597571360
  0.6434959855905957  0.6996485446884675  0.7409333158105056
  0.9445003360996760  0.3004396709290330  0.2410839024375407
  0.3152924228335574  0.9450355274541226  0.7527382329288558
 
  0.00000000E+00  0.00000000E+00  0.00000000E+00
  0.00000000E+00  0.00000000E+00  0.00000000E+00
  0.00000000E+00  0.00000000E+00  0.00000000E+00
  0.00000000E+00  0.00000000E+00  0.00000000E+00
  0.00000000E+00  0.00000000E+00  0.00000000E+00
  0.00000000E+00  0.00000000E+00  0.00000000E+00
  0.00000000E+00  0.00000000E+00  0.00000000E+00
  0.00000000E+00  0.00000000E+00  0.00000000E+00
  0.00000000E+00  0.00000000E+00  0.00000000E+00
  0.00000000E+00  0.00000000E+00  0.00000000E+00
  0.00000000E+00  0.00000000E+00  0.00000000E+00
  0.00000000E+00  0.00000000E+00  0.00000000E+00
  0.00000000E+00  0.00000000E+00  0.00000000E+00
  0.00000000E+00  0.00000000E+00  0.00000000E+00
  0.00000000E+00  0.00000000E+00  0.00000000E+00
  0.00000000E+00  0.00000000E+00  0.00000000E+00
