Octasodium diferrate(III)               
   1.00000000000000     
     8.6301804932898207    0.0000001292545375    0.0046859989600076
     0.0000001378809128   10.9130261365452501   -0.0000005627554617
    -3.0388157981302677   -0.0000005286569973    9.5153291528276398
   Na   Fe   O 
    32     8    28
Direct
  0.8952905399265036  0.2403962962589358  0.9684547122713316
  0.1047083202428738  0.7596043536934279  0.0315450652612862
  0.1047082695222766  0.7403955535946914  0.5315449637328861
  0.8952905772510663  0.2596038003667858  0.4684548182885631
  0.7439983966262564  0.4471749414199329  0.7904154727037884
  0.2560001966427319  0.5528234037948707  0.2095851762511426
  0.2560002978003266  0.9471765959578030  0.7095851210646732
  0.7439982984504139  0.0528250703021535  0.2904155254385580
  0.9152001131698223  0.9615352331471203  0.8562603991577972
  0.0847996111230826  0.0384650260543013  0.1437394226019139
  0.0847996218917814  0.4615349729596573  0.6437394356750565
  0.9152000947903131  0.5384647788426621  0.3562603836014265
  0.4344533813727189  0.4723432614064101  0.8548772636481475
  0.5655473591395245  0.5276633139263870  0.1451298058264618
  0.5655473807205074  0.9723367321980039  0.6451297132080047
  0.4344533589395353  0.0276567179020266  0.3548773346646444
  0.7131092220510948  0.7501256815022220  0.9291180564248208
  0.2868872944908022  0.2498715622080460  0.0708785208645258
  0.2868874981329355  0.2501287991757525  0.5708781601850333
  0.7131088650487503  0.7498738528049977  0.4291185109769952
  0.5000878347587177  0.2312467667651077  0.8725456773143482
  0.4999096279077263  0.7687537793393010  0.1274542671226166
  0.4999094637121275  0.7312462638851934  0.6274542637094820
  0.5000879710413944  0.2687532030917323  0.3725456826999742
  0.6612934659777590  0.0047171790440120  0.9848774386550881
  0.3387037755076278  0.9952812370004656  0.0151224431595165
  0.3387038051152583  0.5047187646821107  0.5151224850654084
  0.6612934448741256  0.4952828161953802  0.4848773959672098
  0.1182034933867828  0.4751986787349299  0.9214919845760000
  0.8817993564284818  0.5248003263348994  0.0785059295488459
  0.8817993745079695  0.9751996937991797  0.5785059774748886
  0.1182034734974578  0.0248013036456845  0.4214919347724870
  0.0934202090419444  0.2037557571894550  0.7738502190396590
  0.9065805232182189  0.7962439898159013  0.2261497970204792
  0.9065805929654996  0.7037560372820453  0.7261498545702598
  0.0934201560569139  0.2962442297128616  0.2738501647952539
  0.6910503101343632  0.2167694159669352  0.6532964968522447
  0.3089389177488954  0.7832284231605232  0.3466988999707802
  0.3089389282818852  0.7167715993817887  0.8466989494296878
  0.6910503111804146  0.2832305701464949  0.1532964516031347
  0.1032264383467048  0.8038095098133897  0.7839091767483599
  0.8967762014669808  0.1961968021357026  0.2160935547336435
  0.8967762089198137  0.3038031946992553  0.7160935729653778
  0.1032264284705792  0.6961905058372134  0.2839091496026037
  0.4598334050024157  0.8494561135721409  0.8938037722024377
  0.5401643459905743  0.1505458714347442  0.1061937925409032
  0.5401643778360851  0.3494541508125409  0.6061937371468827
  0.4598333488868127  0.6505438635773798  0.3938038377004259
  0.6795006660533869  0.1184260672453734  0.8028156209638365
  0.3205083140292925  0.8815706136167885  0.1971876940437854
  0.3205082619607136  0.6184293879021594  0.6971876953446702
  0.6795007082301255  0.3815739362036280  0.3028156225979916
  0.2534966097400757  0.3251627250094774  0.8176194323672797
  0.7464984416228062  0.6748471812974283  0.1823818781647320
  0.7464983931532054  0.8251527564953135  0.6823819154737888
  0.2534966541153761  0.1748373384400630  0.3176194106569998
  0.1057528106554600  0.1107283030745393  0.9343396362477283
  0.8942469257418565  0.8892705057303528  0.0656638404109129
  0.8942469133376520  0.6107294627055609  0.5656638689521412
  0.1057527987413509  0.3892717371492645  0.4343396034818002
  0.3277586176408904  0.6152716222851179  0.0042485644695724
  0.6722507447461356  0.3847275652945313  0.9957496757606477
  0.6722507783708707  0.1152724182425223  0.4957497201014448
  0.3277585783731427  0.8847284051015943  0.5042485148222404
  0.8977815315977092  0.6117859114937089  0.8814698738640118
  0.1022231166350823  0.3882115616063297  0.1185263979179604
  0.1022232033171234  0.1117884576388701  0.6185263914602314
  0.8977814143408948  0.8882140658948042  0.3814698870631524
 
  0.00000000E+00  0.00000000E+00  0.00000000E+00
  0.00000000E+00  0.00000000E+00  0.00000000E+00
  0.00000000E+00  0.00000000E+00  0.00000000E+00
  0.00000000E+00  0.00000000E+00  0.00000000E+00
  0.00000000E+00  0.00000000E+00  0.00000000E+00
  0.00000000E+00  0.00000000E+00  0.00000000E+00
  0.00000000E+00  0.00000000E+00  0.00000000E+00
  0.00000000E+00  0.00000000E+00  0.00000000E+00
  0.00000000E+00  0.00000000E+00  0.00000000E+00
  0.00000000E+00  0.00000000E+00  0.00000000E+00
  0.00000000E+00  0.00000000E+00  0.00000000E+00
  0.00000000E+00  0.00000000E+00  0.00000000E+00
  0.00000000E+00  0.00000000E+00  0.00000000E+00
  0.00000000E+00  0.00000000E+00  0.00000000E+00
  0.00000000E+00  0.00000000E+00  0.00000000E+00
  0.00000000E+00  0.00000000E+00  0.00000000E+00
  0.00000000E+00  0.00000000E+00  0.00000000E+00
  0.00000000E+00  0.00000000E+00  0.00000000E+00
  0.00000000E+00  0.00000000E+00  0.00000000E+00
  0.00000000E+00  0.00000000E+00  0.00000000E+00
  0.00000000E+00  0.00000000E+00  0.00000000E+00
  0.00000000E+00  0.00000000E+00  0.00000000E+00
  0.00000000E+00  0.00000000E+00  0.00000000E+00
  0.00000000E+00  0.00000000E+00  0.00000000E+00
  0.00000000E+00  0.00000000E+00  0.00000000E+00
  0.00000000E+00  0.00000000E+00  0.00000000E+00
  0.00000000E+00  0.00000000E+00  0.00000000E+00
  0.00000000E+00  0.00000000E+00  0.00000000E+00
  0.00000000E+00  0.00000000E+00  0.00000000E+00
  0.00000000E+00  0.00000000E+00  0.00000000E+00
  0.00000000E+00  0.00000000E+00  0.00000000E+00
  0.00000000E+00  0.00000000E+00  0.00000000E+00
  0.00000000E+00  0.00000000E+00  0.00000000E+00
  0.00000000E+00  0.00000000E+00  0.00000000E+00
  0.00000000E+00  0.00000000E+00  0.00000000E+00
  0.00000000E+00  0.00000000E+00  0.00000000E+00
  0.00000000E+00  0.00000000E+00  0.00000000E+00
  0.00000000E+00  0.00000000E+00  0.00000000E+00
  0.00000000E+00  0.00000000E+00  0.00000000E+00
  0.00000000E+00  0.00000000E+00  0.00000000E+00
  0.00000000E+00  0.00000000E+00  0.00000000E+00
  0.00000000E+00  0.00000000E+00  0.00000000E+00
  0.00000000E+00  0.00000000E+00  0.00000000E+00
  0.00000000E+00  0.00000000E+00  0.00000000E+00
  0.00000000E+00  0.00000000E+00  0.00000000E+00
  0.00000000E+00  0.00000000E+00  0.00000000E+00
  0.00000000E+00  0.00000000E+00  0.00000000E+00
  0.00000000E+00  0.00000000E+00  0.00000000E+00
  0.00000000E+00  0.00000000E+00  0.00000000E+00
  0.00000000E+00  0.00000000E+00  0.00000000E+00
  0.00000000E+00  0.00000000E+00  0.00000000E+00
  0.00000000E+00  0.00000000E+00  0.00000000E+00
  0.00000000E+00  0.00000000E+00  0.00000000E+00
  0.00000000E+00  0.00000000E+00  0.00000000E+00
  0.00000000E+00  0.00000000E+00  0.00000000E+00
  0.00000000E+00  0.00000000E+00  0.00000000E+00
  0.00000000E+00  0.00000000E+00  0.00000000E+00
  0.00000000E+00  0.00000000E+00  0.00000000E+00
  0.00000000E+00  0.00000000E+00  0.00000000E+00
  0.00000000E+00  0.00000000E+00  0.00000000E+00
  0.00000000E+00  0.00000000E+00  0.00000000E+00
  0.00000000E+00  0.00000000E+00  0.00000000E+00
  0.00000000E+00  0.00000000E+00  0.00000000E+00
  0.00000000E+00  0.00000000E+00  0.00000000E+00
  0.00000000E+00  0.00000000E+00  0.00000000E+00
  0.00000000E+00  0.00000000E+00  0.00000000E+00
  0.00000000E+00  0.00000000E+00  0.00000000E+00
  0.00000000E+00  0.00000000E+00  0.00000000E+00
