Na8 Co8 O16 F8                          
   1.00000000000000     
     7.5760496101812267   -0.0003543990408100    0.0000017831958251
     0.0030852088114172    7.4099989546519147   -0.0000055455330550
     0.0000007691920833   -0.0000066692109659    7.7503624894962488
   Na   Co   O    F 
     8     8    16     8
Direct
  0.2496898762593532  0.2522005591638082  0.2468706659173660
  0.2496898842398605  0.2522004308421462  0.7531290495503108
  0.2508241704632725  0.7490636205897638  0.2450912406296873
  0.2508249220159847  0.7490643251306259  0.7549079027289908
  0.7549910641069578  0.2509368585745247  0.2520723152155182
  0.7549920904705322  0.2509365126974395  0.7479271530800004
  0.7508742029436212  0.7506706664264916  0.2532565666735989
  0.7508755725683129  0.7506699575772831  0.7467429385224099
  0.9975218289104093 -0.0001272541107158  0.0000012659001394
  0.0004871882820712  0.0036861274392946  0.5000010118190082
  0.9934344814109828  0.5007305547837981  0.0000000087016914
  0.9994273967896061  0.5034161966601397  0.5000009076818246
  0.4967629530926914  0.0162474773387213  0.0000003637132371
  0.4999334899247059  0.9962967404681808  0.5000002439965345
  0.5185866388599683  0.4952687897057087 -0.0000069757883961
  0.4983719574694918  0.4989810705247220  0.4999992196670780
  0.2274658583159252  0.9968598755351559  0.9999989188464838
  0.2415983032915823  0.0001295294449367  0.5000026684613328
  0.7679429049149356  0.0008237020028115  0.0000016670866625
  0.7581273610340616  0.9996568115023744  0.4999993888513536
  0.7442779843499583  0.5008132128972339  0.0000000222841646
  0.0052902268387664  0.2686762325299176  0.0000006793566721
  0.9991081517420720  0.2537697355257804  0.5000007502668760
 -0.0006894863492323  0.7330374968878491  0.0000007611387796
  0.9996301280221016  0.7518421806480878  0.5000002803245235
  0.4917720523646450  0.2461259088559706  0.0000006240876079
  0.5002701409146222  0.2324795904882607  0.4999986701528187
  0.5001765811682700  0.7607015713235180  0.5000004391365361
 -0.0001379816348585  0.5014790258590385  0.2698450089143333
 -0.0001391014344779  0.5014781504997251  0.7301543214644534
  0.4986232840518355  0.4987474541343762  0.2724739057654554
  0.4986240388084729  0.4987460274343436  0.7275272274765896
  0.2618034521643108  0.5090123816962406  0.0000007293689155
  0.2515851135509858  0.4977122856533896  0.5000015744690529
  0.7461031964110314  0.4995238847797606  0.4999991454357698
  0.4936662736036814  0.7566709113556046  0.9999983239209350
  0.9985589147143592  0.0026610784647211  0.2480022581371951
  0.9985593345695422  0.0026576201631834  0.7519994965098015
  0.5002438416724869  0.9830741963615749  0.2445233780889291
  0.5002517091071020  0.9830785021442190  0.7554758824457581
 
  0.00000000E+00  0.00000000E+00  0.00000000E+00
  0.00000000E+00  0.00000000E+00  0.00000000E+00
  0.00000000E+00  0.00000000E+00  0.00000000E+00
  0.00000000E+00  0.00000000E+00  0.00000000E+00
  0.00000000E+00  0.00000000E+00  0.00000000E+00
  0.00000000E+00  0.00000000E+00  0.00000000E+00
  0.00000000E+00  0.00000000E+00  0.00000000E+00
  0.00000000E+00  0.00000000E+00  0.00000000E+00
  0.00000000E+00  0.00000000E+00  0.00000000E+00
  0.00000000E+00  0.00000000E+00  0.00000000E+00
  0.00000000E+00  0.00000000E+00  0.00000000E+00
  0.00000000E+00  0.00000000E+00  0.00000000E+00
  0.00000000E+00  0.00000000E+00  0.00000000E+00
  0.00000000E+00  0.00000000E+00  0.00000000E+00
  0.00000000E+00  0.00000000E+00  0.00000000E+00
  0.00000000E+00  0.00000000E+00  0.00000000E+00
  0.00000000E+00  0.00000000E+00  0.00000000E+00
  0.00000000E+00  0.00000000E+00  0.00000000E+00
  0.00000000E+00  0.00000000E+00  0.00000000E+00
  0.00000000E+00  0.00000000E+00  0.00000000E+00
  0.00000000E+00  0.00000000E+00  0.00000000E+00
  0.00000000E+00  0.00000000E+00  0.00000000E+00
  0.00000000E+00  0.00000000E+00  0.00000000E+00
  0.00000000E+00  0.00000000E+00  0.00000000E+00
  0.00000000E+00  0.00000000E+00  0.00000000E+00
  0.00000000E+00  0.00000000E+00  0.00000000E+00
  0.00000000E+00  0.00000000E+00  0.00000000E+00
  0.00000000E+00  0.00000000E+00  0.00000000E+00
  0.00000000E+00  0.00000000E+00  0.00000000E+00
  0.00000000E+00  0.00000000E+00  0.00000000E+00
  0.00000000E+00  0.00000000E+00  0.00000000E+00
  0.00000000E+00  0.00000000E+00  0.00000000E+00
  0.00000000E+00  0.00000000E+00  0.00000000E+00
  0.00000000E+00  0.00000000E+00  0.00000000E+00
  0.00000000E+00  0.00000000E+00  0.00000000E+00
  0.00000000E+00  0.00000000E+00  0.00000000E+00
  0.00000000E+00  0.00000000E+00  0.00000000E+00
  0.00000000E+00  0.00000000E+00  0.00000000E+00
  0.00000000E+00  0.00000000E+00  0.00000000E+00
  0.00000000E+00  0.00000000E+00  0.00000000E+00
