Ti12 O2                                 
   1.00000000000000     
     5.1638000185573381   -0.0000879795983988    0.0000041263077385
    -2.5819762062955069    4.4719430646771379    0.0000118870194633
     0.0000075412199181    0.0000298214224978    9.5757394799930928
   Ti   O 
    12     2
Direct
  0.6682473465600794  0.6643094015579968  0.6309841278828016
  0.3357042572297255  0.0039437188543323  0.6309866181363183
  0.9960794756542506  0.3317785266624364  0.6309837313682219
  0.6643093406939089  0.6682469927837911  0.1309739696088041
  0.0039421937780514  0.3357024362197370  0.1309765573375194
  0.3317794194931539  0.9960801452759687  0.1309736314283811
  0.3317520652167716  0.3356892797432552  0.8690245919853610
  0.6642972830971957  0.9960579633190955  0.8690222317767379
  0.0039203963649647  0.6682223127048472  0.8690252218937760
  0.3356913604413457  0.3317535270273018  0.3690178024957248
  0.9960566452992549  0.6642961438178211  0.3690153007682097
  0.6682192319848490  0.0039193743068116  0.3690182015439769
  0.6666672241384372  0.3333326271996183  0.4999999437942125
  0.3333337600480115  0.6666675505269799  0.9999980699799407
 
  0.00000000E+00  0.00000000E+00  0.00000000E+00
  0.00000000E+00  0.00000000E+00  0.00000000E+00
  0.00000000E+00  0.00000000E+00  0.00000000E+00
  0.00000000E+00  0.00000000E+00  0.00000000E+00
  0.00000000E+00  0.00000000E+00  0.00000000E+00
  0.00000000E+00  0.00000000E+00  0.00000000E+00
  0.00000000E+00  0.00000000E+00  0.00000000E+00
  0.00000000E+00  0.00000000E+00  0.00000000E+00
  0.00000000E+00  0.00000000E+00  0.00000000E+00
  0.00000000E+00  0.00000000E+00  0.00000000E+00
  0.00000000E+00  0.00000000E+00  0.00000000E+00
  0.00000000E+00  0.00000000E+00  0.00000000E+00
  0.00000000E+00  0.00000000E+00  0.00000000E+00
  0.00000000E+00  0.00000000E+00  0.00000000E+00
