Mn8 O8 F16                              
   1.00000000000000     
     6.9440797814896600    0.1115348284927867    0.0020679546844340
     0.2042493987568413    6.9850111837543487   -0.0071291560131353
     0.0648928209241922   -0.0125513444812341    7.2745902717654438
   Mn   O    F 
     8     8    16
Direct
  0.0039314042824041  0.0003565934056869  0.0011518848210918
  0.0101587559692623  0.0058314838964216  0.5002731433629392
  0.9956359179470736  0.4991232663652941 -0.0018592102096246
  0.0027706575502870  0.4893172521445980  0.4972945298054736
  0.4961824788159475  0.0024790680403898  0.0012658247819534
  0.4866276247425307  0.0014009818148228  0.5045445774402697
  0.5016558271769085  0.5030002942284162  0.9857681713317794
  0.4996551491767173  0.5005943679796004  0.5154605818464899
  0.2500954361386710  0.0652086428567738  0.5731581293736210
  0.7455440304101070  0.5904113940455812  0.9457582417594538
  0.4180137515482354  0.5441630638977297  0.7456236784614136
  0.2471253150488422  0.0880097953283498  0.9488142671691479
  0.2530915136973744  0.4136272184507684  0.0503854967891059
  0.7525263560837793  0.9209564109687326  0.0552018136947614
  0.9400682351211004  0.2493552871633782  0.4393698273003422
  0.0660819169595247  0.7391658361028131  0.5519164731388225
  0.0850769727350836  0.9504763336514361  0.2613459414558140
  0.5465442690283147  0.9231882385111224  0.7362118581563468
  0.2697916282878495  0.4235449183631289  0.4360959593150505
  0.7375683700071974  0.5742170495173595  0.5644316025875102
  0.0792083789286066  0.7335433920479492  0.9277286850942613
  0.5843639719583339  0.2561219763277807 -0.0661970533175578
  0.9226364685728643  0.0381416929344940  0.7387213426737644
  0.9684490135714342  0.5818895194349544  0.2361939469251858
  0.0292106173328282  0.4128214919315031  0.7614747485057726
  0.4538034907212748  0.0778394763187286  0.2679082145892089
  0.5705260527909469  0.4653256125742261  0.2520368209562850
  0.7503855350823169  0.9388715408488960  0.4404965673248201
  0.9155960611148963  0.2643764471296752  0.0671155548790216
  0.5720039422418056  0.2478590660352649  0.5638430886037751
  0.4149258667478331  0.7454169618241624  0.0596039168970680
  0.4307449902096552  0.7533653258599841  0.4388613744866270
 
  0.00000000E+00  0.00000000E+00  0.00000000E+00
  0.00000000E+00  0.00000000E+00  0.00000000E+00
  0.00000000E+00  0.00000000E+00  0.00000000E+00
  0.00000000E+00  0.00000000E+00  0.00000000E+00
  0.00000000E+00  0.00000000E+00  0.00000000E+00
  0.00000000E+00  0.00000000E+00  0.00000000E+00
  0.00000000E+00  0.00000000E+00  0.00000000E+00
  0.00000000E+00  0.00000000E+00  0.00000000E+00
  0.00000000E+00  0.00000000E+00  0.00000000E+00
  0.00000000E+00  0.00000000E+00  0.00000000E+00
  0.00000000E+00  0.00000000E+00  0.00000000E+00
  0.00000000E+00  0.00000000E+00  0.00000000E+00
  0.00000000E+00  0.00000000E+00  0.00000000E+00
  0.00000000E+00  0.00000000E+00  0.00000000E+00
  0.00000000E+00  0.00000000E+00  0.00000000E+00
  0.00000000E+00  0.00000000E+00  0.00000000E+00
  0.00000000E+00  0.00000000E+00  0.00000000E+00
  0.00000000E+00  0.00000000E+00  0.00000000E+00
  0.00000000E+00  0.00000000E+00  0.00000000E+00
  0.00000000E+00  0.00000000E+00  0.00000000E+00
  0.00000000E+00  0.00000000E+00  0.00000000E+00
  0.00000000E+00  0.00000000E+00  0.00000000E+00
  0.00000000E+00  0.00000000E+00  0.00000000E+00
  0.00000000E+00  0.00000000E+00  0.00000000E+00
  0.00000000E+00  0.00000000E+00  0.00000000E+00
  0.00000000E+00  0.00000000E+00  0.00000000E+00
  0.00000000E+00  0.00000000E+00  0.00000000E+00
  0.00000000E+00  0.00000000E+00  0.00000000E+00
  0.00000000E+00  0.00000000E+00  0.00000000E+00
  0.00000000E+00  0.00000000E+00  0.00000000E+00
  0.00000000E+00  0.00000000E+00  0.00000000E+00
  0.00000000E+00  0.00000000E+00  0.00000000E+00
