Fe4 O4 F8                               
   1.00000000000000     
     5.0905334688432378   -0.0026277407186993   -0.0000013314880822
     0.0138942899931883    5.3181485343903230    0.0000081718251224
    -0.0000010859821896    0.0000105590223041    7.4854327928453719
   Fe   O    F 
     4     4     8
Direct
  0.5001560970306034  0.0012678662649762  0.9998953310536787
  0.0000973919836410  0.4994688034401341  0.0010957058009355
  0.5001571080652280  0.0012716153253275  0.5001055212193527
  0.0001005084882981  0.4994660944721049  0.4989080150461209
  0.1221389179551817  0.4911607492785870  0.2500029143086882
  0.8813863906507368  0.4935594955070298  0.7500024067496117
  0.6182459279166851  0.0011104529742249  0.7500005430279082
  0.3784519205415010  0.0078285122511032  0.2499918998739720
  0.6914046226273098  0.3003708167963398  0.0620230162940668
  0.3072688036860096  0.7015957701248934  0.9402223024425519
  0.1924315723573356  0.2004348392057227  0.9372745629215236
  0.8085243720794396  0.8000179770076901  0.0614489618443122
  0.3072657923559124  0.7016087025440827  0.5597815363611632
  0.6914074968565630  0.3003752329361722  0.4379755740008787
  0.8085214431527987  0.8000194761869268  0.4385495007062914
  0.1924416342527491  0.2004435956846777  0.5627222083489511
 
  0.00000000E+00  0.00000000E+00  0.00000000E+00
  0.00000000E+00  0.00000000E+00  0.00000000E+00
  0.00000000E+00  0.00000000E+00  0.00000000E+00
  0.00000000E+00  0.00000000E+00  0.00000000E+00
  0.00000000E+00  0.00000000E+00  0.00000000E+00
  0.00000000E+00  0.00000000E+00  0.00000000E+00
  0.00000000E+00  0.00000000E+00  0.00000000E+00
  0.00000000E+00  0.00000000E+00  0.00000000E+00
  0.00000000E+00  0.00000000E+00  0.00000000E+00
  0.00000000E+00  0.00000000E+00  0.00000000E+00
  0.00000000E+00  0.00000000E+00  0.00000000E+00
  0.00000000E+00  0.00000000E+00  0.00000000E+00
  0.00000000E+00  0.00000000E+00  0.00000000E+00
  0.00000000E+00  0.00000000E+00  0.00000000E+00
  0.00000000E+00  0.00000000E+00  0.00000000E+00
  0.00000000E+00  0.00000000E+00  0.00000000E+00
