Na4 Cr4 O8 F4                           
   1.00000000000000     
     5.5002904626225515   -0.1221113260543065   -0.1207465827156171
    -2.7594762714588974    4.7564292691590628    0.3032405004079438
    -0.6019296388170851    0.4751103396609267    9.1350651698981640
   Na   Cr   O    F 
     4     4     8     4
Direct
  0.0348591922957475 -0.0013626271042339  0.9396760872634291
  0.0444816366558999  0.0738023231248194  0.5796491633799541
  0.3522688738668996  0.6831583539633496  0.2645277869539425
  0.6713357533618233  0.3604057776780688  0.7582760530032550
  0.2793136774769349  0.6831601987566159  0.6189871751449521
  0.6658175523446022  0.2959480532227700  0.3990966412606900
  0.6731355826492255  0.2941028665952424  0.0951223951766362
  0.3957104447940101  0.6922863899855128  0.8987840845822250
  0.6368962883997173  0.0337107115457069  0.9832711822727926
  0.6269737002227137  0.5385474805551536  0.9683610299476287
  0.3634440045562754  0.0045846017903425  0.4661639060379575
  0.9069274529101479  0.4616067416871755  0.5347876013356954
  0.6536377020933639  0.5138783591345855  0.2553472815475265
  0.2147450758890047  0.3985006937601885  0.7717660452923121
  0.7965391564514840  0.1641434820540222  0.2897041389595654
  0.1984164717540487  0.8343706509558544  0.7675487895611934
  0.1095419935453386  0.5194222141451051  0.0493549562768133
  0.4225203230338918  0.5254458157601667  0.4970607365234449
  0.2915280252787253  0.0457079035009620  0.1439052624082108
  0.6619070924201536  0.8785800088885867  0.7186096830717906
 
  0.00000000E+00  0.00000000E+00  0.00000000E+00
  0.00000000E+00  0.00000000E+00  0.00000000E+00
  0.00000000E+00  0.00000000E+00  0.00000000E+00
  0.00000000E+00  0.00000000E+00  0.00000000E+00
  0.00000000E+00  0.00000000E+00  0.00000000E+00
  0.00000000E+00  0.00000000E+00  0.00000000E+00
  0.00000000E+00  0.00000000E+00  0.00000000E+00
  0.00000000E+00  0.00000000E+00  0.00000000E+00
  0.00000000E+00  0.00000000E+00  0.00000000E+00
  0.00000000E+00  0.00000000E+00  0.00000000E+00
  0.00000000E+00  0.00000000E+00  0.00000000E+00
  0.00000000E+00  0.00000000E+00  0.00000000E+00
  0.00000000E+00  0.00000000E+00  0.00000000E+00
  0.00000000E+00  0.00000000E+00  0.00000000E+00
  0.00000000E+00  0.00000000E+00  0.00000000E+00
  0.00000000E+00  0.00000000E+00  0.00000000E+00
  0.00000000E+00  0.00000000E+00  0.00000000E+00
  0.00000000E+00  0.00000000E+00  0.00000000E+00
  0.00000000E+00  0.00000000E+00  0.00000000E+00
  0.00000000E+00  0.00000000E+00  0.00000000E+00
