V4 O4 F8                                
   1.00000000000000     
     5.4779895850702998    0.0461101435671912   -0.2463608496424163
    -2.7048241745025448    4.7097415511788601    0.2191963271837617
    -0.4287234493532521    0.1479390083378732    9.3542259999959381
   V    O    F 
     4     4     8
Direct
  0.3473159838153993  0.6596915282215995  0.6111859383700521
  0.6398150113576916  0.3611254554106247  0.3959729660887659
  0.7021934310645287  0.3293461254309188  0.1146150591938399
  0.2832923431840858  0.6627716718692310  0.8943008967162460
  0.0069112785827101  0.5066763987194468  0.9979367990351871
  0.5054665586822862  0.4986284388950118  0.4953764385697869
  0.8150725594698855  0.1955868684427865  0.2501918720250915
  0.1808054008043924  0.8002677813273386  0.7530189342713330
  0.5083457586748733  0.9972500004935505  0.9951966494385538
  0.5014882060580926  0.5026034584241506  0.9965986886935974
  0.5043899806079234 -0.0034923806988154  0.4939862969520860
 -0.0001122257649247  0.4836133625090569  0.4977891470751711
  0.8122813274564488  0.6464872658557824  0.2438228526608966
  0.1918271073020753  0.3591919183907927  0.7634943260455078
  0.3681356624546870  0.1982509546123959  0.2375896439464472
  0.6327716162498513  0.8020011520961294  0.7589234909174450
 
  0.00000000E+00  0.00000000E+00  0.00000000E+00
  0.00000000E+00  0.00000000E+00  0.00000000E+00
  0.00000000E+00  0.00000000E+00  0.00000000E+00
  0.00000000E+00  0.00000000E+00  0.00000000E+00
  0.00000000E+00  0.00000000E+00  0.00000000E+00
  0.00000000E+00  0.00000000E+00  0.00000000E+00
  0.00000000E+00  0.00000000E+00  0.00000000E+00
  0.00000000E+00  0.00000000E+00  0.00000000E+00
  0.00000000E+00  0.00000000E+00  0.00000000E+00
  0.00000000E+00  0.00000000E+00  0.00000000E+00
  0.00000000E+00  0.00000000E+00  0.00000000E+00
  0.00000000E+00  0.00000000E+00  0.00000000E+00
  0.00000000E+00  0.00000000E+00  0.00000000E+00
  0.00000000E+00  0.00000000E+00  0.00000000E+00
  0.00000000E+00  0.00000000E+00  0.00000000E+00
  0.00000000E+00  0.00000000E+00  0.00000000E+00
