Na4 Mn4 O8 F4                           
   1.00000000000000     
     5.1485325696919055   -0.0000679958921788   -0.0294606435295230
    -0.0000068322158781    5.2280222625885315    0.0000094455731171
    -0.0428371136800315   -0.0000215559958446    7.4584584025839131
   Na   Mn   O    F 
     4     4     8     4
Direct
  0.9878686411378004  0.0439829737524295  0.2559616353758581
  0.0131760385521110  0.9579510586336015  0.7476221020099036
  0.4878008764710609  0.4559618672961882  0.7559374066338567
  0.5131958885015961  0.5420582041142437  0.2476309624901344
  0.5117556112576872  0.9862769932853767  0.9851501657982059
  0.9852234167358137  0.5143163820569696  0.0139304707171798
  0.4852348589258348  0.9856727236928613  0.5139548145553188
  0.0117671689145402  0.5137277924121927  0.4851452063099075
  0.7060485585889860  0.2946006856520521  0.0368329579029209
  0.2898770974527843  0.7140510601579276  0.9585494382014024
  0.7955721731564251  0.7991308938968570  0.0453970656944716
  0.2955048334866193  0.7009313100663206  0.5454741165737323
  0.7898689132940873  0.7859267013595773  0.4585976182712613
  0.2061244924949928  0.2054736747995745  0.5368166704624464
  0.0846392912737473  0.4786660524415139  0.2484762485559192
  0.5846062266801022  0.0214065466849791  0.7484837324413230
  0.2060746266077033  0.2099317199578569  0.9581717624978834
  0.7061694782702813  0.2899908433148750  0.4581424584212286
  0.9196914379502727  0.5127449057873933  0.7498582223047507
  0.4198003702475540  0.9871976106372237  0.2498669447822814
 
  0.00000000E+00  0.00000000E+00  0.00000000E+00
  0.00000000E+00  0.00000000E+00  0.00000000E+00
  0.00000000E+00  0.00000000E+00  0.00000000E+00
  0.00000000E+00  0.00000000E+00  0.00000000E+00
  0.00000000E+00  0.00000000E+00  0.00000000E+00
  0.00000000E+00  0.00000000E+00  0.00000000E+00
  0.00000000E+00  0.00000000E+00  0.00000000E+00
  0.00000000E+00  0.00000000E+00  0.00000000E+00
  0.00000000E+00  0.00000000E+00  0.00000000E+00
  0.00000000E+00  0.00000000E+00  0.00000000E+00
  0.00000000E+00  0.00000000E+00  0.00000000E+00
  0.00000000E+00  0.00000000E+00  0.00000000E+00
  0.00000000E+00  0.00000000E+00  0.00000000E+00
  0.00000000E+00  0.00000000E+00  0.00000000E+00
  0.00000000E+00  0.00000000E+00  0.00000000E+00
  0.00000000E+00  0.00000000E+00  0.00000000E+00
  0.00000000E+00  0.00000000E+00  0.00000000E+00
  0.00000000E+00  0.00000000E+00  0.00000000E+00
  0.00000000E+00  0.00000000E+00  0.00000000E+00
  0.00000000E+00  0.00000000E+00  0.00000000E+00
