Na8 Mn8 O16 F8                          
   1.00000000000000     
     7.7058213029305769   -0.0003323440034612    0.0061959587496685
    -0.0003568387818169    7.3887071247435374   -0.0001272402340528
    -0.0109047487838324   -0.0001593693683065    7.4612312145565429
   Na   Mn   O    F 
     8     8    16     8
Direct
  0.2481573216390972  0.2544067702446411  0.2646561258125480
  0.2378934839440326  0.2508592357865800  0.7335835508204056
  0.2481902922347973  0.7461194122426943  0.2653775713488844
  0.2378690847687562  0.7491357779167458  0.7335624694834926
  0.7511102657366193  0.2552544323720139  0.2478583862931197
  0.7626279087789748  0.2428145350405005  0.7596703014042946
  0.7511255917365572  0.7447533741918374  0.2478346539015631
  0.7626774945507863  0.7572071651294584  0.7596568054379279
  0.0107037903214870 -0.0000038531193023  0.0140751000099694
  0.9861054995847206  0.0000057936682300  0.4791570934768595
  0.9991865446733446  0.4999911387645840  0.0012301625111371
  0.9956694008833785  0.5000421194858153  0.5040182687129172
  0.4813693774893469  0.0000060528674813  0.9974205909727293
  0.5160560468658713 -0.0000094399261459  0.4920218531985279
  0.4970149616002222  0.5000895509146451  0.9936721510481148
  0.4983128175817820  0.4999695466336361  0.5139425473622423
  0.2512194198685893  0.9998952410275294  0.9361589871529352
  0.7599519224391684  0.9999914472437889  0.0398241581687371
  0.7582105543166919  0.9998323275415582  0.4354743806809903
  0.9890320180760808  0.2494922885178276  0.0002854649523262
  0.0076407609748248  0.2475950346109674  0.5018646263032704
  0.9889451224938024  0.7504482953423149  0.0004780936789393
  0.0078375834676861  0.7523669755445709  0.5016633759963622
  0.5172848164291027  0.2454964807636495  0.0129167196665229
  0.4995373939727060  0.2524201246125988  0.4841463286672215
  0.5174418543372391  0.7545666031991626  0.0130403904252298
  0.4992649274198060  0.7475079867391236  0.4839908521727903
  0.0654879893257243  0.0001616187658931  0.2482584452066643
  0.9472048867962430  0.4998525771094933  0.2499174696888740
  0.0494481735162594  0.4999691900048538  0.7586971398897460
  0.5448646762812300  0.4999233400398618  0.2585026852903033
  0.4342748169411419  0.5000204129913852  0.7495587588869297
  0.2538279895333084 -0.0000226425956091  0.5463727673085114
  0.2347849891926004  0.5000972963273163  0.0653207339479912
  0.2622697937961774  0.4998829525580334  0.4492307979790279
  0.7623871684400175  0.4999437091924246  0.9419446979716709
  0.7326720654991984  0.5001029676587025  0.5748283007438535
  0.9537562072895674  0.9998762124393076  0.7437697316476758
  0.4238525080355596  0.0000653265950356  0.2374975298202981
  0.5547324791675144  0.9998726215568033  0.7585199319583942
 
  0.00000000E+00  0.00000000E+00  0.00000000E+00
  0.00000000E+00  0.00000000E+00  0.00000000E+00
  0.00000000E+00  0.00000000E+00  0.00000000E+00
  0.00000000E+00  0.00000000E+00  0.00000000E+00
  0.00000000E+00  0.00000000E+00  0.00000000E+00
  0.00000000E+00  0.00000000E+00  0.00000000E+00
  0.00000000E+00  0.00000000E+00  0.00000000E+00
  0.00000000E+00  0.00000000E+00  0.00000000E+00
  0.00000000E+00  0.00000000E+00  0.00000000E+00
  0.00000000E+00  0.00000000E+00  0.00000000E+00
  0.00000000E+00  0.00000000E+00  0.00000000E+00
  0.00000000E+00  0.00000000E+00  0.00000000E+00
  0.00000000E+00  0.00000000E+00  0.00000000E+00
  0.00000000E+00  0.00000000E+00  0.00000000E+00
  0.00000000E+00  0.00000000E+00  0.00000000E+00
  0.00000000E+00  0.00000000E+00  0.00000000E+00
  0.00000000E+00  0.00000000E+00  0.00000000E+00
  0.00000000E+00  0.00000000E+00  0.00000000E+00
  0.00000000E+00  0.00000000E+00  0.00000000E+00
  0.00000000E+00  0.00000000E+00  0.00000000E+00
  0.00000000E+00  0.00000000E+00  0.00000000E+00
  0.00000000E+00  0.00000000E+00  0.00000000E+00
  0.00000000E+00  0.00000000E+00  0.00000000E+00
  0.00000000E+00  0.00000000E+00  0.00000000E+00
  0.00000000E+00  0.00000000E+00  0.00000000E+00
  0.00000000E+00  0.00000000E+00  0.00000000E+00
  0.00000000E+00  0.00000000E+00  0.00000000E+00
  0.00000000E+00  0.00000000E+00  0.00000000E+00
  0.00000000E+00  0.00000000E+00  0.00000000E+00
  0.00000000E+00  0.00000000E+00  0.00000000E+00
  0.00000000E+00  0.00000000E+00  0.00000000E+00
  0.00000000E+00  0.00000000E+00  0.00000000E+00
  0.00000000E+00  0.00000000E+00  0.00000000E+00
  0.00000000E+00  0.00000000E+00  0.00000000E+00
  0.00000000E+00  0.00000000E+00  0.00000000E+00
  0.00000000E+00  0.00000000E+00  0.00000000E+00
  0.00000000E+00  0.00000000E+00  0.00000000E+00
  0.00000000E+00  0.00000000E+00  0.00000000E+00
  0.00000000E+00  0.00000000E+00  0.00000000E+00
  0.00000000E+00  0.00000000E+00  0.00000000E+00
