Ti8 O8 F16                              
   1.00000000000000     
     7.5851043363080377   -0.0000000514134623   -0.0000000429769796
    -0.0000000533200834    7.8525053325887759   -0.0000000139735934
    -0.0000000429534191   -0.0000000135956181    7.5850898013631447
   Ti   O    F 
     8     8    16
Direct
  0.9999979744922304  0.0000000191680356  0.9999999707887588
  0.9999979357133117  0.0000000153890929  0.5000000127646975
  0.9999922182702045  0.4999999841716434  0.9999999922669487
  0.9999922061258457  0.4999999890843144  0.4999999949044675
  0.4999979430426734  0.0000000101920412  0.0000000029850508
  0.4999979865905575  0.9999999583652627  0.4999999982888889
  0.4999922311275080  0.5000000010391480  0.0000000161265032
  0.4999922408575168  0.5000000374819050  0.4999999814919782
  0.0000003880765491 -0.0000000241268532  0.2500000224530528
  0.0000004206918522 -0.0000000047665473  0.7500000223809454
  0.5000004144612491 -0.0000000102140327  0.2499999944544386
  0.5000003968123478  0.0000000052350638  0.7500000195679730
  0.2500083639063578  0.5000000010493353  0.9999999745564873
  0.2500085502107894  0.5000000025990253  0.5000000177283993
  0.7500084877158064  0.4999999899229469  0.9999999863142629
  0.7500082727043141  0.5000000086519356  0.5000000025396664
  0.0000000696643312  0.4999999918190929  0.2499999188708529
  0.0000000473421152  0.5000000035739250  0.7500000723993175
  0.5000000784808205  0.4999999932343115  0.2500000263266118
  0.5000000828538084  0.4999999986200687  0.7499999748218767
  0.2500011519796199 -0.0000000025986804 -0.0000000014659820
  0.2500011248526954  0.0000000050474232  0.4999999943014311
  0.7500010541995321  0.0000000118629149  0.0000000103567743
  0.7500010591982608  0.0000000024975019  0.4999999905160829
 -0.0000000836394829  0.2500001051430759  0.9999999994332345
  0.9999999071842284  0.2500000473625367  0.5000000003669778
 -0.0000000832695868  0.7499999093006762  0.9999999829840859
 -0.0000000921801666  0.7499999642499171  0.5000000155691116
  0.4999999161778264  0.2500000392620261  0.0000000288315043
  0.4999999115697557  0.2500000509015514  0.4999999881929927
  0.4999999154993205  0.7499999555698338  0.0000000068670281
  0.4999999092878225  0.7499999409115226  0.4999999820155809
 
  0.00000000E+00  0.00000000E+00  0.00000000E+00
  0.00000000E+00  0.00000000E+00  0.00000000E+00
  0.00000000E+00  0.00000000E+00  0.00000000E+00
  0.00000000E+00  0.00000000E+00  0.00000000E+00
  0.00000000E+00  0.00000000E+00  0.00000000E+00
  0.00000000E+00  0.00000000E+00  0.00000000E+00
  0.00000000E+00  0.00000000E+00  0.00000000E+00
  0.00000000E+00  0.00000000E+00  0.00000000E+00
  0.00000000E+00  0.00000000E+00  0.00000000E+00
  0.00000000E+00  0.00000000E+00  0.00000000E+00
  0.00000000E+00  0.00000000E+00  0.00000000E+00
  0.00000000E+00  0.00000000E+00  0.00000000E+00
  0.00000000E+00  0.00000000E+00  0.00000000E+00
  0.00000000E+00  0.00000000E+00  0.00000000E+00
  0.00000000E+00  0.00000000E+00  0.00000000E+00
  0.00000000E+00  0.00000000E+00  0.00000000E+00
  0.00000000E+00  0.00000000E+00  0.00000000E+00
  0.00000000E+00  0.00000000E+00  0.00000000E+00
  0.00000000E+00  0.00000000E+00  0.00000000E+00
  0.00000000E+00  0.00000000E+00  0.00000000E+00
  0.00000000E+00  0.00000000E+00  0.00000000E+00
  0.00000000E+00  0.00000000E+00  0.00000000E+00
  0.00000000E+00  0.00000000E+00  0.00000000E+00
  0.00000000E+00  0.00000000E+00  0.00000000E+00
  0.00000000E+00  0.00000000E+00  0.00000000E+00
  0.00000000E+00  0.00000000E+00  0.00000000E+00
  0.00000000E+00  0.00000000E+00  0.00000000E+00
  0.00000000E+00  0.00000000E+00  0.00000000E+00
  0.00000000E+00  0.00000000E+00  0.00000000E+00
  0.00000000E+00  0.00000000E+00  0.00000000E+00
  0.00000000E+00  0.00000000E+00  0.00000000E+00
  0.00000000E+00  0.00000000E+00  0.00000000E+00
