Na4 Ni4 O8 F4                           
   1.00000000000000     
     5.5671414986012850    0.5198959109393834   -0.0459205415102508
     0.6190122661374793    5.5404883290640594    0.0230608758052832
     0.0709302750417167   -0.0458494053567921    6.7832893595527679
   Na   Ni   O    F 
     4     4     8     4
Direct
 -0.0027953145455821 -0.0017267843634725  0.2438927600757231
  0.9870667626960810 -0.0070674212155209  0.7685915227771152
  0.5119190848745775  0.5067614698945896  0.7587168910527176
  0.5048300457624625  0.4949581994600043  0.2375902634250378
  0.4636908914378923  0.9688854732509253 -0.0004701102770871
  0.0256002294948592  0.5107623999549984  0.0029464587321144
  0.4926174025891654  0.0010702786949675  0.5003427007214271
  0.0081832275427191  0.4894396967405711  0.4931061988375102
  0.2428273537039039  0.7452458521868919  0.0039031341594692
  0.2551811145965912  0.2525409988573532  0.8564627055723850
  0.7485174434492887  0.7557048912862793  0.1405761445315324
  0.7473598283118537  0.7486184671935519  0.3616732923485053
  0.2419201645247760  0.2419072292629062  0.6398986878849789
  0.1485536993535821  0.3434234674944652  0.2504617905590827
  0.6036595076998176  0.9287976233814680  0.7541890288211167
  0.3649202257698071  0.1391107925779558  0.2489949166265033
  0.7765994192885274  0.2786775797461313  0.0044815563549802
  0.2490483870629394  0.7424701462199572  0.4997540730745283
  0.7467125745464809  0.2566436567155173  0.4910428472047006
  0.8835879518402505  0.6037759826604593  0.7438451375176593
 
  0.00000000E+00  0.00000000E+00  0.00000000E+00
  0.00000000E+00  0.00000000E+00  0.00000000E+00
  0.00000000E+00  0.00000000E+00  0.00000000E+00
  0.00000000E+00  0.00000000E+00  0.00000000E+00
  0.00000000E+00  0.00000000E+00  0.00000000E+00
  0.00000000E+00  0.00000000E+00  0.00000000E+00
  0.00000000E+00  0.00000000E+00  0.00000000E+00
  0.00000000E+00  0.00000000E+00  0.00000000E+00
  0.00000000E+00  0.00000000E+00  0.00000000E+00
  0.00000000E+00  0.00000000E+00  0.00000000E+00
  0.00000000E+00  0.00000000E+00  0.00000000E+00
  0.00000000E+00  0.00000000E+00  0.00000000E+00
  0.00000000E+00  0.00000000E+00  0.00000000E+00
  0.00000000E+00  0.00000000E+00  0.00000000E+00
  0.00000000E+00  0.00000000E+00  0.00000000E+00
  0.00000000E+00  0.00000000E+00  0.00000000E+00
  0.00000000E+00  0.00000000E+00  0.00000000E+00
  0.00000000E+00  0.00000000E+00  0.00000000E+00
  0.00000000E+00  0.00000000E+00  0.00000000E+00
  0.00000000E+00  0.00000000E+00  0.00000000E+00
