Iron(III) fluoride                      
   1.00000000000000     
     5.3277612208636729   -0.0076507434623435   -0.0051982723125034
     2.8175944675508560    4.5217506497385473   -0.0051978784701081
     2.8174917928074024    1.5614368591795791    4.2436139418010450
   Fe   F 
     2     6
Direct
  0.9999957491578400  0.9999881955284167  0.0000317069195148
  0.4999978394200326  0.5000264245843908  0.4999735270322248
  0.8514900878610376  0.6485119479116719  0.2499963809539594
  0.1485116337810339  0.3514901611468488  0.7499968765151266
  0.2500067041225549  0.8514820391131579  0.6485137736844848
  0.7499987290947203  0.1485080046926157  0.3514920525271847
  0.6485117590014013  0.2499937454341179  0.8514857673513561
  0.3514874685613805  0.7499994525887814  0.1485098860161500
 
  0.00000000E+00  0.00000000E+00  0.00000000E+00
  0.00000000E+00  0.00000000E+00  0.00000000E+00
  0.00000000E+00  0.00000000E+00  0.00000000E+00
  0.00000000E+00  0.00000000E+00  0.00000000E+00
  0.00000000E+00  0.00000000E+00  0.00000000E+00
  0.00000000E+00  0.00000000E+00  0.00000000E+00
  0.00000000E+00  0.00000000E+00  0.00000000E+00
  0.00000000E+00  0.00000000E+00  0.00000000E+00
