Ti2 O2 F4                               
    1.000000000000000     
     3.6930048753873814    0.0000000015424204    0.0000136415881564
     0.0000000093593467    3.9296754530670448    0.0000000196683967
     0.0000024780264943    0.0000000394329963    7.8557283212305222
   Ti   O    F 
     2     2     4
Direct
  0.5000838751105050  0.5000000073044006  0.2545068462702176
  0.5000838910692451  0.4999999936070267  0.7545071983023277
  0.9999360858006199  0.5000000031195952  0.2563551669555082
  0.9999360857414814  0.4999999869937781  0.7563550983172220
  0.4999854719041750  0.5000000095123482  0.0053131520676430
  0.4999854685632243  0.4999999975481941  0.5053128143582200
  0.4999945566496464  0.0000000071582775  0.2553249449189678
  0.4999945651610957  0.9999999947563865  0.7553247788098929
 
  0.00000000E+00  0.00000000E+00  0.00000000E+00
  0.00000000E+00  0.00000000E+00  0.00000000E+00
  0.00000000E+00  0.00000000E+00  0.00000000E+00
  0.00000000E+00  0.00000000E+00  0.00000000E+00
  0.00000000E+00  0.00000000E+00  0.00000000E+00
  0.00000000E+00  0.00000000E+00  0.00000000E+00
  0.00000000E+00  0.00000000E+00  0.00000000E+00
  0.00000000E+00  0.00000000E+00  0.00000000E+00
