Ti4 O4 F8                               
   1.00000000000000     
     5.2105832738329889    0.0451519299266362   -0.0163930951414670
     0.0441320535000257    5.3719452901385765   -0.0197527184530960
    -0.0208088789042807   -0.0371733772852545    7.5346790641305068
   Ti   O    F 
     4     4     8
Direct
  0.4857324029832843  0.9693382293022083  0.9988240226849242
  0.0002600679540899  0.5022697593447790  0.9806307924980088
  0.4862301610556320  0.0168005755943680  0.5040324351871849
  0.9844437972468211  0.5223535952890268  0.5033048745020244
  0.9173662291476478  0.5139663220199958  0.7558092747493206
  0.3042474815167537  0.7022274968911607  0.9633518066021588
  0.7815196966167793  0.7834693578984969  0.4623129854566404
  0.2275870075773606  0.2228834959768845  0.5382673834684096
  0.0788527610599289  0.4823303263681414  0.2451863684617547
  0.5967017017397614  0.0138782162485785  0.7580226640083116
  0.4107314274791737  0.9924934433398543  0.2462483889723703
  0.7061042648236424  0.2851439585735852  0.0401210824623571
  0.2030225696903668  0.1950903318835074  0.9558064327810656
  0.8039875042403029  0.7999718563922136  0.0541846406637130
  0.2939843250769024  0.7164977640153756  0.5449614106432833
  0.7192286017915528  0.2812852708618169  0.4489354368584587
 
  0.00000000E+00  0.00000000E+00  0.00000000E+00
  0.00000000E+00  0.00000000E+00  0.00000000E+00
  0.00000000E+00  0.00000000E+00  0.00000000E+00
  0.00000000E+00  0.00000000E+00  0.00000000E+00
  0.00000000E+00  0.00000000E+00  0.00000000E+00
  0.00000000E+00  0.00000000E+00  0.00000000E+00
  0.00000000E+00  0.00000000E+00  0.00000000E+00
  0.00000000E+00  0.00000000E+00  0.00000000E+00
  0.00000000E+00  0.00000000E+00  0.00000000E+00
  0.00000000E+00  0.00000000E+00  0.00000000E+00
  0.00000000E+00  0.00000000E+00  0.00000000E+00
  0.00000000E+00  0.00000000E+00  0.00000000E+00
  0.00000000E+00  0.00000000E+00  0.00000000E+00
  0.00000000E+00  0.00000000E+00  0.00000000E+00
  0.00000000E+00  0.00000000E+00  0.00000000E+00
  0.00000000E+00  0.00000000E+00  0.00000000E+00
