Co8 O8 F16                              
   1.00000000000000     
     7.6289390464185018   -0.0112019741564941    0.0066632956902701
    -0.0038008504296621    7.6604162086878427    0.0069978107763234
     0.0025603202744994   -0.0256454031479768    7.5391667680214463
   Co   O    F 
     8     8    16
Direct
  0.9811495998650173  0.0000230131206684 -0.0000900115971844
  0.9988488747554822  0.0001814548757964  0.4998967376967960
  0.9947259886813768  0.4999877675435629 -0.0003399055773521
  0.0077972515499094  0.5008317315818568  0.4996985600768166
  0.4805623587840253  0.0000093019904054  0.0021415144893818
  0.5013647507937782  0.0002056493718464  0.5017695950325950
  0.4953397574944745  0.5000014153310444 -0.0001841224797431
  0.4991532572472953  0.5001178831733956  0.4998948767019169
  0.2572828809025514  0.5007302225261273  0.4993493843284431
  0.0020544239174938  0.4998082427950166  0.2512495633899964
  0.0030721634510281  0.4985708516455267  0.7472482893144751
  0.4943816361756694  0.5005405166080608  0.2529407718585019
  0.4938610998927038  0.4995192028248933  0.7466171161860103
  0.2456537338079227  0.0001099904635440  0.0010628082797432
  0.7469652657811798 -0.0002273883401443  0.0003347442148591
  0.7560005751128639  0.0003354855615381  0.5006951194510970
  0.0169418502747848  0.0000201772062001  0.2483388820777215
  0.4929745671865427  0.9985714391210245  0.7460866135990012
  0.2502065541071010 -0.0005400785701776  0.5000657745595426
  0.7467472182792966  0.5014242801551279 -0.0014499462486461
  0.7507315302982425  0.4993443280845194  0.4994254700605670
  0.9920008356810975  0.7462366235757794 -0.0011858232733005
  0.5116621025872419  0.2429056314069700  0.0005242032227650
  0.0171886699653538 -0.0005288384777860  0.7512609290675796
  0.4943620018051840  0.0012985388518527  0.2570294580818600
  0.2460491883719249  0.4996188323385810 -0.0004037015206226
  0.9919499623816250  0.2533211429728633 -0.0011912945596110
  0.9960630658353760  0.2514422962749225  0.4979656823112056
  0.9950294785676846  0.7487235977332403  0.4998844296066954
  0.5142216782548674  0.2484340335687420  0.4999234556640918
  0.5103593493572729  0.7570985210084549  0.0005410757704675
  0.5152983288336400  0.7518841336765464  0.5008997502143161
 
  0.00000000E+00  0.00000000E+00  0.00000000E+00
  0.00000000E+00  0.00000000E+00  0.00000000E+00
  0.00000000E+00  0.00000000E+00  0.00000000E+00
  0.00000000E+00  0.00000000E+00  0.00000000E+00
  0.00000000E+00  0.00000000E+00  0.00000000E+00
  0.00000000E+00  0.00000000E+00  0.00000000E+00
  0.00000000E+00  0.00000000E+00  0.00000000E+00
  0.00000000E+00  0.00000000E+00  0.00000000E+00
  0.00000000E+00  0.00000000E+00  0.00000000E+00
  0.00000000E+00  0.00000000E+00  0.00000000E+00
  0.00000000E+00  0.00000000E+00  0.00000000E+00
  0.00000000E+00  0.00000000E+00  0.00000000E+00
  0.00000000E+00  0.00000000E+00  0.00000000E+00
  0.00000000E+00  0.00000000E+00  0.00000000E+00
  0.00000000E+00  0.00000000E+00  0.00000000E+00
  0.00000000E+00  0.00000000E+00  0.00000000E+00
  0.00000000E+00  0.00000000E+00  0.00000000E+00
  0.00000000E+00  0.00000000E+00  0.00000000E+00
  0.00000000E+00  0.00000000E+00  0.00000000E+00
  0.00000000E+00  0.00000000E+00  0.00000000E+00
  0.00000000E+00  0.00000000E+00  0.00000000E+00
  0.00000000E+00  0.00000000E+00  0.00000000E+00
  0.00000000E+00  0.00000000E+00  0.00000000E+00
  0.00000000E+00  0.00000000E+00  0.00000000E+00
  0.00000000E+00  0.00000000E+00  0.00000000E+00
  0.00000000E+00  0.00000000E+00  0.00000000E+00
  0.00000000E+00  0.00000000E+00  0.00000000E+00
  0.00000000E+00  0.00000000E+00  0.00000000E+00
  0.00000000E+00  0.00000000E+00  0.00000000E+00
  0.00000000E+00  0.00000000E+00  0.00000000E+00
  0.00000000E+00  0.00000000E+00  0.00000000E+00
  0.00000000E+00  0.00000000E+00  0.00000000E+00
