Ni4 O4 F8                               
   1.00000000000000     
     4.7354365612273197   -0.0479249301389738   -0.1177210658464559
    -0.0332175015424269    4.9634403194353567    0.0715950967652631
    -0.0893605249634214    0.0081116325569757    7.1147621129976750
   Ni   O    F 
     4     4     8
Direct
  0.5016002441891513  0.0035858562237233 -0.0006603201355903
  0.0010542429495895  0.5038143755601563 -0.0006863313989670
  0.4971697014496016 -0.0028124486064583  0.4998219342745885
 -0.0009027453350137  0.4941630677676356  0.4988835336109284
  0.6538451984020417  0.3408162286711562  0.0479019834719135
  0.3490920716019935  0.6659625489165601  0.9509217875351808
  0.8402021829581438  0.8470103465309065  0.4499502877892351
  0.1599602138280798  0.1474221116640365  0.5565085658713634
  0.1139782787641843  0.4427014715643308  0.2411552006878392
  0.8869440848260673  0.5588059496997106  0.7573728343122803
  0.6282783439174673  0.0583309279415840  0.7348381361397399
  0.3703624085202729  0.9401934536031583  0.2638369112418176
  0.1754061096382223  0.1654243096342855  0.9235700898276196
  0.8268227894509953  0.8408358915347747  0.0777452779038036
  0.3570965341025131  0.6793109870295911  0.5747192379255973
  0.6390903407366901  0.3144349222648556  0.4241208709426582
 
  0.00000000E+00  0.00000000E+00  0.00000000E+00
  0.00000000E+00  0.00000000E+00  0.00000000E+00
  0.00000000E+00  0.00000000E+00  0.00000000E+00
  0.00000000E+00  0.00000000E+00  0.00000000E+00
  0.00000000E+00  0.00000000E+00  0.00000000E+00
  0.00000000E+00  0.00000000E+00  0.00000000E+00
  0.00000000E+00  0.00000000E+00  0.00000000E+00
  0.00000000E+00  0.00000000E+00  0.00000000E+00
  0.00000000E+00  0.00000000E+00  0.00000000E+00
  0.00000000E+00  0.00000000E+00  0.00000000E+00
  0.00000000E+00  0.00000000E+00  0.00000000E+00
  0.00000000E+00  0.00000000E+00  0.00000000E+00
  0.00000000E+00  0.00000000E+00  0.00000000E+00
  0.00000000E+00  0.00000000E+00  0.00000000E+00
  0.00000000E+00  0.00000000E+00  0.00000000E+00
  0.00000000E+00  0.00000000E+00  0.00000000E+00
