Na8 Ti8 O16 F8                          
   1.00000000000000     
     7.9943173861806605    0.0000000327630726    0.0000000098990026
     0.0000000340836344    7.6555079754303135   -0.0000000132219513
     0.0000000119870887   -0.0000000119337882    7.6555195998584527
   Na   Ti   O    F 
     8     8    16     8
Direct
  0.2499997912162510  0.2499999346970390  0.2500000336214619
  0.2499997962621974  0.2500000175044925  0.7499999702053750
  0.2499998106274378  0.7500000393166643  0.2499999590665562
  0.2499997963094378  0.7499999830746629  0.7500000419808814
  0.7499998019551531  0.2499999591227681  0.2500000288582028
  0.7499997990696230  0.2500000130516327  0.7499999535535916
  0.7499997891542078  0.7500000472351035  0.2499999779698488
  0.7499997992810293  0.7499999773577977  0.7500000213588996
  0.9999975521649043  0.0000000117273438  0.0000000136080930
  0.9999975485827141 -0.0000000136354436  0.4999999933845291
  0.9999975509245370  0.4999999930807990  0.0000000288087562
  0.9999975508858983  0.5000000178270029  0.4999999767357708
  0.4999975558008592  0.0000000002542725  0.9999999923799124
  0.4999975524615931  0.9999999873883161  0.4999999976172758
  0.4999975532255743  0.5000000008190145  0.0000000212022702
  0.4999975551872406  0.5000000025950667  0.4999999745636286
  0.0000020840913306  0.2500000115163638  0.0000000423676500
  0.0000020671822961  0.2500000104964319  0.4999999682302865
  0.0000020890089191  0.7499999888304759  0.0000000382747684
  0.0000020687848720  0.7499999918400047  0.4999999661538401
  0.5000020856941012  0.2500000028933018  0.0000000058896671
  0.5000020959574070  0.2499999941287160  0.4999999961155553
  0.5000020887670479  0.7500000020099761  0.0000000054159322
  0.5000020985660507  0.7500000095212941  0.5000000067030964
  0.9999959420265123  0.9999999780722694  0.2500000002794024
  0.9999959603878850  0.9999999611721270  0.7500000014626229
  0.9999959714386746  0.5000000300382671  0.2500000011405151
  0.9999959540371007  0.5000000305621563  0.7500000007730705
  0.4999959635926856  0.9999999417241043  0.2500000134680172
  0.4999959811788520  0.9999999437270909  0.7499999939320192
  0.4999959878557518  0.5000000658651389  0.2499999929487796
  0.4999959576274700  0.5000000656648759  0.7499999998564978
  0.2500046043283647  0.9999999718124871  0.0000000236759449
  0.2500045989066089  0.9999999787543599  0.4999999761856938
  0.2500046013720327  0.5000000269578028  0.0000000045915144
  0.2500046000935439  0.5000000224725016  0.4999999889269282
  0.7500045981490142  0.9999999731729269  0.0000000199752814
  0.7500045982190018  0.9999999751608819  0.4999999748809321
  0.7500045991210298  0.5000000280560892  0.0000000027446416
  0.7500046005047892  0.5000000241338383  0.4999999910922828
 
  0.00000000E+00  0.00000000E+00  0.00000000E+00
  0.00000000E+00  0.00000000E+00  0.00000000E+00
  0.00000000E+00  0.00000000E+00  0.00000000E+00
  0.00000000E+00  0.00000000E+00  0.00000000E+00
  0.00000000E+00  0.00000000E+00  0.00000000E+00
  0.00000000E+00  0.00000000E+00  0.00000000E+00
  0.00000000E+00  0.00000000E+00  0.00000000E+00
  0.00000000E+00  0.00000000E+00  0.00000000E+00
  0.00000000E+00  0.00000000E+00  0.00000000E+00
  0.00000000E+00  0.00000000E+00  0.00000000E+00
  0.00000000E+00  0.00000000E+00  0.00000000E+00
  0.00000000E+00  0.00000000E+00  0.00000000E+00
  0.00000000E+00  0.00000000E+00  0.00000000E+00
  0.00000000E+00  0.00000000E+00  0.00000000E+00
  0.00000000E+00  0.00000000E+00  0.00000000E+00
  0.00000000E+00  0.00000000E+00  0.00000000E+00
  0.00000000E+00  0.00000000E+00  0.00000000E+00
  0.00000000E+00  0.00000000E+00  0.00000000E+00
  0.00000000E+00  0.00000000E+00  0.00000000E+00
  0.00000000E+00  0.00000000E+00  0.00000000E+00
  0.00000000E+00  0.00000000E+00  0.00000000E+00
  0.00000000E+00  0.00000000E+00  0.00000000E+00
  0.00000000E+00  0.00000000E+00  0.00000000E+00
  0.00000000E+00  0.00000000E+00  0.00000000E+00
  0.00000000E+00  0.00000000E+00  0.00000000E+00
  0.00000000E+00  0.00000000E+00  0.00000000E+00
  0.00000000E+00  0.00000000E+00  0.00000000E+00
  0.00000000E+00  0.00000000E+00  0.00000000E+00
  0.00000000E+00  0.00000000E+00  0.00000000E+00
  0.00000000E+00  0.00000000E+00  0.00000000E+00
  0.00000000E+00  0.00000000E+00  0.00000000E+00
  0.00000000E+00  0.00000000E+00  0.00000000E+00
  0.00000000E+00  0.00000000E+00  0.00000000E+00
  0.00000000E+00  0.00000000E+00  0.00000000E+00
  0.00000000E+00  0.00000000E+00  0.00000000E+00
  0.00000000E+00  0.00000000E+00  0.00000000E+00
  0.00000000E+00  0.00000000E+00  0.00000000E+00
  0.00000000E+00  0.00000000E+00  0.00000000E+00
  0.00000000E+00  0.00000000E+00  0.00000000E+00
  0.00000000E+00  0.00000000E+00  0.00000000E+00
