Na8 Ni8 O16 F8                          
   1.00000000000000     
     8.0645985204085697    0.1370766352223272    0.0498764064723030
    -0.2579113529959609    7.3901678265800044   -0.1796383195181773
    -0.0917253494085354    0.2012549466230515    7.0163418924485956
   Na   Ni   O    F 
     8     8    16     8
Direct
  0.2637267263042153  0.2189306292962492  0.2549262505482445
  0.2316466658825386  0.2726809434313551  0.7458058007348347
  0.2602928528645763  0.7152614950072479  0.2679385958513797
  0.2318720777309926  0.7999320438454486  0.7489721936681305
  0.7623847765667617  0.2213018734490222  0.2495000143404473
  0.7453674758475690  0.2862542358419031  0.7401914325202300
  0.7796130599037894  0.7209523775974039  0.2587429262395101
  0.7145655751052995  0.7622685850382444  0.7410143957521224
  0.9886107083700393  0.9875783243584743  0.0002900640541162
  0.9943321208202343  0.9996529079989899  0.5032790292271844
  0.0125113095393966  0.5073077526707146  0.0046499050310309
  0.0062225503660444  0.5019483943781159  0.5029726151423690
  0.5029488006203271 -0.0003570396233172  0.0033723520699674
  0.4999223105754958  0.0024860468085489  0.4999925212398731
  0.4593215149939132  0.4996926433835905  0.0014724903651052
  0.5025371680196816  0.5030700470252437  0.4958310470600579
  0.2313803658785734  0.4534102936645130  0.0336804952424841
  0.7473512589855429  0.9694185252642956  0.0239666964883397
  0.7966120412445239  0.5557953473721178  0.9664864228764354
  0.9669369297136641  0.2564992582221821  0.5369439423177952
  0.0372727545556768  0.7409656033791278  0.0791244147152545
  0.0379742948351621  0.7448384334870175  0.4614004452340691
  0.5381929038159482  0.2518534736903861  0.4578253862783608
  0.4582366635378525  0.7505598608341240  0.5366153450396837
  0.0304543641618509  0.0477151809233832  0.2449093495570616
  0.9508442303172515  0.9308563099446604  0.7572481536943807
  0.9574057642120986  0.4394365812315734  0.2541443327623975
  0.0716974344942439  0.5529422252563517  0.7559480174577333
  0.4438010164420467  0.9449947860316519  0.2581272383487071
  0.5546982502590344  0.0576036616736882  0.7447991180248887
  0.5302706149189090  0.5733606455432730  0.2474175828524073
  0.4933030031478403  0.4332187035939206  0.7444305888562500
  0.2442124855007594  0.0358412337522637  0.9585112635748250
  0.2493864606261296  0.0411852387321745  0.5467063454550949
  0.2565945118474180  0.4557657604126396  0.4566140035104296
  0.7454969170071304  0.9614050240935662  0.4468000971667442
  0.7532364052807781  0.5421871376280871  0.5351619653014247
  0.9646628562985903  0.2550199150857820  0.9342880650565037
  0.5246013930038607  0.2553919757720639  0.0832735361052672
  0.4595013864042480  0.7507735639039146  0.9166255602388368
 
  0.00000000E+00  0.00000000E+00  0.00000000E+00
  0.00000000E+00  0.00000000E+00  0.00000000E+00
  0.00000000E+00  0.00000000E+00  0.00000000E+00
  0.00000000E+00  0.00000000E+00  0.00000000E+00
  0.00000000E+00  0.00000000E+00  0.00000000E+00
  0.00000000E+00  0.00000000E+00  0.00000000E+00
  0.00000000E+00  0.00000000E+00  0.00000000E+00
  0.00000000E+00  0.00000000E+00  0.00000000E+00
  0.00000000E+00  0.00000000E+00  0.00000000E+00
  0.00000000E+00  0.00000000E+00  0.00000000E+00
  0.00000000E+00  0.00000000E+00  0.00000000E+00
  0.00000000E+00  0.00000000E+00  0.00000000E+00
  0.00000000E+00  0.00000000E+00  0.00000000E+00
  0.00000000E+00  0.00000000E+00  0.00000000E+00
  0.00000000E+00  0.00000000E+00  0.00000000E+00
  0.00000000E+00  0.00000000E+00  0.00000000E+00
  0.00000000E+00  0.00000000E+00  0.00000000E+00
  0.00000000E+00  0.00000000E+00  0.00000000E+00
  0.00000000E+00  0.00000000E+00  0.00000000E+00
  0.00000000E+00  0.00000000E+00  0.00000000E+00
  0.00000000E+00  0.00000000E+00  0.00000000E+00
  0.00000000E+00  0.00000000E+00  0.00000000E+00
  0.00000000E+00  0.00000000E+00  0.00000000E+00
  0.00000000E+00  0.00000000E+00  0.00000000E+00
  0.00000000E+00  0.00000000E+00  0.00000000E+00
  0.00000000E+00  0.00000000E+00  0.00000000E+00
  0.00000000E+00  0.00000000E+00  0.00000000E+00
  0.00000000E+00  0.00000000E+00  0.00000000E+00
  0.00000000E+00  0.00000000E+00  0.00000000E+00
  0.00000000E+00  0.00000000E+00  0.00000000E+00
  0.00000000E+00  0.00000000E+00  0.00000000E+00
  0.00000000E+00  0.00000000E+00  0.00000000E+00
  0.00000000E+00  0.00000000E+00  0.00000000E+00
  0.00000000E+00  0.00000000E+00  0.00000000E+00
  0.00000000E+00  0.00000000E+00  0.00000000E+00
  0.00000000E+00  0.00000000E+00  0.00000000E+00
  0.00000000E+00  0.00000000E+00  0.00000000E+00
  0.00000000E+00  0.00000000E+00  0.00000000E+00
  0.00000000E+00  0.00000000E+00  0.00000000E+00
  0.00000000E+00  0.00000000E+00  0.00000000E+00
