Na4 V4 O8 F4                            
   1.00000000000000     
     5.4940986668175018   -0.0924879463565922    0.0219492496466294
    -2.8500176586581327    4.8125485556332910   -0.0782654956389195
     0.1301841495309332   -0.4410508106952505    9.3418518780356496
   Na   V    O    F 
     4     4     8     4
Direct
  0.0507209393225621  0.9611965142787594  0.9742261576980981
  0.9577936588300581  0.9909222676135605  0.4523572278693220
  0.3311629490939894  0.6768066252319794  0.2805973466146095
  0.7148549829299865  0.2880496910572526  0.7720869328841377
  0.2908147007664335  0.7292624474433077  0.6129921404688797
  0.6437617177074645  0.3252622928118039  0.4109413448234563
  0.6954780158816568  0.2933305901276086  0.1189420229499405
  0.3951404815644833  0.6194508682513358  0.9434906438725822
  0.6271643761554890 -0.0195813946972391  0.9782518061467220
  0.1175014981017083  0.4962290367610091  0.0584755622911503
  0.6079403673684622  0.4781496531301723  0.9736436222614613
  0.3669734083874958  0.9969453992939128  0.4688238317206906
  0.8868430085240411  0.5070320141377740  0.5487400730357654
  0.6926185321945735  0.5559501320793336  0.2764658406800286
  0.2430374497170939  0.5053124544326002  0.7755575232278781
  0.8031337727815083  0.1853078824732487  0.2944299379946602
  0.3504433651453558  0.4612384600345770  0.4795164797001525
  0.2928736243528501  0.0503681713487387  0.1740632767625862
  0.6947869027678280  0.9323039210835231  0.6475180078726052
  0.2369562484069448  0.9664629731067281  0.7588802211252672
 
  0.00000000E+00  0.00000000E+00  0.00000000E+00
  0.00000000E+00  0.00000000E+00  0.00000000E+00
  0.00000000E+00  0.00000000E+00  0.00000000E+00
  0.00000000E+00  0.00000000E+00  0.00000000E+00
  0.00000000E+00  0.00000000E+00  0.00000000E+00
  0.00000000E+00  0.00000000E+00  0.00000000E+00
  0.00000000E+00  0.00000000E+00  0.00000000E+00
  0.00000000E+00  0.00000000E+00  0.00000000E+00
  0.00000000E+00  0.00000000E+00  0.00000000E+00
  0.00000000E+00  0.00000000E+00  0.00000000E+00
  0.00000000E+00  0.00000000E+00  0.00000000E+00
  0.00000000E+00  0.00000000E+00  0.00000000E+00
  0.00000000E+00  0.00000000E+00  0.00000000E+00
  0.00000000E+00  0.00000000E+00  0.00000000E+00
  0.00000000E+00  0.00000000E+00  0.00000000E+00
  0.00000000E+00  0.00000000E+00  0.00000000E+00
  0.00000000E+00  0.00000000E+00  0.00000000E+00
  0.00000000E+00  0.00000000E+00  0.00000000E+00
  0.00000000E+00  0.00000000E+00  0.00000000E+00
  0.00000000E+00  0.00000000E+00  0.00000000E+00
