Na4 Cr4 O8 F4                           
   1.00000000000000     
     5.1643994522192296    0.0043662789158805    0.0225784264772189
    -0.0020163280265416    5.2119569031920303    0.0175431282958559
     0.0190267480629745    0.0404838445461675    7.6721402362483140
   Na   Cr   O    F 
     4     4     8     4
Direct
  0.9792532921418966  0.0250257091038830  0.2449816698687207
  0.0075940881025600  0.9620082055625538  0.7625200455187552
  0.4923874383678007  0.4760079079998966  0.7512673437873038
  0.5225445730585045  0.5418706176840460  0.2557745023889748
  0.4831360378343209  0.9835003940626542  0.9877034352391914
  0.0206533355766232  0.5096195731485675  0.0225393256200889
  0.4816727378569179  0.0163255929680286  0.5295420472679128
  0.0085013761013291  0.4840207310312398  0.4896401342589984
  0.2803931318164041  0.7205333570611216  0.9470208158687766
  0.2158886966184027  0.2280480573601088  0.9641358599084136
  0.7798060536908342  0.7805288401801079  0.0288635590542165
  0.3035150915440143  0.7305175410624418  0.5218994183002056
  0.7076135087724528  0.2571588263525216  0.4599524039261779
  0.2179656148415780  0.2169558558481514  0.5635131247700941
  0.0841687486554175  0.4910626959778378  0.2471682331258521
  0.5805677154554336  0.0060302430504502  0.7472014524829707
  0.7113826441051789  0.2865392772231047  0.0445088373088689
  0.7894987682686245  0.7785999582918895  0.4510016496533807
  0.9191046437180680  0.5208767987333401  0.7406655238178094
  0.4143525034736454  0.9847698172980478  0.2401006178332955
 
  0.00000000E+00  0.00000000E+00  0.00000000E+00
  0.00000000E+00  0.00000000E+00  0.00000000E+00
  0.00000000E+00  0.00000000E+00  0.00000000E+00
  0.00000000E+00  0.00000000E+00  0.00000000E+00
  0.00000000E+00  0.00000000E+00  0.00000000E+00
  0.00000000E+00  0.00000000E+00  0.00000000E+00
  0.00000000E+00  0.00000000E+00  0.00000000E+00
  0.00000000E+00  0.00000000E+00  0.00000000E+00
  0.00000000E+00  0.00000000E+00  0.00000000E+00
  0.00000000E+00  0.00000000E+00  0.00000000E+00
  0.00000000E+00  0.00000000E+00  0.00000000E+00
  0.00000000E+00  0.00000000E+00  0.00000000E+00
  0.00000000E+00  0.00000000E+00  0.00000000E+00
  0.00000000E+00  0.00000000E+00  0.00000000E+00
  0.00000000E+00  0.00000000E+00  0.00000000E+00
  0.00000000E+00  0.00000000E+00  0.00000000E+00
  0.00000000E+00  0.00000000E+00  0.00000000E+00
  0.00000000E+00  0.00000000E+00  0.00000000E+00
  0.00000000E+00  0.00000000E+00  0.00000000E+00
  0.00000000E+00  0.00000000E+00  0.00000000E+00
