Na4 V4 O8 F4                            
   1.00000000000000     
     5.1935211812486326    0.0000077453406724   -0.0000082408802170
     0.0000077913939258    5.2842012760299664   -0.0154599649906216
    -0.0000123716343025   -0.0362182129871032    7.8417988543356216
   Na   V    O    F 
     4     4     8     4
Direct
  0.9776217559245168  0.0290287167819108  0.2501931397090079
  0.0224099032904287  0.9709325608126362  0.7498197669337201
  0.4776213713335150  0.4709703937804415  0.7498066124442084
  0.5224105357116514  0.5290685132831073  0.2501800642308089
  0.5000249825229586  0.0000254391969221  0.9999854928444945
  0.0000250161400028  0.4999753255512941  0.0000143241481447
  0.5000190884299983 -0.0000111100530591  0.4999877447527726
  0.0000186023809544  0.5000103696171847  0.5000121932567353
  0.7124549948953589  0.2619861464606032  0.0391762097775261
  0.2875129376575590  0.7380219910144100  0.9608464632002253
  0.2124511458130738  0.2380181435059904  0.9608218256393111
  0.7875176914061442  0.7619740568107314  0.0391564434702762
  0.2648418206473029  0.7121698418824873  0.5365475856677543
  0.7351137156505360  0.2878429451266864  0.4634156444693154
  0.7648404943943949  0.7878361246020320  0.4634512095903542
  0.2351177446562153  0.2121506761788115  0.5365851741293634
  0.0912391397862027  0.4819388909402977  0.2497849233877647
  0.9087602576913842  0.5180849855850191  0.7502588703175601
  0.5912366696482662  0.0180558932008746  0.7502136130411428
  0.4087621320195213  0.9819200957216188  0.2497426989895210
 
  0.00000000E+00  0.00000000E+00  0.00000000E+00
  0.00000000E+00  0.00000000E+00  0.00000000E+00
  0.00000000E+00  0.00000000E+00  0.00000000E+00
  0.00000000E+00  0.00000000E+00  0.00000000E+00
  0.00000000E+00  0.00000000E+00  0.00000000E+00
  0.00000000E+00  0.00000000E+00  0.00000000E+00
  0.00000000E+00  0.00000000E+00  0.00000000E+00
  0.00000000E+00  0.00000000E+00  0.00000000E+00
  0.00000000E+00  0.00000000E+00  0.00000000E+00
  0.00000000E+00  0.00000000E+00  0.00000000E+00
  0.00000000E+00  0.00000000E+00  0.00000000E+00
  0.00000000E+00  0.00000000E+00  0.00000000E+00
  0.00000000E+00  0.00000000E+00  0.00000000E+00
  0.00000000E+00  0.00000000E+00  0.00000000E+00
  0.00000000E+00  0.00000000E+00  0.00000000E+00
  0.00000000E+00  0.00000000E+00  0.00000000E+00
  0.00000000E+00  0.00000000E+00  0.00000000E+00
  0.00000000E+00  0.00000000E+00  0.00000000E+00
  0.00000000E+00  0.00000000E+00  0.00000000E+00
  0.00000000E+00  0.00000000E+00  0.00000000E+00
