Ti8 O8 F16                              
   1.00000000000000     
     7.4774595245969149    0.0000000214174263   -0.0000000035472266
     0.0000000128647031    7.7397290277553079    0.0000002651565307
    -0.0000000006407762    0.0000002618799452    7.8303317600903490
   Ti   O    F 
     8     8    16
Direct
  0.0111478665080745  0.0128652017821195  0.9999999727730766
  0.9995486511024896  0.9996328954965618  0.4999999417043259
  0.9888394847216404  0.4870654343271171  0.0000000542171800
  0.0002764518575287  0.5003582289205881  0.5000000638648585
  0.4888394355570841  0.0129345711329587  0.9999998912172372
  0.5002763154686686  0.9996417675036887  0.4999998369373511
  0.5111478601660926  0.4871347741870647  0.0000001167788121
  0.4995485629556150  0.5003670900010714  0.5000001364768479
  0.2499969942901591  0.9917348891563282  0.9999999706957571
  0.2500476223144422  0.0007368333234600  0.4999999907387133
  0.2500458448800964  0.4992864835488299  0.5000000375645083
  0.7500458666040078  0.0007135238409197  0.4999999877700551
  0.7499969411679224  0.5082651095312645  0.0000000091574177
  0.7500476339148758  0.4992631629256249  0.5000000336869669
  0.9999727385351594  0.2499942578726044  0.9999999818073070
  0.4999727404877242  0.2500057844945051  0.9999999827580863
  0.9951878188003976  0.9972412242521300  0.2492755761462521
  0.9951878363924580  0.9972412360017999  0.7507243512029382
  0.0048308255957459  0.5027635591349542  0.2492749966131676
  0.0048308423124552  0.5027635618162054  0.7507250895033257
  0.5048308518829828  0.9972364445550917  0.2492748572536853
  0.5048308370896184  0.9972364513955982  0.7507249447220334
  0.4951878403737703  0.5027587676492886  0.2492756963690192
  0.4951878257170239  0.5027587710569351  0.7507244815771569
  0.2499963683391733  0.5135107968895849  0.0000000315039117
  0.7499963603619875  0.9864892028718306  0.9999999492895925
  0.0000503086775367  0.2499979245921349  0.5000000171760823
  0.9999927592640334  0.7500288484991537  0.9999999898704376
  0.0000477124904157  0.7499989820358475  0.5000000105866200
  0.5000503305968891  0.2500020776991571  0.5000000067916927
  0.4999927531409744  0.7499711359655638 -0.0000000080890037
  0.5000477184329428  0.7500010075400105  0.5000000013346015
 
  0.00000000E+00  0.00000000E+00  0.00000000E+00
  0.00000000E+00  0.00000000E+00  0.00000000E+00
  0.00000000E+00  0.00000000E+00  0.00000000E+00
  0.00000000E+00  0.00000000E+00  0.00000000E+00
  0.00000000E+00  0.00000000E+00  0.00000000E+00
  0.00000000E+00  0.00000000E+00  0.00000000E+00
  0.00000000E+00  0.00000000E+00  0.00000000E+00
  0.00000000E+00  0.00000000E+00  0.00000000E+00
  0.00000000E+00  0.00000000E+00  0.00000000E+00
  0.00000000E+00  0.00000000E+00  0.00000000E+00
  0.00000000E+00  0.00000000E+00  0.00000000E+00
  0.00000000E+00  0.00000000E+00  0.00000000E+00
  0.00000000E+00  0.00000000E+00  0.00000000E+00
  0.00000000E+00  0.00000000E+00  0.00000000E+00
  0.00000000E+00  0.00000000E+00  0.00000000E+00
  0.00000000E+00  0.00000000E+00  0.00000000E+00
  0.00000000E+00  0.00000000E+00  0.00000000E+00
  0.00000000E+00  0.00000000E+00  0.00000000E+00
  0.00000000E+00  0.00000000E+00  0.00000000E+00
  0.00000000E+00  0.00000000E+00  0.00000000E+00
  0.00000000E+00  0.00000000E+00  0.00000000E+00
  0.00000000E+00  0.00000000E+00  0.00000000E+00
  0.00000000E+00  0.00000000E+00  0.00000000E+00
  0.00000000E+00  0.00000000E+00  0.00000000E+00
  0.00000000E+00  0.00000000E+00  0.00000000E+00
  0.00000000E+00  0.00000000E+00  0.00000000E+00
  0.00000000E+00  0.00000000E+00  0.00000000E+00
  0.00000000E+00  0.00000000E+00  0.00000000E+00
  0.00000000E+00  0.00000000E+00  0.00000000E+00
  0.00000000E+00  0.00000000E+00  0.00000000E+00
  0.00000000E+00  0.00000000E+00  0.00000000E+00
  0.00000000E+00  0.00000000E+00  0.00000000E+00
