Ti2 O2 F4                               
    1.000000000000000     
     3.7936840724215957    0.0000000121159411   -0.0000032087393567
     0.0000000131107657    3.7936547395602820   -0.0000000131451676
    -0.0000054489247232   -0.0000000219948162    7.8582404808353816
   Ti   O    F 
     2     2     4
Direct
  0.5000888883318045  0.5000000044468998  0.2546297645066511
  0.5000145388479280  0.5000000004637976  0.7546297638764614
  0.5000130824086950  0.0000000003373473  0.7562300564123060
  0.9999268178614763  0.5000000059464257  0.2562301133138798
  0.4999930575182935  0.4999999967093095  0.0052186627870099
  0.4999922160855998  0.4999999893510377  0.5052182370473807
  0.4999850929368107 -0.0000000012547381  0.2554217154676758
  0.9999863060093992  0.5000000039999206  0.7554216865886274
 
  0.00000000E+00  0.00000000E+00  0.00000000E+00
  0.00000000E+00  0.00000000E+00  0.00000000E+00
  0.00000000E+00  0.00000000E+00  0.00000000E+00
  0.00000000E+00  0.00000000E+00  0.00000000E+00
  0.00000000E+00  0.00000000E+00  0.00000000E+00
  0.00000000E+00  0.00000000E+00  0.00000000E+00
  0.00000000E+00  0.00000000E+00  0.00000000E+00
  0.00000000E+00  0.00000000E+00  0.00000000E+00
