Ti2 O2 F4                               
   1.00000000000000     
    -2.6757299851286795   -4.4572862075143505    0.1320932136039194
    -5.3513360473994371   -0.0000740756654633   -0.0000079917479426
    -2.6756937503179929   -1.3563424940606812   -4.4088789856451900
   Ti   O    F 
     2     2     4
Direct
  0.0000047730352435  0.9999995854964752  0.9999892480255426
  0.4999951924504487  0.4999935428610911  0.5000107305844139
  0.2500010380292963  0.6766642565162400  0.2500002497109790
  0.7499989473499795  0.3233356198932427  0.7499997426216538
  0.6650023836619212  0.8354829667216634  0.2480595272493318
  0.3349925268196401  0.1645208104863443  0.7519450271123986
  0.1650149434496981  0.7514560469705955  0.7480554326091067
  0.8349901952037797  0.2485471710543479  0.2519400420865736
 
  0.00000000E+00  0.00000000E+00  0.00000000E+00
  0.00000000E+00  0.00000000E+00  0.00000000E+00
  0.00000000E+00  0.00000000E+00  0.00000000E+00
  0.00000000E+00  0.00000000E+00  0.00000000E+00
  0.00000000E+00  0.00000000E+00  0.00000000E+00
  0.00000000E+00  0.00000000E+00  0.00000000E+00
  0.00000000E+00  0.00000000E+00  0.00000000E+00
  0.00000000E+00  0.00000000E+00  0.00000000E+00
