Na2 Ni2 O4 F2                           
   1.00000000000000     
    -2.7240558255192888   -4.4731736628029184    0.0765737755516540
    -5.4339033076465206   -0.0069920616848917   -0.0072595124461373
    -2.7145538956275344   -1.3791091264622772   -4.1383243169151429
   Na   Ni   O    F 
     2     2     4     2
Direct
  0.2453238921736087  0.2645944734215249  0.2242612556308572
  0.7458308914703977  0.7650550198744526  0.7242819715247322
  0.0096761301072590  0.9915498206413460  0.9832774504440636
  0.5082755821453446  0.5173201640298473  0.4834072128468421
  0.2652034230419034  0.6667324942848296  0.2325016963950404
  0.6729154122149055  0.8320228337843005  0.2407107558909161
  0.1718103779816289  0.7538043104546261  0.7411202907359637
  0.7647226457140519  0.3356898857209032  0.7328701908997530
  0.3312878892842974  0.1890883991800223  0.7494862187741802
  0.8309537558666165  0.2301425986081540  0.2500829568576464
 
  0.00000000E+00  0.00000000E+00  0.00000000E+00
  0.00000000E+00  0.00000000E+00  0.00000000E+00
  0.00000000E+00  0.00000000E+00  0.00000000E+00
  0.00000000E+00  0.00000000E+00  0.00000000E+00
  0.00000000E+00  0.00000000E+00  0.00000000E+00
  0.00000000E+00  0.00000000E+00  0.00000000E+00
  0.00000000E+00  0.00000000E+00  0.00000000E+00
  0.00000000E+00  0.00000000E+00  0.00000000E+00
  0.00000000E+00  0.00000000E+00  0.00000000E+00
  0.00000000E+00  0.00000000E+00  0.00000000E+00
