Na4 Ni4 O8 F4                           
   1.00000000000000     
     4.9077921170380021   -0.0709059601837026    0.0224758500765088
     0.0135605013035186    4.9159113289180816   -0.0202357112321238
     0.0378654958490699    0.0927130550167767    8.4186876444327332
   Na   Ni   O    F 
     4     4     8     4
Direct
 -0.0028698825665952 -0.0034375723722073  0.2371281139368834
  0.9944043859625281  0.0042689322207710  0.7619819049884219
  0.4925632388205212  0.5064393339643138  0.7687593160872949
  0.5018927109051987  0.4855450543943937  0.2370384382495200
  0.4907465270144796  0.9877850697392886  0.0060406169314733
  0.0030288057649119  0.5090387646211714  0.0237648613288264
  0.5008757544259169  0.0029278817436584  0.5034725195758157
  0.0022820635788842  0.5051555496265343  0.4878040519083178
  0.3346162537565924  0.6552812296234749  0.0115342739511373
  0.1649379331859293  0.1694016621483511  0.9944252988816703
  0.8383609420601701  0.8336840510858096  0.9971130500703632
  0.3982069185265051  0.6095188073421166  0.4941718991672048
  0.6084601140567608  0.3978857164918678  0.5067245932124971
  0.8944640341118130  0.8972951671012088  0.4996045551002234
  0.1090440027906054  0.1110443466623804  0.4986861246270061
  0.9857128575804438  0.4945808414426425  0.2508426264771271
  0.6761264834458586  0.3203734439330768  0.9887782724056580
  0.0056722017410354  0.5038847211997860  0.7302249235280166
  0.4981131498516752 -0.0042773034849968  0.7456939921193343
  0.5033615049867732  0.0136043025163451  0.2562105674532098
 
  0.00000000E+00  0.00000000E+00  0.00000000E+00
  0.00000000E+00  0.00000000E+00  0.00000000E+00
  0.00000000E+00  0.00000000E+00  0.00000000E+00
  0.00000000E+00  0.00000000E+00  0.00000000E+00
  0.00000000E+00  0.00000000E+00  0.00000000E+00
  0.00000000E+00  0.00000000E+00  0.00000000E+00
  0.00000000E+00  0.00000000E+00  0.00000000E+00
  0.00000000E+00  0.00000000E+00  0.00000000E+00
  0.00000000E+00  0.00000000E+00  0.00000000E+00
  0.00000000E+00  0.00000000E+00  0.00000000E+00
  0.00000000E+00  0.00000000E+00  0.00000000E+00
  0.00000000E+00  0.00000000E+00  0.00000000E+00
  0.00000000E+00  0.00000000E+00  0.00000000E+00
  0.00000000E+00  0.00000000E+00  0.00000000E+00
  0.00000000E+00  0.00000000E+00  0.00000000E+00
  0.00000000E+00  0.00000000E+00  0.00000000E+00
  0.00000000E+00  0.00000000E+00  0.00000000E+00
  0.00000000E+00  0.00000000E+00  0.00000000E+00
  0.00000000E+00  0.00000000E+00  0.00000000E+00
  0.00000000E+00  0.00000000E+00  0.00000000E+00
