Ni4 O4 F8                               
   1.00000000000000     
     4.8180867291017169   -0.0012602324675285   -0.0198974372253616
     0.0003314331780627    5.0421259141783921   -0.0007759652384965
    -0.0473634350366352    0.0009635108747864    6.9859110579839507
   Ni   O    F 
     4     4     8
Direct
  0.5057868480800459  0.9982436387373941  0.9933631446066200
  0.9958837247349147  0.5066418098802056  0.0033432526127095
  0.4958446681206655  0.9934195659244132  0.5031867550640872
  0.0055431324076534  0.5017003346776560  0.4934178699324451
  0.8449580788796054  0.8200529597229337  0.0669292721161234
  0.3446920777286959  0.6802615204575641  0.5669642768004377
  0.1441345101765183  0.4733345805871119  0.2407870863197555
  0.6440895313550308  0.0267258883068750  0.7405362327778554
  0.6878905234841943  0.3363444853450321  0.0715703772763402
  0.3015910968827357  0.6767459417157212  0.9244925501165445
  0.1593356407719197  0.1905903311922216  0.9426785062348428
  0.6588799815909349  0.3095950745724804  0.4424190801738421
  0.8014288699482822  0.8232708754449077  0.4243966104377169
  0.1878526915470837  0.1635795728145579  0.5712702167884276
  0.8609462335422545  0.5366105483710026  0.7574039845565765
  0.3611423907494792  0.9628828722499158  0.2572407841856682
 
  0.00000000E+00  0.00000000E+00  0.00000000E+00
  0.00000000E+00  0.00000000E+00  0.00000000E+00
  0.00000000E+00  0.00000000E+00  0.00000000E+00
  0.00000000E+00  0.00000000E+00  0.00000000E+00
  0.00000000E+00  0.00000000E+00  0.00000000E+00
  0.00000000E+00  0.00000000E+00  0.00000000E+00
  0.00000000E+00  0.00000000E+00  0.00000000E+00
  0.00000000E+00  0.00000000E+00  0.00000000E+00
  0.00000000E+00  0.00000000E+00  0.00000000E+00
  0.00000000E+00  0.00000000E+00  0.00000000E+00
  0.00000000E+00  0.00000000E+00  0.00000000E+00
  0.00000000E+00  0.00000000E+00  0.00000000E+00
  0.00000000E+00  0.00000000E+00  0.00000000E+00
  0.00000000E+00  0.00000000E+00  0.00000000E+00
  0.00000000E+00  0.00000000E+00  0.00000000E+00
  0.00000000E+00  0.00000000E+00  0.00000000E+00
