Ni4 O4 F8                               
   1.00000000000000     
     4.7737544340301135    0.0490007517950612   -0.0346755005480013
     0.0632912610417355    4.9995204233320738   -0.0601096115563906
    -0.1146569186412999   -0.0068040790505511    7.0570498410976770
   Ni   O    F 
     4     4     8
Direct
  0.4912064874359999  0.0103695472656532  0.9990698278235266
  0.0035744915683867  0.4971667072955099 -0.0011546550914835
  0.4960991968309127  0.0012751207848872  0.4934180775878030
  0.0013477383773774  0.4996968421772076  0.4959007227084012
  0.1517861717808291  0.1810581081115559  0.9249376217207390
  0.8444926181795401  0.8361965792907743  0.4544085344192614
  0.1655683534633227  0.1773249599788583  0.5619640261134513
  0.3691535884654557  0.9552467231566111  0.2590043842270542
  0.6953836179873105  0.3321438633501607  0.0650545995061250
  0.3125234070899393  0.6645188041753054  0.9362482618209904
  0.8380027840422056  0.8128087976827838  0.0774984844837639
  0.3209860269239281  0.6654745737571339  0.5667514210283604
  0.6798203008828954  0.3354399511826310  0.4296273433743424
  0.1452286226451152  0.4452361210328317  0.2334318888082269
  0.8636823384620685  0.5462570185512524  0.7644664799196244
  0.6211442558647180  0.0397862822068232  0.7393729815498056
 
  0.00000000E+00  0.00000000E+00  0.00000000E+00
  0.00000000E+00  0.00000000E+00  0.00000000E+00
  0.00000000E+00  0.00000000E+00  0.00000000E+00
  0.00000000E+00  0.00000000E+00  0.00000000E+00
  0.00000000E+00  0.00000000E+00  0.00000000E+00
  0.00000000E+00  0.00000000E+00  0.00000000E+00
  0.00000000E+00  0.00000000E+00  0.00000000E+00
  0.00000000E+00  0.00000000E+00  0.00000000E+00
  0.00000000E+00  0.00000000E+00  0.00000000E+00
  0.00000000E+00  0.00000000E+00  0.00000000E+00
  0.00000000E+00  0.00000000E+00  0.00000000E+00
  0.00000000E+00  0.00000000E+00  0.00000000E+00
  0.00000000E+00  0.00000000E+00  0.00000000E+00
  0.00000000E+00  0.00000000E+00  0.00000000E+00
  0.00000000E+00  0.00000000E+00  0.00000000E+00
  0.00000000E+00  0.00000000E+00  0.00000000E+00
