Mn8 O8 F16                              
   1.00000000000000     
     7.3320035083083042   -0.0024377905442846   -0.0489399001655603
     0.0106357420306667    7.0372568595379255    0.0837335446152023
    -0.0575862774843831   -0.0545631976844677    7.3024546659562910
   Mn   O    F 
     8     8    16
Direct
  0.0049482235050005  0.9989988599412054  0.9992251544251111
  0.0029361160448560  0.9885775452246234  0.4983016889886471
  0.9965650066646117  0.5026540818372682  0.9870954120034491
  0.9963195380602380  0.5168588426386481  0.5138917908180646
  0.5071512758783717  0.9861987500373093  0.0009732676489654
  0.5000253923455780  0.9970088067647198  0.4965612143260008
  0.4962146963334541  0.5114854318581846  0.0035257684695940
  0.4956026931319478  0.5079385387317255  0.5005092963802652
  0.0390804407279500  0.4402186492731317  0.2435955148980408
  0.9466612619568678  0.5737408993968042  0.7479666833495278
  0.2586569898886726  0.0532097601330481  0.0492667963361130
  0.7531780048695965  0.9224788870542100  0.9592560178333256
  0.0555719040194128  0.7520008750959553  0.4351856267568793
  0.5467013321224492  0.2516117176077667  0.5499170613031151
  0.4415555180260378  0.7499053407776396  0.0677150055462356
  0.4437118243228051  0.7529724882419787  0.4442397777854536
  0.9332889905320144  0.0511285381611105  0.2634742374043387
  0.4516662990957202  0.9478960321226125  0.7595781671019108
  0.2370315674268494  0.0674601903832270  0.4487384080911566
  0.2377409607126690  0.4576977531378041  0.5621827667742857
  0.7344879905301469  0.5401894405585176  0.0660955673898822
  0.7536686449454645  0.5463831601246346  0.4438253041328024
  0.0671394327067939  0.7541486665127041  0.0621315728811970
  0.5503967554920928  0.2488695530534927  0.9437210420689024
  0.0720842787297886  0.9521773854489128  0.7346261358255077
  0.5706949598627398  0.0460884615973126  0.2384424575431681
  0.4455493416150039  0.4296420531941192  0.2362685653282327
  0.5465901160995682  0.5720274582720011  0.7669611004912225
  0.2618518674875289  0.4523162944032769  0.9353390401806215
  0.7647525716851484  0.9349082460746241  0.5570802707314277
  0.9412131909328443  0.2423217638331261  0.9313536379340942
  0.9469628142477418  0.2508855285083130  0.5529556492524544
 
  0.00000000E+00  0.00000000E+00  0.00000000E+00
  0.00000000E+00  0.00000000E+00  0.00000000E+00
  0.00000000E+00  0.00000000E+00  0.00000000E+00
  0.00000000E+00  0.00000000E+00  0.00000000E+00
  0.00000000E+00  0.00000000E+00  0.00000000E+00
  0.00000000E+00  0.00000000E+00  0.00000000E+00
  0.00000000E+00  0.00000000E+00  0.00000000E+00
  0.00000000E+00  0.00000000E+00  0.00000000E+00
  0.00000000E+00  0.00000000E+00  0.00000000E+00
  0.00000000E+00  0.00000000E+00  0.00000000E+00
  0.00000000E+00  0.00000000E+00  0.00000000E+00
  0.00000000E+00  0.00000000E+00  0.00000000E+00
  0.00000000E+00  0.00000000E+00  0.00000000E+00
  0.00000000E+00  0.00000000E+00  0.00000000E+00
  0.00000000E+00  0.00000000E+00  0.00000000E+00
  0.00000000E+00  0.00000000E+00  0.00000000E+00
  0.00000000E+00  0.00000000E+00  0.00000000E+00
  0.00000000E+00  0.00000000E+00  0.00000000E+00
  0.00000000E+00  0.00000000E+00  0.00000000E+00
  0.00000000E+00  0.00000000E+00  0.00000000E+00
  0.00000000E+00  0.00000000E+00  0.00000000E+00
  0.00000000E+00  0.00000000E+00  0.00000000E+00
  0.00000000E+00  0.00000000E+00  0.00000000E+00
  0.00000000E+00  0.00000000E+00  0.00000000E+00
  0.00000000E+00  0.00000000E+00  0.00000000E+00
  0.00000000E+00  0.00000000E+00  0.00000000E+00
  0.00000000E+00  0.00000000E+00  0.00000000E+00
  0.00000000E+00  0.00000000E+00  0.00000000E+00
  0.00000000E+00  0.00000000E+00  0.00000000E+00
  0.00000000E+00  0.00000000E+00  0.00000000E+00
  0.00000000E+00  0.00000000E+00  0.00000000E+00
  0.00000000E+00  0.00000000E+00  0.00000000E+00
