Na4 Mn4 O8 F4                           
   1.00000000000000     
     5.2529593361854729   -0.0185257270962797    0.0025823635593117
    -0.0120942025291650    5.3111955693779764    0.0005268692642321
     0.0014865657497566    0.0011531212890658    7.2240683166763402
   Na   Mn   O    F 
     4     4     8     4
Direct
  0.0056333182725857  0.0494575442686013  0.2500127920731582
  0.0045980102613384  0.9674139677403062  0.7510816436119913
  0.4881263043238611  0.4479285520776625  0.7460064388148061
  0.4931465135834128  0.5313993086792794  0.2457357786139761
  0.5024922943514104  0.9666245483651529  0.0012881305385079
  0.9986309090203769  0.5287367926115963  0.0036993536181509
  0.5302119898168990  0.9968111486203490  0.4977540051646234
  0.9670746517977010  0.5026150594964544  0.4991179245115805
  0.3000992419068599  0.6958446989072001  0.9569502095107890
  0.8036593655988635  0.8031568677812110  0.0422500517084925
  0.6921707430251776  0.3011497866384185  0.4585265036055430
  0.8093066619277930  0.8044267701633701  0.4625479096773424
  0.0682091617732873  0.4823761691094814  0.2510913652841836
  0.9248240931531673  0.5050913316105986  0.7515115650097361
  0.5681037366544308  0.0219705266136674  0.7503921020325166
  0.4282179815108565  0.9791731226360982  0.2502841899723637
  0.7070528977073469  0.2950092854088114  0.0390492949881745
  0.2089937710492730  0.2020545151937274  0.9673722860448637
  0.2992085661134274  0.7085794790134591  0.5396962301577229
  0.2002397881519314  0.2101805250645620  0.5356322250614703
 
  0.00000000E+00  0.00000000E+00  0.00000000E+00
  0.00000000E+00  0.00000000E+00  0.00000000E+00
  0.00000000E+00  0.00000000E+00  0.00000000E+00
  0.00000000E+00  0.00000000E+00  0.00000000E+00
  0.00000000E+00  0.00000000E+00  0.00000000E+00
  0.00000000E+00  0.00000000E+00  0.00000000E+00
  0.00000000E+00  0.00000000E+00  0.00000000E+00
  0.00000000E+00  0.00000000E+00  0.00000000E+00
  0.00000000E+00  0.00000000E+00  0.00000000E+00
  0.00000000E+00  0.00000000E+00  0.00000000E+00
  0.00000000E+00  0.00000000E+00  0.00000000E+00
  0.00000000E+00  0.00000000E+00  0.00000000E+00
  0.00000000E+00  0.00000000E+00  0.00000000E+00
  0.00000000E+00  0.00000000E+00  0.00000000E+00
  0.00000000E+00  0.00000000E+00  0.00000000E+00
  0.00000000E+00  0.00000000E+00  0.00000000E+00
  0.00000000E+00  0.00000000E+00  0.00000000E+00
  0.00000000E+00  0.00000000E+00  0.00000000E+00
  0.00000000E+00  0.00000000E+00  0.00000000E+00
  0.00000000E+00  0.00000000E+00  0.00000000E+00
