Mn4 O4 F8                               
   1.00000000000000     
     4.8921232560290973   -0.0027697133063833    0.0443909990917564
     0.0249235740311593    5.2185616475631980   -0.0784739165714157
     0.0590542832885531   -0.1482031925298075    7.2365932067980498
   Mn   O    F 
     4     4     8
Direct
  0.4976150417440516  0.0014527716925792  0.0055447462906607
  0.0207618831268505  0.4796152223994408  0.9956202744678442
  0.5067772651021234  0.0181052838031680  0.5090006502819285
  0.9795780709690496  0.4881863421368977  0.4971278880336130
  0.6060032610821972  0.0546718030209383  0.7534370020261250
  0.3760443845081100  0.9871446288052339  0.2507241548778837
  0.2027213539365243  0.1759635870999100  0.9260557884813232
  0.6693884814336513  0.3075335397158450  0.4430847965835975
  0.1308688189227181  0.4634271263862506  0.2432061905345718
  0.8838263316580705  0.5292352312882376  0.7568857987437975
  0.6753610814913331  0.2948771346966537  0.0711332729222153
  0.3474156568278157  0.6949665434432644  0.9395628288041536
  0.8211076193120928  0.8000264062102257  0.0558372824985884
  0.2976388593338748  0.7033889286456761  0.5450567459734234
  0.8021286753750220  0.8212181480760056  0.4445964902859341
  0.1827632151765011  0.1801873025796801  0.5631260891943612
 
  0.00000000E+00  0.00000000E+00  0.00000000E+00
  0.00000000E+00  0.00000000E+00  0.00000000E+00
  0.00000000E+00  0.00000000E+00  0.00000000E+00
  0.00000000E+00  0.00000000E+00  0.00000000E+00
  0.00000000E+00  0.00000000E+00  0.00000000E+00
  0.00000000E+00  0.00000000E+00  0.00000000E+00
  0.00000000E+00  0.00000000E+00  0.00000000E+00
  0.00000000E+00  0.00000000E+00  0.00000000E+00
  0.00000000E+00  0.00000000E+00  0.00000000E+00
  0.00000000E+00  0.00000000E+00  0.00000000E+00
  0.00000000E+00  0.00000000E+00  0.00000000E+00
  0.00000000E+00  0.00000000E+00  0.00000000E+00
  0.00000000E+00  0.00000000E+00  0.00000000E+00
  0.00000000E+00  0.00000000E+00  0.00000000E+00
  0.00000000E+00  0.00000000E+00  0.00000000E+00
  0.00000000E+00  0.00000000E+00  0.00000000E+00
