Sodium catena-vanadate - beta           
   1.00000000000000     
    14.2456384613549378    0.0000000042140033   -0.0000017129252258
    -0.0000000014460418    3.6018824288407436    0.0000000109495946
    -0.0000006540616962    0.0000000171645533    5.3150558122135561
   Na   V    O 
     4     4    12
Direct
  0.3277011383638424  0.2499999896483445  0.8841468844891978
  0.6722989318382915  0.7500000059144867  0.1158517971814419
  0.1722989420430139  0.7499999952006817  0.3841481168469230
  0.8277010922480699  0.2500000101701332  0.6158534677833316
  0.0861252119806863  0.2500000009174528  0.9239288003310477
  0.9138745021682908  0.7500000005345981  0.0760736589243081
  0.4138755398913219  0.7499999986728056  0.4239267844486747
  0.5861260403315782  0.2499999989474375  0.5760717597025504
  0.1857663263201133  0.2499999983973993  0.0904671603622162
  0.8142335579165660  0.7499999989817780  0.9095240874619677
  0.3142331914331891  0.7500000021284023  0.5904764590645328
  0.6857661285483942  0.2500000026858658  0.4095331931220088
  0.1119064265676073  0.2499999988655688  0.6217296614832932
  0.8880904482023269  0.7499999990507931  0.3782703322856023
  0.3880904582833509  0.7500000001185043  0.1217286223330234
  0.6119065284482588  0.2500000014404122  0.8782694085662186
  0.9476654222110668  0.2500000021638513  0.0032485176154537
  0.0523372312163133  0.7500000004478053  0.9967593680944162
  0.5523373453844158  0.7499999982578984  0.5032404968013822
  0.4476655216033052  0.2499999974557809  0.4967514031023939
 
  0.00000000E+00  0.00000000E+00  0.00000000E+00
  0.00000000E+00  0.00000000E+00  0.00000000E+00
  0.00000000E+00  0.00000000E+00  0.00000000E+00
  0.00000000E+00  0.00000000E+00  0.00000000E+00
  0.00000000E+00  0.00000000E+00  0.00000000E+00
  0.00000000E+00  0.00000000E+00  0.00000000E+00
  0.00000000E+00  0.00000000E+00  0.00000000E+00
  0.00000000E+00  0.00000000E+00  0.00000000E+00
  0.00000000E+00  0.00000000E+00  0.00000000E+00
  0.00000000E+00  0.00000000E+00  0.00000000E+00
  0.00000000E+00  0.00000000E+00  0.00000000E+00
  0.00000000E+00  0.00000000E+00  0.00000000E+00
  0.00000000E+00  0.00000000E+00  0.00000000E+00
  0.00000000E+00  0.00000000E+00  0.00000000E+00
  0.00000000E+00  0.00000000E+00  0.00000000E+00
  0.00000000E+00  0.00000000E+00  0.00000000E+00
  0.00000000E+00  0.00000000E+00  0.00000000E+00
  0.00000000E+00  0.00000000E+00  0.00000000E+00
  0.00000000E+00  0.00000000E+00  0.00000000E+00
  0.00000000E+00  0.00000000E+00  0.00000000E+00
