Fe2 O2 F4                               
   1.00000000000000     
    -2.6229916150230395   -4.1513720138787447   -0.0798706028783481
    -5.1037763698944500   -0.0979433666303904    0.0092661865925330
    -2.5816932501447614   -1.4701806244046032   -4.5551296022403536
   Fe   O    F 
     2     2     4
Direct
  0.9956189884174962  0.0024933974140241  0.0006081899850360
  0.4963256593327245  0.5045206506786492  0.5079928066555077
  0.1727570427377928  0.7043804616051101  0.7736292760857209
  0.7433012846390494  0.3890462307954194  0.7236980933317443
  0.2352033318422980  0.6341108186212393  0.2769579607084533
  0.6101179870662246  0.8941493890209208  0.2288252805551957
  0.3795837650593255  0.1122792399730419  0.7406837382846218
  0.8670919409050892  0.2590198118915948  0.2476046543937202
 
  0.00000000E+00  0.00000000E+00  0.00000000E+00
  0.00000000E+00  0.00000000E+00  0.00000000E+00
  0.00000000E+00  0.00000000E+00  0.00000000E+00
  0.00000000E+00  0.00000000E+00  0.00000000E+00
  0.00000000E+00  0.00000000E+00  0.00000000E+00
  0.00000000E+00  0.00000000E+00  0.00000000E+00
  0.00000000E+00  0.00000000E+00  0.00000000E+00
  0.00000000E+00  0.00000000E+00  0.00000000E+00
