Na4 Cr4 O8 F4                           
   1.00000000000000     
     5.0882251579971625    0.0000720964065513    0.0000377011217249
     0.0000704016219165    5.1658130540283453    0.0007401663130769
     0.0000519716630381   -0.0077763172560293    7.7499551764120795
   Na   Cr   O    F 
     4     4     8     4
Direct
  0.9788350443562737  0.0385547635021862  0.2503024834437411
  0.0211786452843470  0.9614747931841334  0.7497087219661946
  0.4788254184112475  0.4614329515733027  0.7496962971834960
  0.5211905116942872  0.5385300017926190  0.2502865236771982
  0.4999770860031848 -0.0001579165160048  0.0000241693492147
 -0.0000241197650750  0.5001712849488509 -0.0000098396134899
  0.5000200709422441 -0.0001286273103319  0.4999615229740679
 -0.0000166884330489  0.5001646330638965  0.5000210708849865
  0.7106716442170600  0.2858522194902702  0.0393911844716990
  0.2893130749632600  0.7141392366645437  0.9606028604184321
  0.2106779150999534  0.2141351912378706  0.9605928318296120
  0.7893087559215257  0.7858561234829563  0.0393784348223014
  0.2887382797894903  0.7148797065907834  0.5394721341131405
  0.7112588313267065  0.2851048065850338  0.4605441801639193
  0.7887416281068619  0.7851022433169935  0.4605506737527333
  0.2112498138257229  0.2148905208396243  0.5394722995102530
  0.0843365409264998  0.4844834414242553  0.2500456478393507
  0.9156864979197843  0.5154749171434786  0.7499601022346395
  0.5843412959059899  0.0155180856485008  0.7499605358295193
  0.4156897535036994  0.9845216233370374  0.2500381651489836
 
  0.00000000E+00  0.00000000E+00  0.00000000E+00
  0.00000000E+00  0.00000000E+00  0.00000000E+00
  0.00000000E+00  0.00000000E+00  0.00000000E+00
  0.00000000E+00  0.00000000E+00  0.00000000E+00
  0.00000000E+00  0.00000000E+00  0.00000000E+00
  0.00000000E+00  0.00000000E+00  0.00000000E+00
  0.00000000E+00  0.00000000E+00  0.00000000E+00
  0.00000000E+00  0.00000000E+00  0.00000000E+00
  0.00000000E+00  0.00000000E+00  0.00000000E+00
  0.00000000E+00  0.00000000E+00  0.00000000E+00
  0.00000000E+00  0.00000000E+00  0.00000000E+00
  0.00000000E+00  0.00000000E+00  0.00000000E+00
  0.00000000E+00  0.00000000E+00  0.00000000E+00
  0.00000000E+00  0.00000000E+00  0.00000000E+00
  0.00000000E+00  0.00000000E+00  0.00000000E+00
  0.00000000E+00  0.00000000E+00  0.00000000E+00
  0.00000000E+00  0.00000000E+00  0.00000000E+00
  0.00000000E+00  0.00000000E+00  0.00000000E+00
  0.00000000E+00  0.00000000E+00  0.00000000E+00
  0.00000000E+00  0.00000000E+00  0.00000000E+00
