Na4 V4 O8 F4                            
   1.00000000000000     
     5.2919254799597661    0.1747926747399949    0.0248715115526494
     0.1772695419898053    5.3234844453775354    0.0102735948571217
    -0.0031696715938443    0.0103140665592717    7.6897103830051208
   Na   V    O    F 
     4     4     8     4
Direct
  0.9818170338461414  0.0301642733219438  0.2605322304231947
  0.0061733295770381  0.9816836846133299  0.7489918071933914
  0.5068924603715246  0.4694670268976466  0.7483866841849434
  0.5290742198288285  0.5418960454382002  0.2570436732782255
  0.4918757181427225  0.9938644264903402  0.9918442828226262
  0.0428804559372082  0.5259151484427491  0.0209361529943735
  0.4922468599239380  0.9793731389747933  0.5246589010123941
  0.0274921745698578  0.5136004207170117  0.4920533443056598
  0.2829976803778180  0.7143481589150937  0.9587383237243756
  0.1953026137737481  0.2259822379533887  0.9625494181756551
  0.7848541925886678  0.7640206505357909  0.0298465693771490
  0.2852014521067758  0.7155394422518668  0.5406667072886648
  0.7760093776686006  0.7605645013867672  0.4604885144902724
  0.1939191497259429  0.2157175435462051  0.5267314993494168
  0.0888913678989098  0.4973439490880054  0.2439270638525386
  0.5686910983556359  0.0265959310160611  0.7402143567707071
  0.7024616881595094  0.2793293022781711  0.0450697864680976
  0.7042146692820097  0.2691228262190108  0.4478009444108864
  0.9229521995622392  0.5176492819388301  0.7473779518740997
  0.4160522583028836  0.9778220099748012  0.2521417880033496
 
  0.00000000E+00  0.00000000E+00  0.00000000E+00
  0.00000000E+00  0.00000000E+00  0.00000000E+00
  0.00000000E+00  0.00000000E+00  0.00000000E+00
  0.00000000E+00  0.00000000E+00  0.00000000E+00
  0.00000000E+00  0.00000000E+00  0.00000000E+00
  0.00000000E+00  0.00000000E+00  0.00000000E+00
  0.00000000E+00  0.00000000E+00  0.00000000E+00
  0.00000000E+00  0.00000000E+00  0.00000000E+00
  0.00000000E+00  0.00000000E+00  0.00000000E+00
  0.00000000E+00  0.00000000E+00  0.00000000E+00
  0.00000000E+00  0.00000000E+00  0.00000000E+00
  0.00000000E+00  0.00000000E+00  0.00000000E+00
  0.00000000E+00  0.00000000E+00  0.00000000E+00
  0.00000000E+00  0.00000000E+00  0.00000000E+00
  0.00000000E+00  0.00000000E+00  0.00000000E+00
  0.00000000E+00  0.00000000E+00  0.00000000E+00
  0.00000000E+00  0.00000000E+00  0.00000000E+00
  0.00000000E+00  0.00000000E+00  0.00000000E+00
  0.00000000E+00  0.00000000E+00  0.00000000E+00
  0.00000000E+00  0.00000000E+00  0.00000000E+00
