Cr4 O4 F8                               
   1.00000000000000     
     5.0779640275765709    0.0000024883241263   -0.0000386947275053
     0.0000907337025253    5.2256752096905670   -0.0000348094336867
     0.0174850225864620   -0.0000438183793673    6.9496200579408631
   Cr   O    F 
     4     4     8
Direct
  0.4998847949457212  0.0014299681039955 -0.0001341991894056
 -0.0001123363833748  0.5017307979237277 -0.0003879734793822
  0.4998823939647059  0.9982769093532803  0.4996040177282615
 -0.0001055470879552  0.4985818016869290  0.4998873459569951
  0.0676205067155555  0.4837446272914135  0.2550257174336744
  0.9324968243349674  0.5159642326548808  0.7447989589236845
  0.5676177834951261  0.0161898438910995  0.7550250068054930
  0.4324993080371402  0.9840707582524538  0.2448031701588696
  0.6820516367855011  0.3144807733740579  0.0447409625463706
  0.3182341171407099  0.6870109681175832  0.9556135500277801
  0.1822714312506250  0.1867797479812768  0.9554204252067140
  0.8175795881809312  0.8147829752993897  0.0449321305360560
  0.3175523140816787  0.6852109292623565  0.5448933141101591
  0.6822638639828057  0.3132318559371228  0.4554477925357785
  0.8182312599635497  0.8129752893217080  0.4555765441718632
  0.1820320605923054  0.1855385215487181  0.5447532365270813
 
  0.00000000E+00  0.00000000E+00  0.00000000E+00
  0.00000000E+00  0.00000000E+00  0.00000000E+00
  0.00000000E+00  0.00000000E+00  0.00000000E+00
  0.00000000E+00  0.00000000E+00  0.00000000E+00
  0.00000000E+00  0.00000000E+00  0.00000000E+00
  0.00000000E+00  0.00000000E+00  0.00000000E+00
  0.00000000E+00  0.00000000E+00  0.00000000E+00
  0.00000000E+00  0.00000000E+00  0.00000000E+00
  0.00000000E+00  0.00000000E+00  0.00000000E+00
  0.00000000E+00  0.00000000E+00  0.00000000E+00
  0.00000000E+00  0.00000000E+00  0.00000000E+00
  0.00000000E+00  0.00000000E+00  0.00000000E+00
  0.00000000E+00  0.00000000E+00  0.00000000E+00
  0.00000000E+00  0.00000000E+00  0.00000000E+00
  0.00000000E+00  0.00000000E+00  0.00000000E+00
  0.00000000E+00  0.00000000E+00  0.00000000E+00
