Cr4 O4 F8                               
   1.00000000000000     
     4.9209542484902977    0.1266527029657617   -0.0002820524938090
     0.1170566361875189    5.1490197494044052    0.0004124111176699
    -0.0005132875635920    0.0005047608825166    7.2731804195276801
   Cr   O    F 
     4     4     8
Direct
  0.5002207862547632  0.9994195554628389  0.0000587325041465
  0.0001681451858115  0.4996893754430509  0.0001155260985302
  0.4998932851855605  0.0005082628032699  0.5000966017511712
  0.9997272747501660  0.5003089274226850  0.5000643753102316
  0.2113268519990236  0.2266255173244539  0.9622770762956673
  0.7888262285465747  0.7730483615780182  0.0376643739376528
  0.7887026023900229  0.7733897011555160  0.4622648390442137
  0.2111695091067257  0.2269533386563836  0.5376781270370148
  0.7085761799388207  0.2881643565663409  0.0670122350553236
  0.2913970276224953  0.7115071228094308  0.9328608930674683
  0.2914211599691037  0.7117937733699552  0.5670185709099812
  0.7085885391923922  0.2884960571926254  0.4328531251738940
  0.1219254062100711  0.5012950995672114  0.2500219922220021
  0.8780369567181173  0.4987312866575930  0.7500037449363651
  0.6135975728002198  0.0342872284140980  0.7500086179616187
  0.3864224741301386  0.9657820355765218  0.2500011686947259
 
  0.00000000E+00  0.00000000E+00  0.00000000E+00
  0.00000000E+00  0.00000000E+00  0.00000000E+00
  0.00000000E+00  0.00000000E+00  0.00000000E+00
  0.00000000E+00  0.00000000E+00  0.00000000E+00
  0.00000000E+00  0.00000000E+00  0.00000000E+00
  0.00000000E+00  0.00000000E+00  0.00000000E+00
  0.00000000E+00  0.00000000E+00  0.00000000E+00
  0.00000000E+00  0.00000000E+00  0.00000000E+00
  0.00000000E+00  0.00000000E+00  0.00000000E+00
  0.00000000E+00  0.00000000E+00  0.00000000E+00
  0.00000000E+00  0.00000000E+00  0.00000000E+00
  0.00000000E+00  0.00000000E+00  0.00000000E+00
  0.00000000E+00  0.00000000E+00  0.00000000E+00
  0.00000000E+00  0.00000000E+00  0.00000000E+00
  0.00000000E+00  0.00000000E+00  0.00000000E+00
  0.00000000E+00  0.00000000E+00  0.00000000E+00
