Na15 Ti16 O16 F32
1.0
  11.1158372347238696    0.1316377506668963   -0.0258840200310680
   0.1626347688863167   11.2937653173804353   -0.0206533222475014
   0.0158867079496987    0.0129871619864008    7.8392534083335716
Na Ti O F
15 16 16 32
direct
   0.4965186879365139    0.5125995531646369    0.2497228038145926 Na
   0.9967157003774793    0.0143636085328265    0.2504449319157867 Na
   0.9967335795400879    0.5144838789970028    0.2498135287639455 Na
   0.4965333747427298    0.0178456846191928    0.2503580316591520 Na
   0.0010860372216926    0.4848553110034898    0.7501083109750016 Na
   0.9998023182089917    0.9841486770188227    0.7499206704316479 Na
   0.4993290952623148    0.9894076508209247    0.7496896172371718 Na
   0.2486329814015170    0.2271807501073403    0.7498341127149412 Na
   0.2520757258663370    0.7205654736542046    0.7497419190529286 Na
   0.7471806885052270    0.2271320017303520    0.7498205494769763 Na
   0.7466027394856332    0.7232388174011435    0.7500157001169589 Na
   0.2538124740114122    0.2744478089508538    0.2504444911480647 Na
   0.2480471072313307    0.7667856275370148    0.2494307433441075 Na
   0.7455553025428600    0.2691215921105239    0.2501064651268974 Na
   0.7429184620715948    0.7654047384578516    0.2489162212425607 Na
   0.2374791900789019    0.0041762195143964    0.0142254871989827 Ti
   0.2386736582081179    0.5041721594745645    0.0124359663347789 Ti
   0.7370564958710571    0.0053544235773944    0.0145765327964948 Ti
   0.7355234164253889    0.5039375256671736    0.0130677467702589 Ti
   0.0028989329736978    0.2401027546915417    0.9808946890571854 Ti
   0.0030944774286981    0.7402136277287029    0.9804339314149798 Ti
   0.5023109291102946    0.2428955134860174    0.9792905141448870 Ti
   0.5034113240406449    0.7411647914740011    0.9798312382278911 Ti
   0.2375461577048976    0.0042348453022168    0.4861820331041865 Ti
   0.2386430022069124    0.5044596857591996    0.4875291255925574 Ti
   0.7371034947284614    0.0055291837164942    0.4861621101457490 Ti
   0.7355847800862659    0.5043567643234083    0.4864327214901527 Ti
   0.0031044475371339    0.2403359617210089    0.5189880867468174 Ti
   0.0029990366342685    0.7402912144232605    0.5197516683147099 Ti
   0.5025564981178530    0.2433146421643236    0.5209280788122035 Ti
   0.5033831789002046    0.7413641985415483    0.5203962473869318 Ti
   0.1043065608572366    0.1042032261086384    0.9662914469945830 O
   0.1048529510264474    0.6056870471415118    0.9670778247803261 O
   0.6053714074373879    0.1059105011010328    0.9688400404691461 O
   0.6080745888645467    0.6098955737348521    0.9784123479638217 O
   0.1045410577780688    0.1044703258149697    0.5340922918184591 O
   0.1045597310914720    0.6056575127343036    0.5332345971519736 O
   0.6057345198273525    0.1064550274556786    0.5317855118971410 O
   0.6079883299710266    0.6101460868925295    0.5213377350989514 O
   0.4608318486267761    0.2513126744975437    0.7500820477205226 O
   0.4638990507281331    0.7635703937526435    0.7502370048248042 O
   0.9615798054051837    0.2584964854946274    0.7499180697501021 O
   0.9606976177403302    0.7589196971809753    0.7501775733361482 O
   0.2168854163949199    0.4919448446318324    0.2500505427491858 O
   0.2170871684454188    0.9860309053691858    0.2502404508435738 O
   0.7195377225640627    0.4852706418994293    0.2498446246158502 O
   0.7176421047699736    0.9864674019072326    0.2504603918797334 O
   0.3510482018743076    0.1489078540511415    0.0497932332918817 F
   0.3506037130996227    0.6498920490362454    0.0452874575117455 F
   0.8509150823750263    0.1494590860680885    0.0516589869678873 F
   0.8516604355569087    0.6486171669211762    0.0497889578293182 F
   0.1525139655853447    0.3486055336296186    0.9551673486482940 F
   0.1545059179580342    0.8482639814168397    0.9513351911702288 F
   0.6556731108037333    0.3457250743708523    0.9602966498308489 F
   0.6546033401372416    0.8502280991612394    0.9532973120014473 F
   0.3949279667300104    0.3926353388959878    0.0467473929433030 F
   0.4010315976415775    0.9011224717354369    0.0344121548322951 F
   0.9019058835191730    0.3993447370869786    0.0344119551152242 F
   0.9019511465759562    0.9005363303388693    0.0343180898532994 F
   0.1530658553966243    0.3485404834017771    0.5441731172660695 F
   0.1543725096468501    0.8485019702415596    0.5493524206062573 F
   0.6559406714103755    0.3462561487867962    0.5396706717436338 F
   0.6541092487592858    0.8510432367358716    0.5486113799081311 F
   0.3512573766598949    0.1489372247970781    0.4508533137231232 F
   0.3499248411475989    0.6507322401658360    0.4555550450900383 F
   0.8509786689038855    0.1495468414137977    0.4489195925077578 F
   0.8510527846977405    0.6494880600353024    0.4501076752729053 F
   0.3953843531494081    0.3931095145908360    0.4534696551062347 F
   0.4012836185797592    0.9015396519760441    0.4662615979153955 F
   0.9023291168065922    0.3996456311701011    0.4654114649648070 F
   0.9022321739452347    0.9009919927950854    0.4669936673341732 F
   0.0365656003820749    0.2487918443584795    0.2498528770817542 F
   0.0350808391962782    0.7510784955699348    0.2500681527809234 F
   0.5352210574955133    0.2465723452203277    0.2500206027033071 F
   0.5297772487068405    0.7553540264320798    0.2501366649647364 F
   0.2921236938970911    0.0143881700589492    0.7501794615444527 F
   0.2820391258235760    0.5085385095288377    0.7499015593142333 F
   0.7927899543602761    0.0159799532404237    0.7503482910140252 F
   0.7923707231912970    0.5138709053799844    0.7497162827084431 F
