Ni4 O4 F8                               
   1.00000000000000     
     4.9185929188391784   -0.0441748121659280   -0.0844487098185326
    -0.0254648240659218    5.0816905686274820    0.0051004344290881
    -0.0689192068944473   -0.0271457487269156    7.1167907366846963
   Ni   O    F 
     4     4     8
Direct
  0.5034079005028282  0.0011505041975506  0.0016682048000825
  0.0043223916127175  0.5023091063990894  0.9998089619547215
  0.4916355789450387 -0.0001499644833008  0.4964736203343519
  0.9991897461474274  0.4980240469179121  0.4981782322585123
  0.1573498394979184  0.1913721698075957  0.5572348397111685
  0.1082934594187600  0.4801159603708351  0.2543147284967407
  0.8983920892388623  0.5229732668390206  0.7463946499868129
  0.3753074937022964  0.9275952875797195  0.2620120410243815
  0.6723133328419112  0.3160499751576583  0.0637485421098085
  0.3352655627445697  0.6875314875581430  0.9344933536064283
  0.1827120139947618  0.1755187756785609  0.9420588470613181
  0.8236227609877028  0.8278271755386957  0.0605455791005174
  0.3342873215144538  0.6929508662950153  0.5715922289294219
  0.6608660882011452  0.3047334758043777  0.4261527724081977
  0.8347690483132609  0.8123740120957427  0.4470111631759406
  0.6182653723363389  0.0596238542433772  0.7383122350415954
 
  0.00000000E+00  0.00000000E+00  0.00000000E+00
  0.00000000E+00  0.00000000E+00  0.00000000E+00
  0.00000000E+00  0.00000000E+00  0.00000000E+00
  0.00000000E+00  0.00000000E+00  0.00000000E+00
  0.00000000E+00  0.00000000E+00  0.00000000E+00
  0.00000000E+00  0.00000000E+00  0.00000000E+00
  0.00000000E+00  0.00000000E+00  0.00000000E+00
  0.00000000E+00  0.00000000E+00  0.00000000E+00
  0.00000000E+00  0.00000000E+00  0.00000000E+00
  0.00000000E+00  0.00000000E+00  0.00000000E+00
  0.00000000E+00  0.00000000E+00  0.00000000E+00
  0.00000000E+00  0.00000000E+00  0.00000000E+00
  0.00000000E+00  0.00000000E+00  0.00000000E+00
  0.00000000E+00  0.00000000E+00  0.00000000E+00
  0.00000000E+00  0.00000000E+00  0.00000000E+00
  0.00000000E+00  0.00000000E+00  0.00000000E+00
