Na1 Ti16 O16 F32                        
   1.00000000000000     
    11.4441319999999997    0.1412900000000000   -0.0000760000000000
     0.1380340000000000   11.5027410000000003    0.0002030000000000
    -0.0000500000000000    0.0001450000000000    8.0132809999999992
   Na   Ti   O    F 
     1    16    16    32
Direct
  0.4942618793382112  0.4716367149180966  0.3585610845806133
  0.2249504918176129  0.0134140390687760  0.0032308690463028
  0.2219283582082489  0.5320314554303788  0.0074506291978412
  0.7447205730188703  0.0229471648088815  0.0071423077204421
  0.7249553860949680  0.5226055839022122  0.0040361837203206
  1.0056442882597108  0.2549251039615846  0.9625071235633916
  0.9891916681482726  0.7552265683114777  0.9666343289636307
  0.5043541949468645  0.2361633238171925  0.9639971441182598
  0.5013354051858537  0.7574560921684820  0.9638368533200147
  0.2445515821476593  0.9867334590723758  0.4624756922866994
  0.2348392241801382  0.5031675301116918  0.4653677736291950
  0.7633308581485835 -0.0006757351721705  0.4659125069259684
  0.7593194754503606  0.5071311382411144  0.4646278143294819
  0.0265651810860087  0.2267404597336903  0.5042926315419071
  0.0112962663617588  0.7352799221194330  0.5065313016538908
  0.5121861845555886  0.1964231971822646  0.5228996712287826
  0.5256180371596300  0.7435643866386905  0.5053465520600794
  0.1250250812635521  0.1288978155807497  0.0041176481835992
  0.1120545872675981  0.6377064740947244  0.0065390786676198
  0.6283492621812479  0.1308275556572111  0.0127847834849872
  0.6118953263123064  0.6273745292289253  0.0070855728194626
  0.1333067074706855  0.1160897632889378  0.5039909727961552
  0.1156905900307246  0.6209756366028050  0.5084677507564513
  0.6319809618475767  0.1019453339505970  0.5142666113915902
  0.6225917230629603  0.6257329160467784  0.4986387213986945
  0.5032297713716636  0.2457210282218341  0.7432355984916518
  0.4994444112891711  0.7520447531676432  0.7467933768348312
  0.0043430364857152  0.2484144541692821  0.7458334463537516
  0.9941213409663111  0.7551091842436313  0.7508812065849267
  0.2389241131969549  0.5013721411925181  0.2466794790410527
  0.2472270769955422  0.9934471228623479  0.2463930601588052
  0.7501034908811037  0.5089855731866885  0.2464403574410885
  0.7579429293192059  0.0005899507988466  0.2494380684156339
  0.3809442749021597  0.1243943016353683  0.9969247022745689
  0.3614678676187177  0.6265913698354513  1.0046830576070738
  0.8759356289124042  0.1296269074475587  0.9979386887767705
  0.8665332290697907  0.6411021191722824  1.0041001841916133
  0.1211262930049301  0.3786737047465409  0.9993162209622826
  0.1146827883668522  0.8838524023274894  0.9988544877790576
  0.6334837275013473  0.3831713606607505 -0.0028633774246102
  0.6161882579602630  0.8752733751647562  0.9980643143686270
  0.4077871384394362  0.3564664722799134  0.0390044693783285
  0.3770295633510457  0.8637772531526433  0.0060309279464831
  0.8875481596720870  0.3652524633258191  0.0060996020037599
  0.8762188899189249  0.8784046948457098  0.0085401691115557
  0.1227215894522905  0.3689220385453073  0.4989090684894059
  0.1277059340327969  0.8674578378410166  0.5008666329543318
  0.6480308494954321  0.3940414408008147  0.5111911219596186
  0.6370648109439538  0.8665569314202167  0.4973878149504765
  0.3790471427826210  0.1034906689397876  0.5007612591848231
  0.3652584968324325  0.6107661041446655  0.4912210269040183
  0.8823938791922413  0.1196969061288984  0.5016502790203082
  0.8712303666214797  0.6369639786963978  0.5020546130181501
  0.3500804655355984  0.3858351977894079  0.5100924291714649
  0.3681996916236662  0.8747685861198795  0.5055790396331026
  0.8801225402495937  0.3998371553926888  0.5009092773559044
  0.8771724606522960  0.8805571443725029  0.5102360690907833
  0.0005555705979674  0.2453141052860403  0.2749277972865192
  0.9959655255406461  0.7566214512534681  0.2741451416962717
  0.5114418989249299  0.2672811731519380  0.3162528941398992
  0.4930838620772183  0.7500608049455423  0.2744247735011794
  0.2515058463784067  0.9956005387915212  0.7730507507330783
  0.2428889678968028  0.4992403120778899  0.7811970076098419
  0.7547865325243763  0.9975590395335748  0.7762604159033593
  0.7590124291230891  0.5137331374776891  0.7760958720336565
 
             NaN             NaN             NaN
             NaN             NaN             NaN
             NaN             NaN             NaN
             NaN             NaN             NaN
             NaN             NaN             NaN
             NaN             NaN             NaN
             NaN             NaN             NaN
             NaN             NaN             NaN
             NaN             NaN             NaN
             NaN             NaN             NaN
             NaN             NaN             NaN
             NaN             NaN             NaN
             NaN             NaN             NaN
             NaN             NaN             NaN
             NaN             NaN             NaN
             NaN             NaN             NaN
             NaN             NaN             NaN
             NaN             NaN             NaN
             NaN             NaN             NaN
             NaN             NaN             NaN
             NaN             NaN             NaN
             NaN             NaN             NaN
             NaN             NaN             NaN
             NaN             NaN             NaN
             NaN             NaN             NaN
             NaN             NaN             NaN
             NaN             NaN             NaN
             NaN             NaN             NaN
             NaN             NaN             NaN
             NaN             NaN             NaN
             NaN             NaN             NaN
             NaN             NaN             NaN
             NaN             NaN             NaN
             NaN             NaN             NaN
             NaN             NaN             NaN
             NaN             NaN             NaN
             NaN             NaN             NaN
             NaN             NaN             NaN
             NaN             NaN             NaN
             NaN             NaN             NaN
             NaN             NaN             NaN
             NaN             NaN             NaN
             NaN             NaN             NaN
             NaN             NaN             NaN
             NaN             NaN             NaN
             NaN             NaN             NaN
             NaN             NaN             NaN
             NaN             NaN             NaN
             NaN             NaN             NaN
             NaN             NaN             NaN
             NaN             NaN             NaN
             NaN             NaN             NaN
             NaN             NaN             NaN
             NaN             NaN             NaN
             NaN             NaN             NaN
             NaN             NaN             NaN
             NaN             NaN             NaN
             NaN             NaN             NaN
             NaN             NaN             NaN
             NaN             NaN             NaN
             NaN             NaN             NaN
             NaN             NaN             NaN
             NaN             NaN             NaN
             NaN             NaN             NaN
             NaN             NaN             NaN
