Na1 Ti16 O16 F32
1.0
11.444132 0.141290 -0.000076
0.138034 11.502741 0.000203
-0.000050 0.000145 8.013281
Na Ti O F
1 16 16 32
direct
0.472066 0.467837 0.494720 Na
0.224555 0.019495 0.005408 Ti
0.220527 0.525547 0.007270 Ti
0.741137 0.016643 0.018488 Ti
0.731531 0.522720 0.005328 Ti
-0.000681 0.253000 0.964177 Ti
0.994940 0.756458 0.962848 Ti
0.501720 0.231314 0.965817 Ti
0.502973 0.753375 0.965527 Ti
0.249608 0.995439 0.463207 Ti
0.231977 0.509058 0.464338 Ti
0.754369 0.005882 0.480250 Ti
0.754336 0.503132 0.464317 Ti
0.023413 0.228044 0.505906 Ti
1.009797 0.742821 0.500354 Ti
0.514506 0.222876 0.505753 Ti
0.527205 0.738213 0.506641 Ti
0.121501 0.132375 0.006560 O
0.114595 0.635709 0.003983 O
0.626305 0.122928 0.003355 O
0.616863 0.626284 0.007664 O
0.132977 0.121089 0.506252 O
0.121284 0.627104 0.497961 O
0.635077 0.119983 0.502993 O
0.629146 0.624209 0.507069 O
0.502114 0.239611 0.746230 O
0.501590 0.748491 0.748540 O
0.002410 0.251238 0.747948 O
0.997733 0.754508 0.746675 O
0.243808 0.502261 0.245154 O
0.247949 0.998230 0.246296 O
0.752124 0.506297 0.247376 O
0.755027 0.002283 0.249684 O
0.373516 0.120383 0.998540 F
0.369807 0.621222 -0.000453 F
0.874931 0.129530 -0.001496 F
0.867600 0.635761 0.996824 F
0.120621 0.382729 -0.000984 F
0.113222 0.883372 0.998549 F
0.629294 0.382379 0.002715 F
0.621927 0.874642 0.998650 F
0.399734 0.359259 0.008287 F
0.381739 0.859222 0.010172 F
0.884830 0.368693 0.006906 F
0.874470 0.874877 1.000400 F
0.132027 0.373660 0.501720 F
0.127840 0.873103 0.495665 F
0.629906 0.380026 0.495293 F
0.633669 0.872246 0.499104 F
0.381922 0.116232 0.495746 F
0.372282 0.611858 0.505231 F
0.884508 0.122158 0.501008 F
0.874794 0.627260 0.497908 F
0.383185 0.376613 0.502798 F
0.368283 0.882560 0.507703 F
0.868842 0.389095 0.507371 F
0.876431 0.879148 0.502082 F
0.002127 0.253139 0.276819 F
0.994495 0.756383 0.266591 F
0.507123 0.243152 0.269609 F
0.495737 0.746359 0.278758 F
0.249063 0.996986 0.775851 F
0.247783 0.501657 0.775979 F
0.756539 -0.000702 0.753543 F
0.749720 0.503922 0.773247 F
