Na8 V8 O16 F8                           
   1.00000000000000     
     7.8862897590405865    0.0007826698603243    0.0700959757926789
     0.0011486777304132    7.4279919500243095   -0.0004688571456735
    -0.0129911274698137   -0.0004539979552328    7.4461943399870441
   Na   V    O    F 
     8     8    16     8
Direct
  0.2490734623761160  0.2446341574931933  0.2619553748802849
  0.2358967962681721  0.2516966100469049  0.7366275861977315
  0.2499270230611644  0.7553936341586325  0.2624017002588163
  0.2360075150121031  0.7482390583940108  0.7367220185498716
  0.7356243535905749  0.2515876348795387  0.2329114531739930
  0.7480950047864572  0.2454816711507717  0.7614505129629756
  0.7355955084396484  0.7484050299824762  0.2328684082394459
  0.7497282457519521  0.7554182096642399  0.7621999351367458
  0.0031935935702208  0.0000194729312684 -0.0008664598283730
  0.0017001871559055 -0.0000508365164970  0.4995625575146909
  0.0052250501098008  0.4999979217358281  0.0105613272414836
  0.9611276379943684  0.5000088293370579  0.4883142589292056
  0.5008840178494431 -0.0000123269115949 -0.0005716196272587
  0.5045905341505760 -0.0000274630940232  0.4993681948511144
  0.4607736556740386  0.4999700818622015  0.9879722506913291
  0.5065946483087092  0.4999976533201598  0.5099055832188808
  0.2529447802336519  0.4999032668288572  0.0625168399743309
  0.7537797122993393  0.5000920720984697  0.5636728798659891
  0.0025979449707780  0.2576153010272347 -0.0020262313039599
  0.0111536309461855  0.2657036253839820  0.5066947630438232
  0.0027468537065569  0.7423985582246939 -0.0025191645771434
  0.0112028006535049  0.7342613867011570  0.5071341604248947
  0.5097151058046041  0.2653117659275403  0.0063062028963884
  0.5047435779695166  0.2576057432346933  0.4968971813314678
  0.5093841833830700  0.7346099126560856  0.0063197036966360
  0.5044560081983810  0.7422953911870176  0.4968138906186620
  0.0452432690906853  0.9998229170106155  0.2594848589982845
  0.9598626175245751  0.0002610407657670  0.7411633862290815
  0.9356216562142999  0.5002031024521066  0.2570133353308643
  0.4600861126754934 -0.0000137978662569  0.2409381759756446
  0.5449542794401685  0.9999073579799973  0.7591794273100790
  0.4363108605103672  0.4998455388112078  0.7564533872381092
  0.2547147237444808  0.0001542863775765  0.9404607524845735
  0.2516798438244932  0.9999142306791773  0.5527144095338012
  0.2625102617058063  0.4998523346696460  0.4398839175004640
  0.7507860917335935  0.9997820696228806  0.0519851542744606
  0.7556285090958393 -0.0002312638780473  0.4397939118072865
  0.7607775325290344  0.5001914349080979  0.9406437407436634
  0.0671986275433071  0.4997857822058899  0.7491240779830177
  0.5678637821030175  0.4999686045574503  0.2479681562286427
 
  0.00000000E+00  0.00000000E+00  0.00000000E+00
  0.00000000E+00  0.00000000E+00  0.00000000E+00
  0.00000000E+00  0.00000000E+00  0.00000000E+00
  0.00000000E+00  0.00000000E+00  0.00000000E+00
  0.00000000E+00  0.00000000E+00  0.00000000E+00
  0.00000000E+00  0.00000000E+00  0.00000000E+00
  0.00000000E+00  0.00000000E+00  0.00000000E+00
  0.00000000E+00  0.00000000E+00  0.00000000E+00
  0.00000000E+00  0.00000000E+00  0.00000000E+00
  0.00000000E+00  0.00000000E+00  0.00000000E+00
  0.00000000E+00  0.00000000E+00  0.00000000E+00
  0.00000000E+00  0.00000000E+00  0.00000000E+00
  0.00000000E+00  0.00000000E+00  0.00000000E+00
  0.00000000E+00  0.00000000E+00  0.00000000E+00
  0.00000000E+00  0.00000000E+00  0.00000000E+00
  0.00000000E+00  0.00000000E+00  0.00000000E+00
  0.00000000E+00  0.00000000E+00  0.00000000E+00
  0.00000000E+00  0.00000000E+00  0.00000000E+00
  0.00000000E+00  0.00000000E+00  0.00000000E+00
  0.00000000E+00  0.00000000E+00  0.00000000E+00
  0.00000000E+00  0.00000000E+00  0.00000000E+00
  0.00000000E+00  0.00000000E+00  0.00000000E+00
  0.00000000E+00  0.00000000E+00  0.00000000E+00
  0.00000000E+00  0.00000000E+00  0.00000000E+00
  0.00000000E+00  0.00000000E+00  0.00000000E+00
  0.00000000E+00  0.00000000E+00  0.00000000E+00
  0.00000000E+00  0.00000000E+00  0.00000000E+00
  0.00000000E+00  0.00000000E+00  0.00000000E+00
  0.00000000E+00  0.00000000E+00  0.00000000E+00
  0.00000000E+00  0.00000000E+00  0.00000000E+00
  0.00000000E+00  0.00000000E+00  0.00000000E+00
  0.00000000E+00  0.00000000E+00  0.00000000E+00
  0.00000000E+00  0.00000000E+00  0.00000000E+00
  0.00000000E+00  0.00000000E+00  0.00000000E+00
  0.00000000E+00  0.00000000E+00  0.00000000E+00
  0.00000000E+00  0.00000000E+00  0.00000000E+00
  0.00000000E+00  0.00000000E+00  0.00000000E+00
  0.00000000E+00  0.00000000E+00  0.00000000E+00
  0.00000000E+00  0.00000000E+00  0.00000000E+00
  0.00000000E+00  0.00000000E+00  0.00000000E+00
