Ni4 O4 F8                               
   1.00000000000000     
     4.8786320325267063   -0.1984083062041326    0.0531665370275078
    -2.5481557780687787    4.5239395720520426   -0.0012166533048970
    -0.2063836572365478    0.1584461687391414    8.5568090005446518
   Ni   O    F 
     4     4     8
Direct
  0.4441298212537511  0.7208320521809486  0.6096140173052201
  0.7848130511682772  0.3973735987389880  0.3890284939173120
  0.5552929380167280  0.2865045833202337  0.1114758506932834
  0.2146077578752150  0.6252479228928124  0.8865660406176196
  0.7835274108870089  0.4138526429921263  0.9220019053364199
  0.2168810529469148  0.6159779395424884  0.4211136669483549
  0.1555685109435150  0.3928173537322078  0.7190347050444241
  0.8395793698642764  0.2309948373823106  0.2166901041877122
  0.3153949933269560  0.8687611771450792  0.0512521807221711
  0.2503131115854216  0.3339415295977967  0.0231562554869267
  0.7542438630591289  0.0630201502829413  0.5171403518562810
  0.6829774262605072  0.5319955499042333  0.5576395598419409
  0.7678156241751267  0.6603310932596664  0.2203039955874357
  0.3585184196499963  0.1588986859456075  0.3225786446543565
  0.6413902908581246  0.8028183302457187  0.8197707213937475
  0.2349463581290599  0.8966325528368403  0.7126335064068017
 
  0.00000000E+00  0.00000000E+00  0.00000000E+00
  0.00000000E+00  0.00000000E+00  0.00000000E+00
  0.00000000E+00  0.00000000E+00  0.00000000E+00
  0.00000000E+00  0.00000000E+00  0.00000000E+00
  0.00000000E+00  0.00000000E+00  0.00000000E+00
  0.00000000E+00  0.00000000E+00  0.00000000E+00
  0.00000000E+00  0.00000000E+00  0.00000000E+00
  0.00000000E+00  0.00000000E+00  0.00000000E+00
  0.00000000E+00  0.00000000E+00  0.00000000E+00
  0.00000000E+00  0.00000000E+00  0.00000000E+00
  0.00000000E+00  0.00000000E+00  0.00000000E+00
  0.00000000E+00  0.00000000E+00  0.00000000E+00
  0.00000000E+00  0.00000000E+00  0.00000000E+00
  0.00000000E+00  0.00000000E+00  0.00000000E+00
  0.00000000E+00  0.00000000E+00  0.00000000E+00
  0.00000000E+00  0.00000000E+00  0.00000000E+00
