Na8 Ti8 O16 F8                          
   1.00000000000000     
     7.9108646314785789   -0.0000000155527899   -0.0000013287398753
    -0.0000000223217779    7.6265183919387276    0.0000000975487462
    -0.0000013151167675    0.0000001072358446    7.7710652008699084
   Na   Ti   O    F 
     8     8    16     8
Direct
  0.2539676521625966  0.2486346606629135  0.2282166344013176
  0.2463270022630373  0.2485832450628193  0.7718789903453640
  0.2539679767106436  0.7513652811344544  0.2282169882387121
  0.2463271878296635  0.7514167776956010  0.7718790850213680
  0.7463272729031527  0.2485831928106803  0.2281222383210318
  0.7539672806276989  0.2486348705072879  0.7717823375953032
  0.7463271448986448  0.7514167912772898  0.2281222248217398
  0.7539669383146511  0.7513651674281158  0.7717830702268413
  0.0001145146616897 -0.0000000343351983  0.0093093308627138
  0.9998998610499448  0.0000000674576582  0.4837941947455619
  0.9999805515255193  0.5000000358447140  0.9996355217423304
  0.0000228479308620  0.4999998906348040  0.5010340660073717
  0.5001146224299194 -0.0000000047066135  0.9906905749728754
  0.4998997462980045 -0.0000000503985974  0.5162057400008212
  0.4999806727102301  0.5000000023627980  0.0003645468064023
  0.5000227329582622  0.5000000437751954  0.4989660506009700
  0.2498443171280692  0.0000000017154894  0.9999979893855789
  0.7498442976504216  0.0000000050918581  0.0000018535946676
  0.9998869950060538  0.2522592082563951  0.9946731751408673
  0.9999810194758082  0.2464631580494958  0.5076653690727739
  0.9998869882929055  0.7477407869462410  0.9946731180378034
  0.9999810278101259  0.7535368422053482  0.5076654200714352
  0.4998869292527168  0.2522592174408314  0.0053267044138976
  0.4999811631978937  0.2464631765166835  0.4923344931534990
  0.4998869324574208  0.7477407869830919  0.0053266490941842
  0.4999811143005516  0.7535368323148580  0.4923345656130416
  0.9999686604611395  0.0000000034721853  0.2529790150083109
  0.0000022010346646  0.4999999908792715  0.2515844512982920
  0.0000040836607918  0.4999999403967051  0.7495040111555309
  0.4999686523508522  0.0000000472881936  0.7470208600500360
  0.5000041270416764  0.5000000402794885  0.2504958922499319
  0.5000024024322375  0.4999999767042506  0.7484154413290885
  0.2499301074756594  0.0000000093975847  0.5000066756799463
  0.2499607225938390  0.5000000042495832  0.9999976602249470
  0.2500213198962519  0.4999999956264566  0.4999933364100009
  0.7499300790908860  0.0000000227818226  0.4999931542447342
  0.7499607136540198  0.5000000020616902  0.0000021353667754
  0.7500212953322021  0.4999999845406455  0.5000065437520897
  0.9999255092289536  0.0000000784724590  0.7461008579020301
  0.4999253359003246  0.9999999511154490  0.2538990330398125
 
  0.00000000E+00  0.00000000E+00  0.00000000E+00
  0.00000000E+00  0.00000000E+00  0.00000000E+00
  0.00000000E+00  0.00000000E+00  0.00000000E+00
  0.00000000E+00  0.00000000E+00  0.00000000E+00
  0.00000000E+00  0.00000000E+00  0.00000000E+00
  0.00000000E+00  0.00000000E+00  0.00000000E+00
  0.00000000E+00  0.00000000E+00  0.00000000E+00
  0.00000000E+00  0.00000000E+00  0.00000000E+00
  0.00000000E+00  0.00000000E+00  0.00000000E+00
  0.00000000E+00  0.00000000E+00  0.00000000E+00
  0.00000000E+00  0.00000000E+00  0.00000000E+00
  0.00000000E+00  0.00000000E+00  0.00000000E+00
  0.00000000E+00  0.00000000E+00  0.00000000E+00
  0.00000000E+00  0.00000000E+00  0.00000000E+00
  0.00000000E+00  0.00000000E+00  0.00000000E+00
  0.00000000E+00  0.00000000E+00  0.00000000E+00
  0.00000000E+00  0.00000000E+00  0.00000000E+00
  0.00000000E+00  0.00000000E+00  0.00000000E+00
  0.00000000E+00  0.00000000E+00  0.00000000E+00
  0.00000000E+00  0.00000000E+00  0.00000000E+00
  0.00000000E+00  0.00000000E+00  0.00000000E+00
  0.00000000E+00  0.00000000E+00  0.00000000E+00
  0.00000000E+00  0.00000000E+00  0.00000000E+00
  0.00000000E+00  0.00000000E+00  0.00000000E+00
  0.00000000E+00  0.00000000E+00  0.00000000E+00
  0.00000000E+00  0.00000000E+00  0.00000000E+00
  0.00000000E+00  0.00000000E+00  0.00000000E+00
  0.00000000E+00  0.00000000E+00  0.00000000E+00
  0.00000000E+00  0.00000000E+00  0.00000000E+00
  0.00000000E+00  0.00000000E+00  0.00000000E+00
  0.00000000E+00  0.00000000E+00  0.00000000E+00
  0.00000000E+00  0.00000000E+00  0.00000000E+00
  0.00000000E+00  0.00000000E+00  0.00000000E+00
  0.00000000E+00  0.00000000E+00  0.00000000E+00
  0.00000000E+00  0.00000000E+00  0.00000000E+00
  0.00000000E+00  0.00000000E+00  0.00000000E+00
  0.00000000E+00  0.00000000E+00  0.00000000E+00
  0.00000000E+00  0.00000000E+00  0.00000000E+00
  0.00000000E+00  0.00000000E+00  0.00000000E+00
  0.00000000E+00  0.00000000E+00  0.00000000E+00
