V4 O4 F8                                
   1.00000000000000     
     5.5153221552924858   -0.0413182964348199    0.0021173563464328
    -2.7934489214956431    4.7557043633378075    0.0020837815711395
    -0.0040041872748621   -0.0069358335687770    9.4399367288490037
   V    O    F 
     4     4     8
Direct
  0.3643837219595175  0.6355532852404722  0.5965309506263704
  0.6878706868140919  0.3121106767676063  0.3808025145474354
  0.6355434362297816  0.3643761032779694  0.0965261931404973
  0.3121050010937370  0.6878697787725728  0.8808074236591001
  0.4992233337394655  0.5003929923315271  0.9923975343118233
  0.5004089885218653  0.4992302314377047  0.4924039736216843
  0.8123311355632634  0.1883368510661084  0.2631773238411303
  0.1883409711964849  0.8123315964024463  0.7631791755756420
  0.5058664317678477  0.0003776437698842  0.0113964037387833
  0.9995571489789233  0.4943437064215360  0.0112642070974149
  0.4943519109497374  0.9995614607225186  0.5112703872540623
  0.0004003292045090  0.5058887444874048  0.5113895481944145
  0.8132692301371645  0.6376204314388869  0.2472086405518200
  0.1863084069230638  0.3624278344780372  0.7472150145122080
  0.3624257411591980  0.1863147053278003  0.2472195032370558
  0.6376135257613417  0.8132639580575319  0.7472112060905511
 
  0.00000000E+00  0.00000000E+00  0.00000000E+00
  0.00000000E+00  0.00000000E+00  0.00000000E+00
  0.00000000E+00  0.00000000E+00  0.00000000E+00
  0.00000000E+00  0.00000000E+00  0.00000000E+00
  0.00000000E+00  0.00000000E+00  0.00000000E+00
  0.00000000E+00  0.00000000E+00  0.00000000E+00
  0.00000000E+00  0.00000000E+00  0.00000000E+00
  0.00000000E+00  0.00000000E+00  0.00000000E+00
  0.00000000E+00  0.00000000E+00  0.00000000E+00
  0.00000000E+00  0.00000000E+00  0.00000000E+00
  0.00000000E+00  0.00000000E+00  0.00000000E+00
  0.00000000E+00  0.00000000E+00  0.00000000E+00
  0.00000000E+00  0.00000000E+00  0.00000000E+00
  0.00000000E+00  0.00000000E+00  0.00000000E+00
  0.00000000E+00  0.00000000E+00  0.00000000E+00
  0.00000000E+00  0.00000000E+00  0.00000000E+00
