Ni4 O4 F8                               
   1.00000000000000     
     4.8107776691577353   -0.0106974291728840    0.0337069095843591
     0.0103422575026332    5.0543980548465530    0.0000629484787658
     0.0725044349732725   -0.0073802107632740    7.1523396745504586
   Ni   O    F 
     4     4     8
Direct
  0.4934122956659867  0.0016724873783490  0.0023673878555530
  0.9976808833974151  0.4956726662555998 -0.0002135360924450
  0.5051896918313041  0.0073576018471429  0.4955872665990018
 -0.0101229020193492  0.5011496605402813  0.5015926872710027
  0.9121476316504655  0.5271984316266515  0.7500551702514593
  0.3442768589500526  0.9704887430794535  0.2339205355991398
  0.1759350638373632  0.1596327469297495  0.9343513874245905
  0.6567317002603361  0.3154981388452130  0.4349893921306380
  0.1243852174675621  0.4539504994727824  0.2495627352379250
  0.6366830636700016  0.0400336768651937  0.7642261012627948
  0.6526417664545531  0.3053307113189415  0.0689428233640383
  0.3447994589814828  0.6899878935561978  0.9385439221446876
  0.8086816516580242  0.8260122009082356  0.0692192733097693
  0.3428811061036804  0.6916283478576017  0.5518277126838983
  0.8253391973496860  0.8355714333203078  0.4326444633346552
  0.1893373147414275  0.1788147601982986  0.5723826776232988
 
  0.00000000E+00  0.00000000E+00  0.00000000E+00
  0.00000000E+00  0.00000000E+00  0.00000000E+00
  0.00000000E+00  0.00000000E+00  0.00000000E+00
  0.00000000E+00  0.00000000E+00  0.00000000E+00
  0.00000000E+00  0.00000000E+00  0.00000000E+00
  0.00000000E+00  0.00000000E+00  0.00000000E+00
  0.00000000E+00  0.00000000E+00  0.00000000E+00
  0.00000000E+00  0.00000000E+00  0.00000000E+00
  0.00000000E+00  0.00000000E+00  0.00000000E+00
  0.00000000E+00  0.00000000E+00  0.00000000E+00
  0.00000000E+00  0.00000000E+00  0.00000000E+00
  0.00000000E+00  0.00000000E+00  0.00000000E+00
  0.00000000E+00  0.00000000E+00  0.00000000E+00
  0.00000000E+00  0.00000000E+00  0.00000000E+00
  0.00000000E+00  0.00000000E+00  0.00000000E+00
  0.00000000E+00  0.00000000E+00  0.00000000E+00
