Sodium hexafluoroniccolate(III)         
   1.00000000000000     
     5.4047416881946626   -0.0002661242969628   -0.0815813284675036
    -0.0002358472537922    5.6365246369282582    0.0001373888880480
    -0.1492360439710627    0.0001415890089225    7.6766998677644747
   Ni   Na   F 
     2     6    12
Direct
  0.0000261617170270 -0.0000006159902438  0.0000063201600095
  0.5000403122394692  0.4999529246141020  0.4999987687544258
  0.9994993684050860  0.0006725126347208  0.5004865633065596
  0.4995830162865416  0.4993848999340988  0.0005231370167742
  0.5199945018113286  0.9346824714587704  0.2379261048179916
  0.4800987402988446  0.0652862275273861  0.7618471773399265
  0.9800550892228382  0.4346819596114141  0.2618474330899029
  0.0202495936230812  0.5654257529171022  0.7377626401923980
  0.1224961680961145  0.0549271252392819  0.2275965228936190
  0.8775540867333628  0.9448888815652015  0.7724360178533179
  0.3774670497835907  0.5550442409220632  0.2723940631072930
  0.6226574358007085  0.4451867007263960  0.7275614924545912
  0.7097062454471338  0.1804850693382718  0.0537275306326589
  0.2907826552625147  0.8200578779178540  0.9461486196118341
  0.7908946720533486  0.6799516109355780  0.4460680251645780
  0.2098135636847815  0.3194650847374610  0.5537334489666879
  0.1635869225012161  0.2765231785233815  0.9280654880752228
  0.8359905299712146  0.7239414568504202  0.0719357273092420
  0.3360416699345531  0.7760335806641387  0.5718807940145195
  0.6634622171272516  0.2234090498725858  0.4280541052384524
 
  0.00000000E+00  0.00000000E+00  0.00000000E+00
  0.00000000E+00  0.00000000E+00  0.00000000E+00
  0.00000000E+00  0.00000000E+00  0.00000000E+00
  0.00000000E+00  0.00000000E+00  0.00000000E+00
  0.00000000E+00  0.00000000E+00  0.00000000E+00
  0.00000000E+00  0.00000000E+00  0.00000000E+00
  0.00000000E+00  0.00000000E+00  0.00000000E+00
  0.00000000E+00  0.00000000E+00  0.00000000E+00
  0.00000000E+00  0.00000000E+00  0.00000000E+00
  0.00000000E+00  0.00000000E+00  0.00000000E+00
  0.00000000E+00  0.00000000E+00  0.00000000E+00
  0.00000000E+00  0.00000000E+00  0.00000000E+00
  0.00000000E+00  0.00000000E+00  0.00000000E+00
  0.00000000E+00  0.00000000E+00  0.00000000E+00
  0.00000000E+00  0.00000000E+00  0.00000000E+00
  0.00000000E+00  0.00000000E+00  0.00000000E+00
  0.00000000E+00  0.00000000E+00  0.00000000E+00
  0.00000000E+00  0.00000000E+00  0.00000000E+00
  0.00000000E+00  0.00000000E+00  0.00000000E+00
  0.00000000E+00  0.00000000E+00  0.00000000E+00
