Ni4 O4 F8                               
   1.00000000000000     
     4.8643149135937129    0.0370839908551379   -0.0248904621691974
     0.0228090771828131    5.0090243859607408   -0.0326795420797755
     0.1599821896253296    0.0116695923736762    7.0880291427818660
   Ni   O    F 
     4     4     8
Direct
  0.4994886582441168  0.0019030471616041 -0.0007921737696466
  0.0065043979200236  0.4944985874738835  0.0013761066635478
  0.4868356443963937  0.0092319707088362  0.5003816933853049
  0.0018710773614089  0.4978935144543194  0.4988352088772682
  0.1489617489780556  0.4702834922891440  0.2567303429839931
  0.8646367691374459  0.5301984919826356  0.7440629908247146
  0.1556736224018673  0.1861703601272544  0.9354971488542843
  0.1562117858225149  0.1863906102459004  0.5661495797289505
  0.6316001361018716  0.0413715626414794  0.7549310557469522
  0.3573889732545920  0.9661484138657770  0.2423112392097077
  0.6734803859929542  0.3144533427183827  0.0678772403238101
  0.3361440981127432  0.6801551691524570  0.9334595389802413
  0.8418650644990820  0.8100547443035778  0.0605135820055858
  0.3069845287607375  0.6679944369697283  0.5665357327635088
  0.6975046058441449  0.3282749459192021  0.4310865935953457
  0.8348485031720402  0.8149773099858185  0.4410441198264174
 
  0.00000000E+00  0.00000000E+00  0.00000000E+00
  0.00000000E+00  0.00000000E+00  0.00000000E+00
  0.00000000E+00  0.00000000E+00  0.00000000E+00
  0.00000000E+00  0.00000000E+00  0.00000000E+00
  0.00000000E+00  0.00000000E+00  0.00000000E+00
  0.00000000E+00  0.00000000E+00  0.00000000E+00
  0.00000000E+00  0.00000000E+00  0.00000000E+00
  0.00000000E+00  0.00000000E+00  0.00000000E+00
  0.00000000E+00  0.00000000E+00  0.00000000E+00
  0.00000000E+00  0.00000000E+00  0.00000000E+00
  0.00000000E+00  0.00000000E+00  0.00000000E+00
  0.00000000E+00  0.00000000E+00  0.00000000E+00
  0.00000000E+00  0.00000000E+00  0.00000000E+00
  0.00000000E+00  0.00000000E+00  0.00000000E+00
  0.00000000E+00  0.00000000E+00  0.00000000E+00
  0.00000000E+00  0.00000000E+00  0.00000000E+00
