Ni4 O4 F8                               
   1.00000000000000     
     4.6716641220794211   -0.0071572313909377   -0.0177620515710971
    -0.0135511278893887    5.0265006735173960    0.0361329213281668
    -0.0519541263937316   -0.0057039621044517    7.1367996902207516
   Ni   O    F 
     4     4     8
Direct
  0.4933453382715798  0.9886278801605795  0.0010671761556636
  0.9964280480026738  0.5058270584834909  0.9989547809373104
  0.5064054449737804  0.0101478498694615  0.5002951473980369
  0.0053736158455913  0.4979797490727803  0.4984894432716181
  0.3251718083491190  0.6653371472894852  0.9324621495178942
  0.8152631911926671  0.8316506827820526  0.0713035494770314
  0.6784614616695913  0.3423878977050249  0.4296582945129140
  0.1719777001700570  0.1698423827634218  0.5656164496053994
  0.6648808176120131  0.3254876690355867  0.0596403022191227
  0.1631107492229430  0.1567057997167949  0.9359091741949006
  0.3387562884120728  0.6622892770143307  0.5644346213142942
  0.8422955122572957  0.8346864890634685  0.4426553857888248
  0.1298113839003180  0.4620363253373292  0.2405044599384787
  0.8736969709760340  0.5406261372554455  0.7534625607000338
  0.6261053067105751  0.0429421938851671  0.7479574966560283
  0.3689163624336878  0.9634254605655740  0.2575890083124410
 
  0.00000000E+00  0.00000000E+00  0.00000000E+00
  0.00000000E+00  0.00000000E+00  0.00000000E+00
  0.00000000E+00  0.00000000E+00  0.00000000E+00
  0.00000000E+00  0.00000000E+00  0.00000000E+00
  0.00000000E+00  0.00000000E+00  0.00000000E+00
  0.00000000E+00  0.00000000E+00  0.00000000E+00
  0.00000000E+00  0.00000000E+00  0.00000000E+00
  0.00000000E+00  0.00000000E+00  0.00000000E+00
  0.00000000E+00  0.00000000E+00  0.00000000E+00
  0.00000000E+00  0.00000000E+00  0.00000000E+00
  0.00000000E+00  0.00000000E+00  0.00000000E+00
  0.00000000E+00  0.00000000E+00  0.00000000E+00
  0.00000000E+00  0.00000000E+00  0.00000000E+00
  0.00000000E+00  0.00000000E+00  0.00000000E+00
  0.00000000E+00  0.00000000E+00  0.00000000E+00
  0.00000000E+00  0.00000000E+00  0.00000000E+00
