Na4 Ti4 O8 F4                           
   1.00000000000000     
     5.3338702812981333    0.1076472956174348    0.0000000036054634
     0.1072846978877371    5.4310538741546202   -0.0000002247885244
     0.0000000096891743   -0.0000003086859146    7.7511791553792300
   Na   Ti   O    F 
     4     4     8     4
Direct
  0.9855519070575329  0.0307929392150828  0.2500000618942134
  0.0101119591585727  0.9791115708733427  0.7499999967622677
  0.4879733015898535  0.4572275352958319  0.7500000218682524
  0.5236130185116263  0.5439677033478741  0.2500000395788179
  0.4906530752507487  0.9827586057810270  0.9811698834694385
  0.0225416242287217  0.5130994356341418  0.0128387915057356
  0.4906531062459719  0.9827586189078306  0.5188301329644956
  0.0225416396577614  0.5130994217102978  0.4871612156322349
  0.2852978474810576  0.7141700744260473  0.9519757188780543
  0.2112483941916554  0.2153313338401485  0.9643714217788047
  0.7796789258285634  0.7808072724174164  0.0392620163815927
  0.2852978660386877  0.7141700930227625  0.5480242955139671
  0.7796789145907037  0.7808073227297396  0.4607380413022033
  0.2112484481405519  0.2153313218362518  0.5356286259589176
  0.0848751579302419  0.4901512562239641  0.2499999949792047
  0.5832404098357304  0.0261542741160452  0.7499999917335918
  0.7094102676037032  0.2852860603554309  0.0477886586240944
  0.7094102580363295  0.2852859817166800  0.4522111019663564
  0.9091364774378937  0.5070932447224208  0.7499999692129643
  0.4178374011840992  0.9825959338276574  0.2500000199947855
 
  0.00000000E+00  0.00000000E+00  0.00000000E+00
  0.00000000E+00  0.00000000E+00  0.00000000E+00
  0.00000000E+00  0.00000000E+00  0.00000000E+00
  0.00000000E+00  0.00000000E+00  0.00000000E+00
  0.00000000E+00  0.00000000E+00  0.00000000E+00
  0.00000000E+00  0.00000000E+00  0.00000000E+00
  0.00000000E+00  0.00000000E+00  0.00000000E+00
  0.00000000E+00  0.00000000E+00  0.00000000E+00
  0.00000000E+00  0.00000000E+00  0.00000000E+00
  0.00000000E+00  0.00000000E+00  0.00000000E+00
  0.00000000E+00  0.00000000E+00  0.00000000E+00
  0.00000000E+00  0.00000000E+00  0.00000000E+00
  0.00000000E+00  0.00000000E+00  0.00000000E+00
  0.00000000E+00  0.00000000E+00  0.00000000E+00
  0.00000000E+00  0.00000000E+00  0.00000000E+00
  0.00000000E+00  0.00000000E+00  0.00000000E+00
  0.00000000E+00  0.00000000E+00  0.00000000E+00
  0.00000000E+00  0.00000000E+00  0.00000000E+00
  0.00000000E+00  0.00000000E+00  0.00000000E+00
  0.00000000E+00  0.00000000E+00  0.00000000E+00
