Cr8 O8 F16                              
   1.00000000000000     
     7.4186786018943565   -0.0003224725349846   -0.0004564649727404
    -0.0000142101504259    7.4846151439307418   -0.0003841157876239
    -0.0005439638322140   -0.0002151122897521    7.4339708527883728
   Cr   O    F 
     8     8    16
Direct
 -0.0004514071385754 -0.0000078517034620 -0.0000050800930200
  0.9889761167145602 -0.0007355267415516  0.5003840019436078
  0.0001131247385915  0.5000046330547587  0.0005241450261702
  0.0009047840772375  0.4999533602209520  0.4714192970283463
  0.5001609054366992 -0.0000006834577935  0.0002836079498453
  0.5113546244352251  0.0000072322235096  0.5001383311286918
  0.5000266369312684  0.4999991506613355  0.0002021304253672
  0.4999960792073093  0.5000050426350873  0.4988457511064168
  0.0017081051383691  0.5001753376106669  0.2498614988035961
  0.4992162765570879  0.5000208400208532  0.2375906241211346
  0.5011531132548763  0.4999749577385333  0.7675300936723701
  0.2654368671060585  0.0000339339883620  0.9994495804840091
  0.7363864092845445 -0.0000379451663642  0.0014859647240641
  0.7505414589866090  0.0001370450703943  0.4969168887875258
  0.9996091873022568  0.2715016207962017  0.4998319454666420
  0.9993741324873971  0.7289252116003458  0.4999413662792775
  0.0041197627111205 -0.0001071044767844  0.2503347951166561
  0.5000352278563797  0.0000825285743446  0.7499032479933241
  0.2493998187661316  0.9999299853917231  0.5015346926477209
  0.2491757536508064  0.5002488529906179  0.5082149671339993
  0.7503330099098955  0.5000533333185265  0.0019416502072141
  0.7509702630889371  0.4998929499912286  0.5042842199680305
  0.0009794530839502  0.7499092047854971  0.0005419314067366
  0.5009858947559355  0.2504262286404170  0.0019589314928042
  0.0004807482659813  0.0001441953287621  0.7499643036551689
 -0.0013227574310395  0.4999689076351965  0.7526154545515733
  0.4966801369007546 -0.0000860844689109  0.2506578445454487
  0.2500187159440802  0.4999046421977228  0.9987350594995914
  0.0008688304472167  0.2500905341004878  0.0007728747258731
  0.4957714244273665  0.2491938975263779  0.5010934574405664
  0.5008939380047014  0.7495708249958328  0.0019013093820633
  0.4961033650982672  0.7508207449171240  0.5011451133791779
 
  0.00000000E+00  0.00000000E+00  0.00000000E+00
  0.00000000E+00  0.00000000E+00  0.00000000E+00
  0.00000000E+00  0.00000000E+00  0.00000000E+00
  0.00000000E+00  0.00000000E+00  0.00000000E+00
  0.00000000E+00  0.00000000E+00  0.00000000E+00
  0.00000000E+00  0.00000000E+00  0.00000000E+00
  0.00000000E+00  0.00000000E+00  0.00000000E+00
  0.00000000E+00  0.00000000E+00  0.00000000E+00
  0.00000000E+00  0.00000000E+00  0.00000000E+00
  0.00000000E+00  0.00000000E+00  0.00000000E+00
  0.00000000E+00  0.00000000E+00  0.00000000E+00
  0.00000000E+00  0.00000000E+00  0.00000000E+00
  0.00000000E+00  0.00000000E+00  0.00000000E+00
  0.00000000E+00  0.00000000E+00  0.00000000E+00
  0.00000000E+00  0.00000000E+00  0.00000000E+00
  0.00000000E+00  0.00000000E+00  0.00000000E+00
  0.00000000E+00  0.00000000E+00  0.00000000E+00
  0.00000000E+00  0.00000000E+00  0.00000000E+00
  0.00000000E+00  0.00000000E+00  0.00000000E+00
  0.00000000E+00  0.00000000E+00  0.00000000E+00
  0.00000000E+00  0.00000000E+00  0.00000000E+00
  0.00000000E+00  0.00000000E+00  0.00000000E+00
  0.00000000E+00  0.00000000E+00  0.00000000E+00
  0.00000000E+00  0.00000000E+00  0.00000000E+00
  0.00000000E+00  0.00000000E+00  0.00000000E+00
  0.00000000E+00  0.00000000E+00  0.00000000E+00
  0.00000000E+00  0.00000000E+00  0.00000000E+00
  0.00000000E+00  0.00000000E+00  0.00000000E+00
  0.00000000E+00  0.00000000E+00  0.00000000E+00
  0.00000000E+00  0.00000000E+00  0.00000000E+00
  0.00000000E+00  0.00000000E+00  0.00000000E+00
  0.00000000E+00  0.00000000E+00  0.00000000E+00
