V4 O4 F8                                
   1.00000000000000     
     5.1462135290359070   -0.0283052713798616   -0.0099142658079055
    -0.0256385318176711    5.2903785651799664   -0.0186213316596160
     0.0064081261546529   -0.0529343849978957    7.3073497057617942
   V    O    F 
     4     4     8
Direct
  0.5063914375803116  0.0020810832629548  0.9753369323370604
  0.9888679930659516  0.5003020255274995  0.9857552819959238
  0.4930381836806607  0.9968923327526764  0.4723164090850835
  0.0271574661510151  0.5162017591931415  0.5100778713852115
  0.9262703133855590  0.5144246388886710  0.7614130394248674
  0.5740143602496404  0.0133692153506104  0.7552205476831528
  0.4245922433847245  0.9903798580233095  0.2521774390037341
  0.2880936920028483  0.7036638320731203  0.5359945963362812
  0.0751140953946052  0.4734872259203014  0.2471230469093315
  0.6813791622072196  0.3123435346710814  0.0503432193835770
  0.3124154766515929  0.6860115316146692  0.9677420025847753
  0.1819472770674904  0.1860792039737779  0.9633045230058923
  0.8093234950086823  0.8091648462883126  0.0507482374410325
  0.7108464347172798  0.3004333350810559  0.4678877701097723
  0.8008317320167816  0.7952038299995970  0.4563689492136203
  0.1997166374356446  0.1999617473792144  0.5481901341006840
 
  0.00000000E+00  0.00000000E+00  0.00000000E+00
  0.00000000E+00  0.00000000E+00  0.00000000E+00
  0.00000000E+00  0.00000000E+00  0.00000000E+00
  0.00000000E+00  0.00000000E+00  0.00000000E+00
  0.00000000E+00  0.00000000E+00  0.00000000E+00
  0.00000000E+00  0.00000000E+00  0.00000000E+00
  0.00000000E+00  0.00000000E+00  0.00000000E+00
  0.00000000E+00  0.00000000E+00  0.00000000E+00
  0.00000000E+00  0.00000000E+00  0.00000000E+00
  0.00000000E+00  0.00000000E+00  0.00000000E+00
  0.00000000E+00  0.00000000E+00  0.00000000E+00
  0.00000000E+00  0.00000000E+00  0.00000000E+00
  0.00000000E+00  0.00000000E+00  0.00000000E+00
  0.00000000E+00  0.00000000E+00  0.00000000E+00
  0.00000000E+00  0.00000000E+00  0.00000000E+00
  0.00000000E+00  0.00000000E+00  0.00000000E+00
