Mn4 O4 F8                               
   1.00000000000000     
     4.8022524567590583   -0.0006625889557645    0.0002543586089332
     0.0002033007097479    5.0147810728940287    0.0044424508592579
    -0.0003407943530657   -0.0053455536705907    7.1446416240796982
   Mn   O    F 
     4     4     8
Direct
  0.5261893240798899  0.0070408262101947 -0.0013884854875490
 -0.0255390455285188  0.5069762658134782 -0.0019441937229237
  0.4739360418772595 -0.0069999987773493  0.4985307213508411
  0.0256669908432184  0.4929058375177636  0.4981543359688193
  0.6769609787822735  0.3188736673603305  0.0613014809334748
  0.8237878804650791  0.8187175442388025  0.0609704055663455
  0.3232733270391073  0.6810754733642495  0.5611299699252497
  0.1760450858270886  0.1810240315007214  0.5613755874451501
  0.1242246912905272  0.4718595102723273  0.2478536114368020
  0.8756517019089446  0.5280199398318370  0.7478053822166870
  0.6240736597541311  0.0284251936660254  0.7482413806858229
  0.3761416798792627  0.9717162337944703  0.2481837651759515
  0.3141712590190943  0.6983890845143051  0.9423514079400718
  0.1863471160079606  0.1984509120059808  0.9426090038350912
  0.6855339898495452  0.3017372495501526  0.4423998085913612
  0.8135353189051292  0.8017882291367245  0.4424258181388039
 
  0.00000000E+00  0.00000000E+00  0.00000000E+00
  0.00000000E+00  0.00000000E+00  0.00000000E+00
  0.00000000E+00  0.00000000E+00  0.00000000E+00
  0.00000000E+00  0.00000000E+00  0.00000000E+00
  0.00000000E+00  0.00000000E+00  0.00000000E+00
  0.00000000E+00  0.00000000E+00  0.00000000E+00
  0.00000000E+00  0.00000000E+00  0.00000000E+00
  0.00000000E+00  0.00000000E+00  0.00000000E+00
  0.00000000E+00  0.00000000E+00  0.00000000E+00
  0.00000000E+00  0.00000000E+00  0.00000000E+00
  0.00000000E+00  0.00000000E+00  0.00000000E+00
  0.00000000E+00  0.00000000E+00  0.00000000E+00
  0.00000000E+00  0.00000000E+00  0.00000000E+00
  0.00000000E+00  0.00000000E+00  0.00000000E+00
  0.00000000E+00  0.00000000E+00  0.00000000E+00
  0.00000000E+00  0.00000000E+00  0.00000000E+00
