Ti4 O4 F8                               
   1.00000000000000     
     5.7388577141643076    0.0004100047227112   -0.1540957691361465
    -2.8691315030182531    4.7538728392294765    0.0753320639090243
    -0.2594909336167921   -0.0034172587112838    9.4607266818470102
   Ti   O    F 
     4     4     8
Direct
  0.3481350911408662  0.6430062556513274  0.6072960042389415
  0.6518846007639357  0.3569991720243148  0.3927032062156935
  0.7057958816991898  0.3574544788133448  0.1073848031168186
  0.2941942238605005  0.6425428462346727  0.8926128926826206
 -0.0000023177836378  0.5000621058683314 -0.0000123294305259
  0.4999332998534609  0.4999351607021688  0.4999884796420013
  0.8075638816088391  0.6152105945820086  0.2500870128462135
  0.1923940722780565  0.3847903637535199  0.7499114026625293
  0.5000288107945026  0.0000025517911961  0.0000003532992242
  0.4999793364098189  0.4999646702295823  0.0000066824337368
  0.5000347838125226  0.0000005896043539  0.4999999878418966
  0.0000144867377640  0.5000433394415377  0.5000134514228652
  0.3701958750499720  0.1638564091183189  0.2460189420632238
  0.6298184179185180  0.8361176707489884  0.7539888609169634
  0.7938367518671645  0.1637464495630493  0.2539567996393944
  0.2061928039885192  0.8362673418732991  0.7460434504083959
 
  0.00000000E+00  0.00000000E+00  0.00000000E+00
  0.00000000E+00  0.00000000E+00  0.00000000E+00
  0.00000000E+00  0.00000000E+00  0.00000000E+00
  0.00000000E+00  0.00000000E+00  0.00000000E+00
  0.00000000E+00  0.00000000E+00  0.00000000E+00
  0.00000000E+00  0.00000000E+00  0.00000000E+00
  0.00000000E+00  0.00000000E+00  0.00000000E+00
  0.00000000E+00  0.00000000E+00  0.00000000E+00
  0.00000000E+00  0.00000000E+00  0.00000000E+00
  0.00000000E+00  0.00000000E+00  0.00000000E+00
  0.00000000E+00  0.00000000E+00  0.00000000E+00
  0.00000000E+00  0.00000000E+00  0.00000000E+00
  0.00000000E+00  0.00000000E+00  0.00000000E+00
  0.00000000E+00  0.00000000E+00  0.00000000E+00
  0.00000000E+00  0.00000000E+00  0.00000000E+00
  0.00000000E+00  0.00000000E+00  0.00000000E+00
