Na4 Cr4 O8 F4                           
   1.00000000000000     
     5.5024205743299559   -0.0925546197227985    0.3239864005782297
    -2.8135592208847933    4.7961227835633746    0.2373538111606114
     0.7480659265336477    0.8134959857408876    9.3741534937911766
   Na   Cr   O    F 
     4     4     8     4
Direct
  0.0289388437562152  0.9798174057922612  0.0610299869611789
  0.9906049074176485  0.0386597747031772  0.5592244257523494
  0.3141888752274660  0.5614290579450291  0.2296796291897745
  0.7100873656556473  0.4290269319869149  0.7840604001688204
  0.3096705994902462  0.6962284415452121  0.6018770025789025
  0.7034684814702413  0.4311283056697640  0.4322905711904372
  0.6876503030460679  0.2838701185703505  0.1100948960913321
  0.3499130744073956  0.7470825078282760  0.8846034512849036
  0.5126994693788287  0.0368648296166874  0.9651623697260062
  0.0894147006089893  0.4459529512347805  0.0019673719107625
  0.5842762856183200  0.0912140480371565  0.5020416780838419
  0.9866620124189821  0.6423004309442660  0.5101614680942175
  0.4385324575560323  0.5057782527079387  0.4654164911476569
  0.8533032338443171  0.5232152172920228  0.2495187408747144
  0.5520332516081755  0.7145021434404204  0.7356295144537685
  0.1795735298396508  0.8279557826692570  0.7653953436803685
  0.6645833638692968  0.5822750303441427  0.0057227351333741
  0.0328239789609919  0.3217523470333388  0.7070522078237815
  0.3138642124094263  0.1553719577505204  0.2193722430070942
  0.6977110534160627  0.9855744648884842  0.2096994728467365
 
  0.00000000E+00  0.00000000E+00  0.00000000E+00
  0.00000000E+00  0.00000000E+00  0.00000000E+00
  0.00000000E+00  0.00000000E+00  0.00000000E+00
  0.00000000E+00  0.00000000E+00  0.00000000E+00
  0.00000000E+00  0.00000000E+00  0.00000000E+00
  0.00000000E+00  0.00000000E+00  0.00000000E+00
  0.00000000E+00  0.00000000E+00  0.00000000E+00
  0.00000000E+00  0.00000000E+00  0.00000000E+00
  0.00000000E+00  0.00000000E+00  0.00000000E+00
  0.00000000E+00  0.00000000E+00  0.00000000E+00
  0.00000000E+00  0.00000000E+00  0.00000000E+00
  0.00000000E+00  0.00000000E+00  0.00000000E+00
  0.00000000E+00  0.00000000E+00  0.00000000E+00
  0.00000000E+00  0.00000000E+00  0.00000000E+00
  0.00000000E+00  0.00000000E+00  0.00000000E+00
  0.00000000E+00  0.00000000E+00  0.00000000E+00
  0.00000000E+00  0.00000000E+00  0.00000000E+00
  0.00000000E+00  0.00000000E+00  0.00000000E+00
  0.00000000E+00  0.00000000E+00  0.00000000E+00
  0.00000000E+00  0.00000000E+00  0.00000000E+00
