Na4 Cr4 O8 F4                           
   1.00000000000000     
     5.4475233739331754    0.0052954974236643    0.1903139346411731
    -2.7191134628833264    4.7093977935737943   -0.3781284404425758
     0.2969002189094109   -0.5095800473206558    9.1869977919664958
   Na   Cr   O    F 
     4     4     8     4
Direct
  0.9667441307998649  0.9592672597191653  0.0365707798727493
  0.0335716246689940  0.9908292057894353  0.5383377675948362
  0.3331928101647773  0.6886706107604369  0.2303640251476887
  0.6666590764916500  0.3553519753890629  0.7302592828539231
  0.3344448955819258  0.6418440721172497  0.5854780441566266
  0.7061480102109677  0.3625820478986426  0.3811800609140998
  0.6656180390770521  0.3075544376562608  0.0855614786170941
  0.2937265591031840  0.6564566093870993  0.8811052053126223
  0.3911411303217362  0.9707164213145009  0.0359466863775700
  0.8989367221548621  0.4811105796888085  0.9535920735975765
  0.1010391717101619  0.5816817659237736  0.4537551566804977
  0.6089047194748929  0.5791932868103529  0.5360594746755964
  0.6832154694785748  0.5652684812525762  0.2284642404462159
  0.1654454847192293  0.3804203920896160  0.7054807704494286
  0.8344917655580755  0.2149462070721053  0.2053011301784494
  0.3166202196784553  0.8820677293334893  0.7283549915325211
  0.3371275738854581  0.4162183600041275  0.0042620027736936
  0.6630542244016913  0.0785874216556693  0.5041272581878578
  0.3161966986829070  0.1016479748546202  0.3381567090417910
  0.6837216738355480  0.7855851612830007  0.8376428615891681
 
  0.00000000E+00  0.00000000E+00  0.00000000E+00
  0.00000000E+00  0.00000000E+00  0.00000000E+00
  0.00000000E+00  0.00000000E+00  0.00000000E+00
  0.00000000E+00  0.00000000E+00  0.00000000E+00
  0.00000000E+00  0.00000000E+00  0.00000000E+00
  0.00000000E+00  0.00000000E+00  0.00000000E+00
  0.00000000E+00  0.00000000E+00  0.00000000E+00
  0.00000000E+00  0.00000000E+00  0.00000000E+00
  0.00000000E+00  0.00000000E+00  0.00000000E+00
  0.00000000E+00  0.00000000E+00  0.00000000E+00
  0.00000000E+00  0.00000000E+00  0.00000000E+00
  0.00000000E+00  0.00000000E+00  0.00000000E+00
  0.00000000E+00  0.00000000E+00  0.00000000E+00
  0.00000000E+00  0.00000000E+00  0.00000000E+00
  0.00000000E+00  0.00000000E+00  0.00000000E+00
  0.00000000E+00  0.00000000E+00  0.00000000E+00
  0.00000000E+00  0.00000000E+00  0.00000000E+00
  0.00000000E+00  0.00000000E+00  0.00000000E+00
  0.00000000E+00  0.00000000E+00  0.00000000E+00
  0.00000000E+00  0.00000000E+00  0.00000000E+00
