Na4 Cr4 O8 F4                           
   1.00000000000000     
     5.2989967331254677    0.1104791694650694    0.0085542919871972
     0.1050597314570612    5.3875633843700639    0.0026950455313835
    -0.0211173458446358   -0.0176123040205686    7.2159367798575076
   Na   Cr   O    F 
     4     4     8     4
Direct
  0.0071745330894005  0.0135131579953898  0.2447255335134655
  0.0030409430918335  0.9532598938379286  0.7513465392628476
  0.5076806148643145  0.4807719128600582  0.7530459988032846
  0.5009456457108089  0.5538572497418999  0.2516100283496280
  0.5012952425900029  0.9982154917242051  0.9989401107773458
  0.9998855226472565  0.4951760310525678  0.0013092455581163
  0.5097968368209224  0.0475439376608404  0.4969340675035476
  0.0069394616776740  0.4661685062060523  0.5022517476328204
  0.2041114539591673  0.2067438300069877  0.9733754146709190
  0.7889753913810816  0.7896824184124402  0.0243808527116791
  0.6906667621515403  0.3097212720827826  0.4691067604644672
  0.1927082916879186  0.1899468189978113  0.5291090552235913
  0.0516791625022110  0.4956802426435325  0.2554716653530203
  0.9418634177687940  0.5119457939572012  0.7447805604766190
  0.5493743998561557  0.0080503638905596  0.7399191146437839
  0.4485757778834653  0.9845981125070330  0.2587023138051106
  0.6988174727268590  0.2958050837932026  0.0334176322770540
  0.2954963753227145  0.7032199873011211  0.9693351951472745
  0.2947293224380312  0.6866144122632845  0.5330401362500643
  0.8062433718298476  0.8094854830650943  0.4691980275753331
 
  0.00000000E+00  0.00000000E+00  0.00000000E+00
  0.00000000E+00  0.00000000E+00  0.00000000E+00
  0.00000000E+00  0.00000000E+00  0.00000000E+00
  0.00000000E+00  0.00000000E+00  0.00000000E+00
  0.00000000E+00  0.00000000E+00  0.00000000E+00
  0.00000000E+00  0.00000000E+00  0.00000000E+00
  0.00000000E+00  0.00000000E+00  0.00000000E+00
  0.00000000E+00  0.00000000E+00  0.00000000E+00
  0.00000000E+00  0.00000000E+00  0.00000000E+00
  0.00000000E+00  0.00000000E+00  0.00000000E+00
  0.00000000E+00  0.00000000E+00  0.00000000E+00
  0.00000000E+00  0.00000000E+00  0.00000000E+00
  0.00000000E+00  0.00000000E+00  0.00000000E+00
  0.00000000E+00  0.00000000E+00  0.00000000E+00
  0.00000000E+00  0.00000000E+00  0.00000000E+00
  0.00000000E+00  0.00000000E+00  0.00000000E+00
  0.00000000E+00  0.00000000E+00  0.00000000E+00
  0.00000000E+00  0.00000000E+00  0.00000000E+00
  0.00000000E+00  0.00000000E+00  0.00000000E+00
  0.00000000E+00  0.00000000E+00  0.00000000E+00
