Na4 Mn4 O8 F4                           
   1.00000000000000     
     5.3475345707241582   -0.0222003875338225    0.0373150268921575
    -2.6949565293790361    4.7017258264123498   -0.0026218621846009
     0.0945745157922940    0.0123648615403329    9.0957719181726180
   Na   Mn   O    F 
     4     4     8     4
Direct
  0.9999520706485541  0.0000157820765523  0.0000271986180351
  0.9999801779702153  0.0001036513512247  0.4999983206747842
  0.3703612637110254  0.6929781787394447  0.2496740011908756
  0.6295287244734382  0.3069144275377127  0.7503626629302715
  0.3104975738063089  0.6734574475574675  0.6122398342395101
  0.6894693866925152  0.3265053195135437  0.3877709795438093
  0.6515034810557410  0.3269696599336740  0.1119812596070204
  0.3486147124567083  0.6730931295225133  0.8879659382523357
  0.5006740453146890  0.0002821726766271  0.9998827667705399
  0.4995771739170465  0.4997599622206295  0.0001137182953315
  0.4999442302408426  0.9997206923323034  0.4998356931668440
  0.9997171705986858  0.4996935730648531  0.5001604468682999
  0.7969352678510901  0.6165964494096059  0.2499303482217385
  0.2028237522893050  0.3834295018452565  0.7501966141212932
  0.8068527091697675  0.1744396555460668  0.2447428824242266
  0.1936907029285280  0.8260490274583461  0.7551729007010977
  0.0001003385628664  0.5008019974409947  0.0000325530381247
  0.4997010996407170  0.4995896407545359  0.5000268800357972
  0.3372541637403401  0.1632778646442645  0.2509163526074474
  0.6628219549316086  0.8363218663743694  0.7489686486926104
 
  0.00000000E+00  0.00000000E+00  0.00000000E+00
  0.00000000E+00  0.00000000E+00  0.00000000E+00
  0.00000000E+00  0.00000000E+00  0.00000000E+00
  0.00000000E+00  0.00000000E+00  0.00000000E+00
  0.00000000E+00  0.00000000E+00  0.00000000E+00
  0.00000000E+00  0.00000000E+00  0.00000000E+00
  0.00000000E+00  0.00000000E+00  0.00000000E+00
  0.00000000E+00  0.00000000E+00  0.00000000E+00
  0.00000000E+00  0.00000000E+00  0.00000000E+00
  0.00000000E+00  0.00000000E+00  0.00000000E+00
  0.00000000E+00  0.00000000E+00  0.00000000E+00
  0.00000000E+00  0.00000000E+00  0.00000000E+00
  0.00000000E+00  0.00000000E+00  0.00000000E+00
  0.00000000E+00  0.00000000E+00  0.00000000E+00
  0.00000000E+00  0.00000000E+00  0.00000000E+00
  0.00000000E+00  0.00000000E+00  0.00000000E+00
  0.00000000E+00  0.00000000E+00  0.00000000E+00
  0.00000000E+00  0.00000000E+00  0.00000000E+00
  0.00000000E+00  0.00000000E+00  0.00000000E+00
  0.00000000E+00  0.00000000E+00  0.00000000E+00
