Ni4 O4 F8                               
   1.00000000000000     
     4.8591649606091565   -0.0016400027069141    0.0000436728628154
    -0.0018128235962392    5.2076050928404012    0.0000261026581979
     0.0000113418553772    0.0000752912624447    6.8287127986681995
   Ni   O    F 
     4     4     8
Direct
  0.4992694410391322  0.9994640517739789  0.9989432571893213
  0.9993746996859214  0.5003567375040026  0.0009437344068256
  0.4992822221430822  0.9994762430351253  0.5010526915408536
  0.9993688025205251  0.5003560314215952  0.4990460806860321
  0.1342020026883715  0.4625677474112277  0.2499973821426495
  0.8713798892212411  0.5521141824177102  0.7500016128507185
  0.6335874751653743  0.0391354597135544  0.7500016124363890
  0.3716744203850846  0.9468255941285354  0.2500018452760763
  0.6881154953715756  0.3237629334635910  0.0596139525932837
  0.3099819044149696  0.6761423114141433  0.9372101166447505
  0.1879108317010132  0.1760566192248471  0.9411205304730368
  0.8099328583667766  0.8238738643633645  0.0622372953531528
  0.3099780190093021  0.6761378860052676  0.5627894052833051
  0.6881115343422224  0.3237687201421282  0.4403848138180270
  0.8099256988815815  0.8238979112458562  0.4377771568945260
  0.1879047050638122  0.1760637067350869  0.5588785124110657
 
  0.00000000E+00  0.00000000E+00  0.00000000E+00
  0.00000000E+00  0.00000000E+00  0.00000000E+00
  0.00000000E+00  0.00000000E+00  0.00000000E+00
  0.00000000E+00  0.00000000E+00  0.00000000E+00
  0.00000000E+00  0.00000000E+00  0.00000000E+00
  0.00000000E+00  0.00000000E+00  0.00000000E+00
  0.00000000E+00  0.00000000E+00  0.00000000E+00
  0.00000000E+00  0.00000000E+00  0.00000000E+00
  0.00000000E+00  0.00000000E+00  0.00000000E+00
  0.00000000E+00  0.00000000E+00  0.00000000E+00
  0.00000000E+00  0.00000000E+00  0.00000000E+00
  0.00000000E+00  0.00000000E+00  0.00000000E+00
  0.00000000E+00  0.00000000E+00  0.00000000E+00
  0.00000000E+00  0.00000000E+00  0.00000000E+00
  0.00000000E+00  0.00000000E+00  0.00000000E+00
  0.00000000E+00  0.00000000E+00  0.00000000E+00
