Ti2 O2 F4                               
   1.00000000000000     
    -2.6642481694321156   -4.5294185651514889    0.0474182408479084
    -5.2547159223393587   -0.0425971462461912    0.0474180859445976
    -2.5992229304874459   -1.5006614531132887   -4.4220185395364284
   Ti   O    F 
     2     2     4
Direct
  0.9955367202523959  0.0050944483073607  0.9733056810591378
  0.4949056862825714  0.5044631863954407  0.5266942961692109
  0.1640488750527140  0.7460221287435118  0.7532352582488713
  0.7539779051840227  0.3359510696456738  0.7467647698444111
  0.2574413026963640  0.6728021410071463  0.2446440709929334
  0.6660611044219920  0.8339388985269522  0.2499999921171536
  0.3408305504302405  0.1591694436673379  0.7500000059778458
  0.8271978556796995  0.2425586837065836  0.2553559255904432
 
  0.00000000E+00  0.00000000E+00  0.00000000E+00
  0.00000000E+00  0.00000000E+00  0.00000000E+00
  0.00000000E+00  0.00000000E+00  0.00000000E+00
  0.00000000E+00  0.00000000E+00  0.00000000E+00
  0.00000000E+00  0.00000000E+00  0.00000000E+00
  0.00000000E+00  0.00000000E+00  0.00000000E+00
  0.00000000E+00  0.00000000E+00  0.00000000E+00
  0.00000000E+00  0.00000000E+00  0.00000000E+00
