Cr8 O8 F16                              
   1.00000000000000     
     7.2921674503786207   -0.0000753904856733    0.0013100140276648
     0.0000005032705301    7.4852636076904249    0.0001620172109243
     0.0034596361096757    0.0000737141945860    7.5573239741495764
   Cr   O    F 
     8     8    16
Direct
  0.0001030844858318  0.0000066247739941  0.0000614062196037
  0.0210231680804490  0.0000132043311158  0.5004065576636092
 -0.0000341761242704  0.5000093917348706  0.9989922014288606
 -0.0029666106646290  0.4999889460255721  0.4983397733066512
  0.5005561136163603 -0.0000530407660920  0.0011256672967407
  0.4946744365779326  0.0000051959379407  0.5012931483703762
  0.4997954100219923  0.4998014612832188  0.9923874062332781
  0.4983717119220652  0.4999958649983669  0.5205679363743925
  0.2513247166514366  0.0000622362049744  0.5012072407725963
  0.7318954460975062  0.4999486731723887  0.9975953654609693
  0.4990816409358716  0.4999186620533280  0.7461411493230443
  0.2378628926480044  0.0000046722784081  0.0002390551043438
  0.2673750459535923  0.4999573853656453  0.9973262240232025
  0.7626074133772738  0.0000155720641131  0.0004418604079070
 -0.0029236560188331  0.2315628840554374  0.4998851288754385
 -0.0029031054421025  0.7685230444077173  0.4998545856719843
  0.9975999904651722  0.0000568860160264  0.2507554965355479
  0.5036685130230574  0.0000819759638199  0.7495770574768437
  0.2509643226278627  0.5000215301839642  0.4903181560355570
  0.7447829348400080  0.5000676201111025  0.4885868455732129
  0.0002563949348820  0.7504303064957507  0.9982754749518210
  0.4998159125311051  0.2486943666226122  0.0042414994456761
  0.9971853718266679  0.0000009139856383  0.7495132056729482
 -0.0001122146383029  0.5000015026785161  0.2488481776629843
 -0.0000782553347735  0.5000899922226036  0.7479145281202375
  0.5037115816288936  0.9999946366237674  0.2526760337240051
  0.4981567188780409  0.4999994602062341  0.2576046153099575
  0.7470062656818849  0.0000186667310430  0.5013214850128421
  0.0002730692777386  0.2496004024723813  0.9981614071285507
  0.5005684381481675  0.2504872251308923  0.5010732426405700
  0.4998346344556281  0.7511608674424040  0.0041248667345005
  0.5005227895354658  0.7495328691922298  0.5011432014417473
 
  0.00000000E+00  0.00000000E+00  0.00000000E+00
  0.00000000E+00  0.00000000E+00  0.00000000E+00
  0.00000000E+00  0.00000000E+00  0.00000000E+00
  0.00000000E+00  0.00000000E+00  0.00000000E+00
  0.00000000E+00  0.00000000E+00  0.00000000E+00
  0.00000000E+00  0.00000000E+00  0.00000000E+00
  0.00000000E+00  0.00000000E+00  0.00000000E+00
  0.00000000E+00  0.00000000E+00  0.00000000E+00
  0.00000000E+00  0.00000000E+00  0.00000000E+00
  0.00000000E+00  0.00000000E+00  0.00000000E+00
  0.00000000E+00  0.00000000E+00  0.00000000E+00
  0.00000000E+00  0.00000000E+00  0.00000000E+00
  0.00000000E+00  0.00000000E+00  0.00000000E+00
  0.00000000E+00  0.00000000E+00  0.00000000E+00
  0.00000000E+00  0.00000000E+00  0.00000000E+00
  0.00000000E+00  0.00000000E+00  0.00000000E+00
  0.00000000E+00  0.00000000E+00  0.00000000E+00
  0.00000000E+00  0.00000000E+00  0.00000000E+00
  0.00000000E+00  0.00000000E+00  0.00000000E+00
  0.00000000E+00  0.00000000E+00  0.00000000E+00
  0.00000000E+00  0.00000000E+00  0.00000000E+00
  0.00000000E+00  0.00000000E+00  0.00000000E+00
  0.00000000E+00  0.00000000E+00  0.00000000E+00
  0.00000000E+00  0.00000000E+00  0.00000000E+00
  0.00000000E+00  0.00000000E+00  0.00000000E+00
  0.00000000E+00  0.00000000E+00  0.00000000E+00
  0.00000000E+00  0.00000000E+00  0.00000000E+00
  0.00000000E+00  0.00000000E+00  0.00000000E+00
  0.00000000E+00  0.00000000E+00  0.00000000E+00
  0.00000000E+00  0.00000000E+00  0.00000000E+00
  0.00000000E+00  0.00000000E+00  0.00000000E+00
  0.00000000E+00  0.00000000E+00  0.00000000E+00
