Pentasodium niccolate(III)              
   1.00000000000000     
    10.1165328047592293    0.0000007106612261   -0.0000003918852240
     0.0000004955190036    5.8702339571987290   -0.0000000854629413
    -0.0000007121127086   -0.0000001095163025   17.7441217107421529
   Na   Ni   O 
    40     8    32
Direct
  0.1709689633448406  0.1029218469051116  0.8287691377637927
  0.8290486185939940  0.8970847750141360  0.1712157130390608
  0.3290487069188401  0.8970846365337835  0.3287844634825134
  0.6709691594419240  0.1029218673137891  0.6712310421066476
  0.8290480218031533  0.6029153223622785  0.6712163494012202
  0.1709686117131497  0.3970782492098266  0.3287693544231587
  0.6709686930696250  0.3970781222310507  0.1712306701809112
  0.3290486044132237  0.6029152946959186  0.8287843379877629
  0.0614653166799854  0.0787774334241647  0.4342908727371722
  0.9385673361309372  0.9212946121223169  0.5657077354585951
  0.4385675568750855  0.9212952134611925  0.9342922162833389
  0.5614653442439632  0.0787773525872240  0.0657092080247210
  0.9385674616601989  0.5787047526532660  0.0657077608256458
  0.0614652278963064  0.4212225745083273  0.9342907793895208
  0.5614653578053392  0.4212224758103034  0.5657092213253492
  0.4385675450439379  0.5787048490460549  0.4342922991341922
  0.4173051224847200  0.1077940041099126  0.7505066062089867
  0.5826913546488584  0.8922974905436476  0.2494812981834542
  0.0826917189848544  0.8922969595931463  0.2505185153279470
  0.9173051773237972  0.1077935871047515  0.7494933454312118
  0.5826913587162039  0.6077026199003939  0.7494812745811004
  0.4173051823251228  0.3922062660329360  0.2505066392943149
  0.9173051758653301  0.3922061955309744  0.2494934050221289
  0.0826918055777242  0.6077033400996044  0.7505184595287702
  0.3412587655480550  0.0861734474183962  0.5014204402438764
  0.6587277389360864  0.9138665653592284  0.4985846872010313
  0.1587275677617086  0.9138662521939267  0.0014152176845528
  0.8412588812703703  0.0861736524911194  0.9985795573092986
  0.6587277885619400  0.5861334055877094  0.9985846589253455
  0.3412587349131400  0.4138267565229441  0.0014205311858930
  0.8412587914704588  0.4138272669479051  0.4985795089679215
  0.1587276037496181  0.5861335765662972  0.5014152939962528
  0.2967260069157405  0.0735972912337317  0.1380229917337843
  0.7033296139675471  0.9264115854681734  0.8619790771113784
  0.2033298311306524  0.9264116681246719  0.6380209385923834
  0.7967259360489933  0.0735973898221687  0.3619769742307710
  0.7033296169572907  0.5735883580261287  0.3619790453734311
  0.2967258064914802  0.4264023678162658  0.6380229943722497
  0.7967259720685860  0.4264026037960207  0.8619769884661181
  0.2033294235016783  0.5735880890753293  0.1380208969232299
  0.0393874734567490  0.1770955889291272  0.1241740847045705
  0.9606394597465382  0.8228848424426616  0.8758315596612221
  0.4606394225378452  0.8228845242532756  0.6241684370194065
  0.5393875281076106  0.1770956677008968  0.3758259386058214
  0.9606395722967491  0.6771153788396447  0.3758315403576447
  0.0393877650462713  0.3229050961927129  0.6241735311771208
  0.5393876578835517  0.3229044588449810  0.8758259047068435
  0.4606395894692099  0.6771153587716512  0.1241684126169744
  0.3620812198456775  0.2619341531588191  0.3745280263140742
  0.6378673630643590  0.7381096108070793  0.6254528541941795
  0.1378673959683567  0.7381097405435071  0.8745471799389861
  0.8620812091315031  0.2619343686186539  0.1254719508614670
  0.6378672812729178  0.7618902480087471  0.1254527407108128
  0.3620811593319075  0.2380657248239402  0.8745279903426137
  0.8620809622122252  0.2380656741957168  0.6254721163732455
  0.1378673146061828  0.7618900974415581  0.3745472112899577
  0.1271564779710985  0.2664117101670129  0.2122395659815908
  0.8728527640804629  0.7336483696685789  0.7877555164779437
  0.3728526801740202  0.7336484033612365  0.7122444919039097
  0.6271564532096150  0.2664116966900707  0.2877604086726109
  0.8728528258133252  0.7663515839743056  0.2877554813887571
  0.1271566790286158  0.2335880869178055  0.7122397743160889
  0.6271565478606576  0.2335883285593283  0.7877604271479512
  0.3728527366779630  0.7663516090418057  0.2122444659059397
  0.1319007819555864  0.1946034517108757  0.5454952896000904
  0.8680037107124292  0.8051322467563153  0.4545228880232770
  0.3680035635106336  0.8051321588008662  0.0454770311853849
  0.6319009887828244  0.1946033577878268  0.9545048996551202
  0.8680035726419035  0.6948678522523579  0.9545229226476906
  0.1319009159257121  0.3053966456973498  0.0454951156360508
  0.6319009820397383  0.3053967168406686  0.4545048608211744
  0.3680035726470905  0.6948677282124578  0.5454770616611881
  0.4507010719854918  0.1369404187599841  0.6202411321463828
  0.5493206659153529  0.8631622731309676  0.3797582613528405
  0.0493205251993984  0.8631623546247482  0.1202416468396734
  0.9507011807558783  0.1369402328012015  0.8797588326365542
  0.5493205929217169  0.6368374786823452  0.8797582742478482
  0.4507011738359026  0.3630596258250876  0.1202410823467730
  0.9507010868843011  0.3630596471932535  0.3797588646417864
  0.0493205966381538  0.6368373557264704  0.6202417484293861
 
  0.00000000E+00  0.00000000E+00  0.00000000E+00
  0.00000000E+00  0.00000000E+00  0.00000000E+00
  0.00000000E+00  0.00000000E+00  0.00000000E+00
  0.00000000E+00  0.00000000E+00  0.00000000E+00
  0.00000000E+00  0.00000000E+00  0.00000000E+00
  0.00000000E+00  0.00000000E+00  0.00000000E+00
  0.00000000E+00  0.00000000E+00  0.00000000E+00
  0.00000000E+00  0.00000000E+00  0.00000000E+00
  0.00000000E+00  0.00000000E+00  0.00000000E+00
  0.00000000E+00  0.00000000E+00  0.00000000E+00
  0.00000000E+00  0.00000000E+00  0.00000000E+00
  0.00000000E+00  0.00000000E+00  0.00000000E+00
  0.00000000E+00  0.00000000E+00  0.00000000E+00
  0.00000000E+00  0.00000000E+00  0.00000000E+00
  0.00000000E+00  0.00000000E+00  0.00000000E+00
  0.00000000E+00  0.00000000E+00  0.00000000E+00
  0.00000000E+00  0.00000000E+00  0.00000000E+00
  0.00000000E+00  0.00000000E+00  0.00000000E+00
  0.00000000E+00  0.00000000E+00  0.00000000E+00
  0.00000000E+00  0.00000000E+00  0.00000000E+00
  0.00000000E+00  0.00000000E+00  0.00000000E+00
  0.00000000E+00  0.00000000E+00  0.00000000E+00
  0.00000000E+00  0.00000000E+00  0.00000000E+00
  0.00000000E+00  0.00000000E+00  0.00000000E+00
  0.00000000E+00  0.00000000E+00  0.00000000E+00
  0.00000000E+00  0.00000000E+00  0.00000000E+00
  0.00000000E+00  0.00000000E+00  0.00000000E+00
  0.00000000E+00  0.00000000E+00  0.00000000E+00
  0.00000000E+00  0.00000000E+00  0.00000000E+00
  0.00000000E+00  0.00000000E+00  0.00000000E+00
  0.00000000E+00  0.00000000E+00  0.00000000E+00
  0.00000000E+00  0.00000000E+00  0.00000000E+00
  0.00000000E+00  0.00000000E+00  0.00000000E+00
  0.00000000E+00  0.00000000E+00  0.00000000E+00
  0.00000000E+00  0.00000000E+00  0.00000000E+00
  0.00000000E+00  0.00000000E+00  0.00000000E+00
  0.00000000E+00  0.00000000E+00  0.00000000E+00
  0.00000000E+00  0.00000000E+00  0.00000000E+00
  0.00000000E+00  0.00000000E+00  0.00000000E+00
  0.00000000E+00  0.00000000E+00  0.00000000E+00
  0.00000000E+00  0.00000000E+00  0.00000000E+00
  0.00000000E+00  0.00000000E+00  0.00000000E+00
  0.00000000E+00  0.00000000E+00  0.00000000E+00
  0.00000000E+00  0.00000000E+00  0.00000000E+00
  0.00000000E+00  0.00000000E+00  0.00000000E+00
  0.00000000E+00  0.00000000E+00  0.00000000E+00
  0.00000000E+00  0.00000000E+00  0.00000000E+00
  0.00000000E+00  0.00000000E+00  0.00000000E+00
  0.00000000E+00  0.00000000E+00  0.00000000E+00
  0.00000000E+00  0.00000000E+00  0.00000000E+00
  0.00000000E+00  0.00000000E+00  0.00000000E+00
  0.00000000E+00  0.00000000E+00  0.00000000E+00
  0.00000000E+00  0.00000000E+00  0.00000000E+00
  0.00000000E+00  0.00000000E+00  0.00000000E+00
  0.00000000E+00  0.00000000E+00  0.00000000E+00
  0.00000000E+00  0.00000000E+00  0.00000000E+00
  0.00000000E+00  0.00000000E+00  0.00000000E+00
  0.00000000E+00  0.00000000E+00  0.00000000E+00
  0.00000000E+00  0.00000000E+00  0.00000000E+00
  0.00000000E+00  0.00000000E+00  0.00000000E+00
  0.00000000E+00  0.00000000E+00  0.00000000E+00
  0.00000000E+00  0.00000000E+00  0.00000000E+00
  0.00000000E+00  0.00000000E+00  0.00000000E+00
  0.00000000E+00  0.00000000E+00  0.00000000E+00
  0.00000000E+00  0.00000000E+00  0.00000000E+00
  0.00000000E+00  0.00000000E+00  0.00000000E+00
  0.00000000E+00  0.00000000E+00  0.00000000E+00
  0.00000000E+00  0.00000000E+00  0.00000000E+00
  0.00000000E+00  0.00000000E+00  0.00000000E+00
  0.00000000E+00  0.00000000E+00  0.00000000E+00
  0.00000000E+00  0.00000000E+00  0.00000000E+00
  0.00000000E+00  0.00000000E+00  0.00000000E+00
  0.00000000E+00  0.00000000E+00  0.00000000E+00
  0.00000000E+00  0.00000000E+00  0.00000000E+00
  0.00000000E+00  0.00000000E+00  0.00000000E+00
  0.00000000E+00  0.00000000E+00  0.00000000E+00
  0.00000000E+00  0.00000000E+00  0.00000000E+00
  0.00000000E+00  0.00000000E+00  0.00000000E+00
  0.00000000E+00  0.00000000E+00  0.00000000E+00
  0.00000000E+00  0.00000000E+00  0.00000000E+00
