Na4 Ni4 O8 F4                           
   1.00000000000000     
     5.4051640841562261    0.5224218922079047   -0.0235760503619097
     0.5293473902490446    5.4760332038914363   -0.0228625893847537
    -0.0272559089479192    0.0338122813210515    7.0731466812521377
   Na   Ni   O    F 
     4     4     8     4
Direct
  0.9719862623608763  0.0498500289542350  0.2563593624845728
  0.0290187291880417  0.9552016354218860  0.7325535004860552
  0.5066253151011912  0.4511184486353761  0.7430691597409984
  0.5001835484339354  0.5297108673411064  0.2604895779842557
  0.4969778674645361  0.9847477603983257  0.9949330020381755
  0.0062753804603078  0.5019692218563350  0.9918150422891104
  0.5055069576360105  0.9892140843735016  0.5058568539717565
 -0.0008624591742376  0.4981430003940396  0.5082281960633390
  0.0886260013628223  0.4494805966372668  0.2526718032157851
  0.8814672211798825  0.5802200208920377  0.7488461735165699
  0.6222538682221689  0.9528344500730236  0.7462413660804441
  0.2844200217030414  0.7225209769320323  0.9832799623852071
  0.2064335321463922  0.2162917409308307  0.9137993449474824
  0.8031557913820595  0.7872826621702788  0.0756851459349026
  0.7786783759682585  0.7699099430757872  0.4104715214795199
  0.2297534026660124  0.2247933759331938  0.5928084737779430
  0.3817914939284088  0.0557842821991629  0.2563361888808353
  0.6981072079427477  0.2892603400531876  0.0290419258098339
  0.2874665659438296  0.7194572077239760  0.5222289020388415
  0.7221349160837218  0.2722093560044171  0.4752844968743782
 
  0.00000000E+00  0.00000000E+00  0.00000000E+00
  0.00000000E+00  0.00000000E+00  0.00000000E+00
  0.00000000E+00  0.00000000E+00  0.00000000E+00
  0.00000000E+00  0.00000000E+00  0.00000000E+00
  0.00000000E+00  0.00000000E+00  0.00000000E+00
  0.00000000E+00  0.00000000E+00  0.00000000E+00
  0.00000000E+00  0.00000000E+00  0.00000000E+00
  0.00000000E+00  0.00000000E+00  0.00000000E+00
  0.00000000E+00  0.00000000E+00  0.00000000E+00
  0.00000000E+00  0.00000000E+00  0.00000000E+00
  0.00000000E+00  0.00000000E+00  0.00000000E+00
  0.00000000E+00  0.00000000E+00  0.00000000E+00
  0.00000000E+00  0.00000000E+00  0.00000000E+00
  0.00000000E+00  0.00000000E+00  0.00000000E+00
  0.00000000E+00  0.00000000E+00  0.00000000E+00
  0.00000000E+00  0.00000000E+00  0.00000000E+00
  0.00000000E+00  0.00000000E+00  0.00000000E+00
  0.00000000E+00  0.00000000E+00  0.00000000E+00
  0.00000000E+00  0.00000000E+00  0.00000000E+00
  0.00000000E+00  0.00000000E+00  0.00000000E+00
