Ni4 O4 F8                               
   1.00000000000000     
     4.8198563272948967   -0.0458172005070324   -0.0034475649459257
    -0.0835775067126133    5.0517930052805049    0.0818775114783877
    -0.0220511801640402    0.0516454175174492    6.9769475951215201
   Ni   O    F 
     4     4     8
Direct
  0.4997233247737224  0.0086872082346186  0.0072271635381518
  0.0084450453154297  0.4978552752794898  0.9985396493000245
  0.4959591650201184 -0.0022799228375462  0.5003905545100914
  0.0149687962584331  0.5103616347397418  0.4964940811448051
  0.6843871540723208  0.3530153904381039  0.0694342917104507
  0.7959055703187938  0.8301156871242147  0.0912449996190828
  0.3543575583627866  0.6819258700493563  0.5648374561613656
  0.8054088791629038  0.8110625291459698  0.4225339051675639
  0.3238681640063767  0.6730321390225686  0.9261688743547752
  0.1820326084308466  0.1647474886416530  0.9325259533183796
  0.6665443439552075  0.3107924696403646  0.4289929741676022
  0.1666251481264529  0.1596622935150528  0.5587028879648159
  0.1437812725508271  0.4529519583333925  0.2396994085237914
  0.8731876238028368  0.5442262949734864  0.7571630502931014
  0.6397970495517094  0.0432686303848078  0.7624210590605713
  0.3450082962912200  0.9605750533147258  0.2436236911654270
 
  0.00000000E+00  0.00000000E+00  0.00000000E+00
  0.00000000E+00  0.00000000E+00  0.00000000E+00
  0.00000000E+00  0.00000000E+00  0.00000000E+00
  0.00000000E+00  0.00000000E+00  0.00000000E+00
  0.00000000E+00  0.00000000E+00  0.00000000E+00
  0.00000000E+00  0.00000000E+00  0.00000000E+00
  0.00000000E+00  0.00000000E+00  0.00000000E+00
  0.00000000E+00  0.00000000E+00  0.00000000E+00
  0.00000000E+00  0.00000000E+00  0.00000000E+00
  0.00000000E+00  0.00000000E+00  0.00000000E+00
  0.00000000E+00  0.00000000E+00  0.00000000E+00
  0.00000000E+00  0.00000000E+00  0.00000000E+00
  0.00000000E+00  0.00000000E+00  0.00000000E+00
  0.00000000E+00  0.00000000E+00  0.00000000E+00
  0.00000000E+00  0.00000000E+00  0.00000000E+00
  0.00000000E+00  0.00000000E+00  0.00000000E+00
