Na4 Fe4 O8 F4                           
   1.00000000000000     
     5.2177154422719685   -0.1547617103322637   -0.0249600289286574
    -0.1550587766426010    5.2770786738764555    0.0244807497162933
    -0.0371727625576367    0.0339151955195213    7.6171214302598047
   Na   Fe   O    F 
     4     4     8     4
Direct
  0.9934364718883669  0.0336272908646745  0.2516443651737431
  0.0115556347345753  0.9540289917500320  0.7507894396911646
  0.4890837562250728  0.4731335591082277  0.7554797635410279
  0.5155214527290152  0.5369629477780964  0.2526303190926573
  0.5197732884032055  0.9908550391168958  0.9887166370222414
  0.9939635167608314  0.5148687315530373  0.0151053669653123
  0.4898694243704402  0.0115940199714693  0.5140646406847349
  0.0161630789595385  0.4841235825754484  0.4898848144260187
  0.7082345426921439  0.2858730252383667  0.0367906583935885
  0.2819362766525608  0.7158374710775656  0.9610927643835179
  0.7879016824418107  0.7889998609307808  0.0327117607200013
  0.2871771575084969  0.7138758442507656  0.5389731105323001
  0.7153959894498955  0.2831573474014781  0.4608533245349438
  0.2098295603767396  0.2109192471617097  0.5320976481423505
  0.0710555387732070  0.4949135506733445  0.2493461272101166
  0.5714401768248976  0.0204437639211966  0.7488763143547802
  0.2042446741047129  0.2106006740582805  0.9615475839584309
  0.7896758050415017  0.7871688000890017  0.4614731316168800
  0.9209038113097688  0.5112506939950825  0.7488691318900454
  0.4228381607531976  0.9777655584845607  0.2490530976661519
 
  0.00000000E+00  0.00000000E+00  0.00000000E+00
  0.00000000E+00  0.00000000E+00  0.00000000E+00
  0.00000000E+00  0.00000000E+00  0.00000000E+00
  0.00000000E+00  0.00000000E+00  0.00000000E+00
  0.00000000E+00  0.00000000E+00  0.00000000E+00
  0.00000000E+00  0.00000000E+00  0.00000000E+00
  0.00000000E+00  0.00000000E+00  0.00000000E+00
  0.00000000E+00  0.00000000E+00  0.00000000E+00
  0.00000000E+00  0.00000000E+00  0.00000000E+00
  0.00000000E+00  0.00000000E+00  0.00000000E+00
  0.00000000E+00  0.00000000E+00  0.00000000E+00
  0.00000000E+00  0.00000000E+00  0.00000000E+00
  0.00000000E+00  0.00000000E+00  0.00000000E+00
  0.00000000E+00  0.00000000E+00  0.00000000E+00
  0.00000000E+00  0.00000000E+00  0.00000000E+00
  0.00000000E+00  0.00000000E+00  0.00000000E+00
  0.00000000E+00  0.00000000E+00  0.00000000E+00
  0.00000000E+00  0.00000000E+00  0.00000000E+00
  0.00000000E+00  0.00000000E+00  0.00000000E+00
  0.00000000E+00  0.00000000E+00  0.00000000E+00
