Ni8 O8 F16                              
   1.00000000000000     
     7.3890761282765167   -0.0005824226973115   -0.0020475284807754
    -0.0057391109047145    7.5774874410052009   -0.0132250960012258
    -0.0016840019176591   -0.0052442820530665    7.5451490698255821
   Ni   O    F 
     8     8    16
Direct
  0.0008198431213299  0.0000340480694076  0.9999934197965693
  0.9995947439505631  0.9999992428938004  0.4999579319721015
  0.0019900359088311  0.4999838602633505  0.0000674608726807
  0.9979394897631314  0.4999813438812216  0.5000053578232412
  0.5006242207460553  0.9999915027973763  0.9999801666331949
  0.5005261896074948  0.9999704941007563  0.4999538174663927
  0.4988842430357978  0.5000007383706566  0.9999901199832573
  0.5018572191663528  0.5000190461253081  0.4999961001667660
  0.2494946951963462  0.0001671325939588  0.4999464998405719
  0.7545490749203568  0.5002405341031685  0.5000474149140877
  0.5000736699731604  0.4995126904085953  0.2498212619787205
  0.5004818838803314  0.5003532528637307  0.7501783003755289
  0.2495958153144223  0.0002203295903182  0.9999440998702840
  0.2443998718312675  0.5004038630027687  0.0006207898836537
  0.7516770167160447  0.9997771353985756  0.9999535487969496
  0.7506023850564081  0.9997887876888901  0.4999284544379718
  0.9999617268732631  0.9984915953661851  0.2461596818199819
  0.5006094561352281  0.0011818890016750  0.7516717094347052
  0.2447872182286306  0.5000059717915039  0.5003000680956966
  0.7556758374360156  0.4998416712588140  0.9999691292655304
  0.0027364462506043  0.7423374890355622  0.0001240486891608
  0.5012526276713883  0.2495960388265085  0.9997189946018659
  0.9999220841671022  0.0014561387587432  0.7537960325077978
  0.9949363115568228  0.4988875462925195  0.2572721055218095
  0.9952815633808529  0.5009548941395308  0.7428355111017283
  0.5005629822139237  0.9987411408503329  0.2482495868314363
  0.0027671497380019  0.2577038744531228  0.9998840159392238
  0.0016753060365142  0.2461111544590411  0.4985476514985857
  0.0021361120090318  0.7538645330958125  0.5013947192378895
  0.4981220367275300  0.2476567245647604  0.4981141993071428
  0.4997737618269160  0.7504111841770666  0.0000023644184047
  0.4966889815602667  0.7523141517769597  0.5015754369170622
 
  0.00000000E+00  0.00000000E+00  0.00000000E+00
  0.00000000E+00  0.00000000E+00  0.00000000E+00
  0.00000000E+00  0.00000000E+00  0.00000000E+00
  0.00000000E+00  0.00000000E+00  0.00000000E+00
  0.00000000E+00  0.00000000E+00  0.00000000E+00
  0.00000000E+00  0.00000000E+00  0.00000000E+00
  0.00000000E+00  0.00000000E+00  0.00000000E+00
  0.00000000E+00  0.00000000E+00  0.00000000E+00
  0.00000000E+00  0.00000000E+00  0.00000000E+00
  0.00000000E+00  0.00000000E+00  0.00000000E+00
  0.00000000E+00  0.00000000E+00  0.00000000E+00
  0.00000000E+00  0.00000000E+00  0.00000000E+00
  0.00000000E+00  0.00000000E+00  0.00000000E+00
  0.00000000E+00  0.00000000E+00  0.00000000E+00
  0.00000000E+00  0.00000000E+00  0.00000000E+00
  0.00000000E+00  0.00000000E+00  0.00000000E+00
  0.00000000E+00  0.00000000E+00  0.00000000E+00
  0.00000000E+00  0.00000000E+00  0.00000000E+00
  0.00000000E+00  0.00000000E+00  0.00000000E+00
  0.00000000E+00  0.00000000E+00  0.00000000E+00
  0.00000000E+00  0.00000000E+00  0.00000000E+00
  0.00000000E+00  0.00000000E+00  0.00000000E+00
  0.00000000E+00  0.00000000E+00  0.00000000E+00
  0.00000000E+00  0.00000000E+00  0.00000000E+00
  0.00000000E+00  0.00000000E+00  0.00000000E+00
  0.00000000E+00  0.00000000E+00  0.00000000E+00
  0.00000000E+00  0.00000000E+00  0.00000000E+00
  0.00000000E+00  0.00000000E+00  0.00000000E+00
  0.00000000E+00  0.00000000E+00  0.00000000E+00
  0.00000000E+00  0.00000000E+00  0.00000000E+00
  0.00000000E+00  0.00000000E+00  0.00000000E+00
  0.00000000E+00  0.00000000E+00  0.00000000E+00
