V4 O4 F8                                
   1.00000000000000     
     5.1474168250825381    0.0428581899422376   -0.0014236550923404
     0.0546164211844218    5.2956466345431048    0.0037506547971637
     0.0025398954060399   -0.0064025901676978    7.3625536570541046
   V    O    F 
     4     4     8
Direct
  0.4871533760746019  0.0041186486836580  0.0301183598807313
  0.9789723164491804  0.5328240741754939  0.9995182648958547
  0.5128884161502114  0.9959207892361306  0.5301007236323656
  0.0210910462729998  0.4671313933138137  0.4995464378268863
  0.7870001376954079  0.7841550992607935  0.0334747126452513
  0.2131866592972003  0.2161369235982065  0.5335375872345622
  0.5803216440960313  0.0213822812269981  0.7471144180900282
  0.4198348670113674  0.9784998440382324  0.2471220205130535
  0.7072847093335000  0.2934965487907135  0.0490122864997176
  0.2867123277494699  0.7196904033186868  0.9419284054814199
  0.2017671526891647  0.2269834037451304  0.9545628021862882
  0.2922995896884615  0.7068133018560587  0.5490324666228048
  0.7135333494811817  0.2799998230281489  0.4419014645436121
  0.7979499320534416  0.7727369908461554  0.4545437934174785
  0.1059082573905954  0.4977449727241563  0.2442373630984420
  0.8940962185671779  0.5023655021576303  0.7442488934315179
 
  0.00000000E+00  0.00000000E+00  0.00000000E+00
  0.00000000E+00  0.00000000E+00  0.00000000E+00
  0.00000000E+00  0.00000000E+00  0.00000000E+00
  0.00000000E+00  0.00000000E+00  0.00000000E+00
  0.00000000E+00  0.00000000E+00  0.00000000E+00
  0.00000000E+00  0.00000000E+00  0.00000000E+00
  0.00000000E+00  0.00000000E+00  0.00000000E+00
  0.00000000E+00  0.00000000E+00  0.00000000E+00
  0.00000000E+00  0.00000000E+00  0.00000000E+00
  0.00000000E+00  0.00000000E+00  0.00000000E+00
  0.00000000E+00  0.00000000E+00  0.00000000E+00
  0.00000000E+00  0.00000000E+00  0.00000000E+00
  0.00000000E+00  0.00000000E+00  0.00000000E+00
  0.00000000E+00  0.00000000E+00  0.00000000E+00
  0.00000000E+00  0.00000000E+00  0.00000000E+00
  0.00000000E+00  0.00000000E+00  0.00000000E+00
