Co4 O4 F8                               
   1.00000000000000     
     5.4982774029731702    0.0309747916755919    0.0081904249222272
    -2.7223143730186621    4.7771340428646436    0.0081977323382828
     0.0138596069163919    0.0240105748284844    9.4750566890818781
   Co   O    F 
     4     4     8
Direct
  0.3237043996847308  0.6622252565804122  0.6040443420958699
  0.6713185506834650  0.3337210728575736  0.3909333975729268
  0.6622262627758481  0.3237050957143018  0.1040443042670479
  0.3337213840551856  0.6713187949022691  0.8909337619363391
  0.5008170685778439  0.0033111679048014  0.0009221674306164
  0.0033103657906212  0.5008175977393394  0.5009227835834554
  0.1890560478143768  0.3698983040785938  0.7492714022401309
  0.3698974254980981  0.1890568750348322  0.2492716316664943
  0.0069584099869122  0.5084480751534469  0.0023617897030219
  0.5020995142951310  0.5065789977682628  0.0022401549940945
  0.5084446122074473  0.0069557310779020  0.5023633400560603
  0.5065761147280998  0.5020970740440912  0.5022398938116426
  0.8059976453269859  0.6233112272823823  0.2518973068059592
  0.6233115357703319  0.8059937190796995  0.7518971434997188
  0.8121389755616923  0.1804205061813349  0.2483283620575992
  0.1804216872432227  0.8121405046007566  0.7483282182790300
 
  0.00000000E+00  0.00000000E+00  0.00000000E+00
  0.00000000E+00  0.00000000E+00  0.00000000E+00
  0.00000000E+00  0.00000000E+00  0.00000000E+00
  0.00000000E+00  0.00000000E+00  0.00000000E+00
  0.00000000E+00  0.00000000E+00  0.00000000E+00
  0.00000000E+00  0.00000000E+00  0.00000000E+00
  0.00000000E+00  0.00000000E+00  0.00000000E+00
  0.00000000E+00  0.00000000E+00  0.00000000E+00
  0.00000000E+00  0.00000000E+00  0.00000000E+00
  0.00000000E+00  0.00000000E+00  0.00000000E+00
  0.00000000E+00  0.00000000E+00  0.00000000E+00
  0.00000000E+00  0.00000000E+00  0.00000000E+00
  0.00000000E+00  0.00000000E+00  0.00000000E+00
  0.00000000E+00  0.00000000E+00  0.00000000E+00
  0.00000000E+00  0.00000000E+00  0.00000000E+00
  0.00000000E+00  0.00000000E+00  0.00000000E+00
