Sodium cobalt oxide (0.57/1/2)          
   1.00000000000000     
     7.4828191236466015    0.0064350142896280    0.0056890235238679
    -3.7462510120580257    6.5121514566872669   -0.0145732225353043
    -0.0041603790302224    0.0059238725857584   11.0183436736422546
   Na   Co   O 
     8    14    28
Direct
  0.9990807999528499  0.9993260487143303  0.2474384481272907
  0.9998952506740935  0.0070180250850598  0.7506106282076530
  0.4477800728935435  0.4051640947364703  0.2477274412152681
  0.5464186301443661  0.5953599888040060  0.7526893095359242
  0.5975917705555673  0.0469240473842802  0.2468864561429029
  0.4082996902469134  0.9532732219401439  0.7500734054831000
  0.9458435223284525  0.5443006518041145  0.2498247907883879
  0.0372232572541336  0.4438648545267370  0.7531222918179665
  0.0016423713961515  0.0042139807064743  0.9982601922451266
  0.9984879729013230  0.9986735102380706  0.5000632593119434
  0.2836611619380420  0.4278692970968976  0.9985786543917428
  0.7153526999617768  0.5712536028507529  0.0020865503579017
  0.5756022041017061  0.8576709255187751  0.9961723892277163
  0.4293088428138603  0.1433255407640104  0.0037667358994540
  0.1430465806528645  0.7134136802973643  0.9979154668338097
  0.8558915089398198  0.2820730001249387  0.0032446862862514
  0.7178165958598441  0.5768016181024009  0.4963597756609417
  0.2844741377115838  0.4255701422911500  0.5039564556233742
  0.4255480670759724  0.1458319805154673  0.4945627409437421
  0.5745232850538713  0.8558771780268728  0.5020700923118824
  0.8522693231276577  0.2826032803030714  0.4995950838160255
  0.1470105796832186  0.7210219301630545  0.5042682077604539
  0.2381061887536475  0.1916458463779023  0.0903942903017381
  0.7622252360712594  0.8274622056702796  0.9040364346775505
  0.8081914553689984  0.0424277725773337  0.0894119839969179
  0.1963085917461882  0.9558092180878148  0.9113098839194009
  0.9589351994641646  0.7647356984708011  0.0874381667785258
  0.0472855843411111  0.2399835270419288  0.9102683534766243
  0.7606946769752412  0.8078919348597182  0.5899915372363793
  0.2289037404137346  0.1781194301634415  0.4021124824581506
  0.1841264991453997  0.9530929210861103  0.5958972368801696
  0.8033742533521107  0.0405832938672503  0.4095419474119879
  0.0417520588976572  0.2307699852690561  0.5953437062876930
  0.9432064432581484  0.7627731674386382  0.4068386359058280
  0.0971375890676569  0.4839971236628529  0.0859688601804578
  0.9048638158173361  0.5238794722838023  0.9162099364027227
  0.5259402154256207  0.6262510610024492  0.0841124073677975
  0.4746723914769220  0.3711144339607628  0.9155976899140654
  0.3810636394276870  0.9006741947213328  0.0836258873824463
  0.6181501133764371  0.0926496616892720  0.9152687371352144
  0.8910957566713620  0.5184319570731972  0.5886809446760424
  0.0854716660046861  0.4683698353328651  0.4138304168648617
  0.4928401488274616  0.3917750615228641  0.5884685730609718
  0.5353613204394279  0.6266527677044209  0.4121376169295274
  0.6263247415601256  0.0954857700242400  0.5880674991663639
  0.3935011437519194  0.8971267644830334  0.4093780077694973
  0.3310555619942122  0.6673849603784845  0.9054869414532263
  0.6534809796972993  0.3085752114893552  0.1006791471945689
  0.6738004775380588  0.3488269644998852  0.3984532893319610
  0.3553620358685237  0.6820790692664929  0.6021763148504107
 
  0.00000000E+00  0.00000000E+00  0.00000000E+00
  0.00000000E+00  0.00000000E+00  0.00000000E+00
  0.00000000E+00  0.00000000E+00  0.00000000E+00
  0.00000000E+00  0.00000000E+00  0.00000000E+00
  0.00000000E+00  0.00000000E+00  0.00000000E+00
  0.00000000E+00  0.00000000E+00  0.00000000E+00
  0.00000000E+00  0.00000000E+00  0.00000000E+00
  0.00000000E+00  0.00000000E+00  0.00000000E+00
  0.00000000E+00  0.00000000E+00  0.00000000E+00
  0.00000000E+00  0.00000000E+00  0.00000000E+00
  0.00000000E+00  0.00000000E+00  0.00000000E+00
  0.00000000E+00  0.00000000E+00  0.00000000E+00
  0.00000000E+00  0.00000000E+00  0.00000000E+00
  0.00000000E+00  0.00000000E+00  0.00000000E+00
  0.00000000E+00  0.00000000E+00  0.00000000E+00
  0.00000000E+00  0.00000000E+00  0.00000000E+00
  0.00000000E+00  0.00000000E+00  0.00000000E+00
  0.00000000E+00  0.00000000E+00  0.00000000E+00
  0.00000000E+00  0.00000000E+00  0.00000000E+00
  0.00000000E+00  0.00000000E+00  0.00000000E+00
  0.00000000E+00  0.00000000E+00  0.00000000E+00
  0.00000000E+00  0.00000000E+00  0.00000000E+00
  0.00000000E+00  0.00000000E+00  0.00000000E+00
  0.00000000E+00  0.00000000E+00  0.00000000E+00
  0.00000000E+00  0.00000000E+00  0.00000000E+00
  0.00000000E+00  0.00000000E+00  0.00000000E+00
  0.00000000E+00  0.00000000E+00  0.00000000E+00
  0.00000000E+00  0.00000000E+00  0.00000000E+00
  0.00000000E+00  0.00000000E+00  0.00000000E+00
  0.00000000E+00  0.00000000E+00  0.00000000E+00
  0.00000000E+00  0.00000000E+00  0.00000000E+00
  0.00000000E+00  0.00000000E+00  0.00000000E+00
  0.00000000E+00  0.00000000E+00  0.00000000E+00
  0.00000000E+00  0.00000000E+00  0.00000000E+00
  0.00000000E+00  0.00000000E+00  0.00000000E+00
  0.00000000E+00  0.00000000E+00  0.00000000E+00
  0.00000000E+00  0.00000000E+00  0.00000000E+00
  0.00000000E+00  0.00000000E+00  0.00000000E+00
  0.00000000E+00  0.00000000E+00  0.00000000E+00
  0.00000000E+00  0.00000000E+00  0.00000000E+00
  0.00000000E+00  0.00000000E+00  0.00000000E+00
  0.00000000E+00  0.00000000E+00  0.00000000E+00
  0.00000000E+00  0.00000000E+00  0.00000000E+00
  0.00000000E+00  0.00000000E+00  0.00000000E+00
  0.00000000E+00  0.00000000E+00  0.00000000E+00
  0.00000000E+00  0.00000000E+00  0.00000000E+00
  0.00000000E+00  0.00000000E+00  0.00000000E+00
  0.00000000E+00  0.00000000E+00  0.00000000E+00
  0.00000000E+00  0.00000000E+00  0.00000000E+00
  0.00000000E+00  0.00000000E+00  0.00000000E+00
