Na4 Fe4 O8 F4                           
   1.00000000000000     
     5.4212919521584366    0.0245130318748457    0.0084155788167695
    -2.6923267137353677    4.6267291415090144   -0.0099801008405765
     0.0156182004736295   -0.0054065437705724    9.2066203471833408
   Na   Fe   O    F 
     4     4     8     4
Direct
  0.0168341599220322 -0.0372491299741070  0.0059420446362127
 -0.0300922998206275  0.0192829284607950  0.4953607619772835
  0.3318781762870228  0.6744245811500217  0.2426416765054894
  0.6656911985058056  0.3202315726351068  0.7436068555664420
  0.3017039080019185  0.7185757037764424  0.6129391217486647
  0.6571716952248150  0.3435294176765962  0.3997687170705854
  0.6990539809952488  0.2831805501684111  0.1140719245796940
  0.3417980346326323  0.6551142912492974  0.8995801746965792
  0.5849120389105456  0.9414823046881718  0.0215915099675046
  0.0485003249325518  0.4534918476220640  0.0331220379953852
  0.4041002848348508  0.0574951381007092  0.5187503773165775
 -0.0488063443341576  0.5354999064419157  0.5341996414322161
  0.7906203522956800  0.5859263840613467  0.2415297087501921
  0.2283654440503124  0.4200758437246579  0.7391538692550874
  0.7634308510090364  0.1275413276870910  0.3039235620423518
  0.2266173778586081  0.8638115163239808  0.8056400085833993
  0.5603991941331676  0.4627142454441554  0.9538592414221398
  0.4546540533615078  0.5513513931935776  0.4527602455717287
  0.3190348438460980  0.1320627525312057  0.1929643541015519
  0.6841327253529510  0.8914574250385595  0.6885941667809287
 
  0.00000000E+00  0.00000000E+00  0.00000000E+00
  0.00000000E+00  0.00000000E+00  0.00000000E+00
  0.00000000E+00  0.00000000E+00  0.00000000E+00
  0.00000000E+00  0.00000000E+00  0.00000000E+00
  0.00000000E+00  0.00000000E+00  0.00000000E+00
  0.00000000E+00  0.00000000E+00  0.00000000E+00
  0.00000000E+00  0.00000000E+00  0.00000000E+00
  0.00000000E+00  0.00000000E+00  0.00000000E+00
  0.00000000E+00  0.00000000E+00  0.00000000E+00
  0.00000000E+00  0.00000000E+00  0.00000000E+00
  0.00000000E+00  0.00000000E+00  0.00000000E+00
  0.00000000E+00  0.00000000E+00  0.00000000E+00
  0.00000000E+00  0.00000000E+00  0.00000000E+00
  0.00000000E+00  0.00000000E+00  0.00000000E+00
  0.00000000E+00  0.00000000E+00  0.00000000E+00
  0.00000000E+00  0.00000000E+00  0.00000000E+00
  0.00000000E+00  0.00000000E+00  0.00000000E+00
  0.00000000E+00  0.00000000E+00  0.00000000E+00
  0.00000000E+00  0.00000000E+00  0.00000000E+00
  0.00000000E+00  0.00000000E+00  0.00000000E+00
