Na4 V4 O8 F4                            
   1.00000000000000     
     5.2685356996255823   -0.1503265564836949   -0.0340996579911818
    -0.1425791325568505    5.3417298342909065   -0.0221206458905150
     0.0271913837645705   -0.0628950899167061    7.7642937341998808
   Na   V    O    F 
     4     4     8     4
Direct
  0.9967732053644617  0.0288046356648361  0.2671451090134313
  0.0231407454998245  0.9625324019454126  0.7515748885844508
  0.4803591448321828  0.4770476561602691  0.7556667163988489
  0.5162767413065140  0.5163760643195539  0.2616771256453054
  0.5216029347186218  0.9776803790694931  0.0314619441038807
  0.9892197548281171  0.5098422046966093  0.9972231773608821
  0.4951227035367035  0.0154378314842339  0.5247615693377674
  0.0154671684445343  0.4806296218084863  0.4991758617770321
  0.5840908996296603  0.9953701138034641  0.7340912463978578
  0.4292966705883363  0.9936014263686862  0.2417445914182394
  0.6999162159815542  0.2768112041347143  0.0226628180332704
  0.2821056651834293  0.7413552694029085  0.9582905560599940
  0.7789814819071833  0.7880897125544247  0.0473386334741214
  0.2577647412306054  0.7248827293391615  0.5225576801578057
  0.7279308435284035  0.2906865259067080  0.4596739946452441
  0.2216891606183048  0.2199463687925736  0.5441855566168965
  0.0915337254691640  0.4623481474169695  0.2457401738865809
  0.9091732576372462  0.5298890749151076  0.7430015533369617
  0.2074889875183678  0.2281557881124597  0.9480584964437947
  0.7720659521767929  0.7805128441039351  0.4439683073076279
 
  0.00000000E+00  0.00000000E+00  0.00000000E+00
  0.00000000E+00  0.00000000E+00  0.00000000E+00
  0.00000000E+00  0.00000000E+00  0.00000000E+00
  0.00000000E+00  0.00000000E+00  0.00000000E+00
  0.00000000E+00  0.00000000E+00  0.00000000E+00
  0.00000000E+00  0.00000000E+00  0.00000000E+00
  0.00000000E+00  0.00000000E+00  0.00000000E+00
  0.00000000E+00  0.00000000E+00  0.00000000E+00
  0.00000000E+00  0.00000000E+00  0.00000000E+00
  0.00000000E+00  0.00000000E+00  0.00000000E+00
  0.00000000E+00  0.00000000E+00  0.00000000E+00
  0.00000000E+00  0.00000000E+00  0.00000000E+00
  0.00000000E+00  0.00000000E+00  0.00000000E+00
  0.00000000E+00  0.00000000E+00  0.00000000E+00
  0.00000000E+00  0.00000000E+00  0.00000000E+00
  0.00000000E+00  0.00000000E+00  0.00000000E+00
  0.00000000E+00  0.00000000E+00  0.00000000E+00
  0.00000000E+00  0.00000000E+00  0.00000000E+00
  0.00000000E+00  0.00000000E+00  0.00000000E+00
  0.00000000E+00  0.00000000E+00  0.00000000E+00
