Sodium trifluoromanganate(II)           
   1.00000000000000     
     5.7271798330685373   -0.0000000260207842    0.0000002728119876
    -0.0000000498076760    7.9410208273838965    0.0000004638297734
     0.0000003061122384    0.0000003221707268    5.4994774018648300
   Mn   Na   F 
     4     4    12
Direct
  0.4999998095648266  0.4999995142315186  0.0000002094272489
  0.0000001337648783  0.5000003254430467  0.5000001652673305
  0.5000001847286484  0.9999996432387448  0.9999999019080406
  0.9999997414466364  0.0000005625515556  0.4999998691739833
  0.0598997548958877  0.2499999287967469  0.9838990629345474
  0.9401008165333948  0.7499999710377736  0.0161004547968986
  0.4401012015810508  0.7500000000610569  0.4838998578990541
  0.5598989743096823  0.2500000615419040  0.5161003989674597
  0.4398484563355467  0.2499996843107581  0.1233157839704901
  0.5601516236185589  0.7499997081642960  0.8766845757037771
  0.0601515529734016  0.7500003068777872  0.6233154566779646
  0.9398483581336166  0.2500003316330037  0.3766840623836885
  0.1919555569886384  0.5643743057479824  0.1872680902025650
  0.8080444260262283  0.4356256006352552  0.8127318743561105
  0.3080442336734919  0.4356256029330439  0.6872683130887935
  0.6919555250263585  0.5643742658581203  0.3127317298482097
  0.8080443475715740  0.0643743759781614  0.8127317937048275
  0.1919555358335074  0.9356257443728069  0.1872682473739076
  0.6919555229975174  0.9356256451778506  0.3127318661735004
  0.3080442669965535  0.0643744214085942  0.6872682351416159
 
  0.00000000E+00  0.00000000E+00  0.00000000E+00
  0.00000000E+00  0.00000000E+00  0.00000000E+00
  0.00000000E+00  0.00000000E+00  0.00000000E+00
  0.00000000E+00  0.00000000E+00  0.00000000E+00
  0.00000000E+00  0.00000000E+00  0.00000000E+00
  0.00000000E+00  0.00000000E+00  0.00000000E+00
  0.00000000E+00  0.00000000E+00  0.00000000E+00
  0.00000000E+00  0.00000000E+00  0.00000000E+00
  0.00000000E+00  0.00000000E+00  0.00000000E+00
  0.00000000E+00  0.00000000E+00  0.00000000E+00
  0.00000000E+00  0.00000000E+00  0.00000000E+00
  0.00000000E+00  0.00000000E+00  0.00000000E+00
  0.00000000E+00  0.00000000E+00  0.00000000E+00
  0.00000000E+00  0.00000000E+00  0.00000000E+00
  0.00000000E+00  0.00000000E+00  0.00000000E+00
  0.00000000E+00  0.00000000E+00  0.00000000E+00
  0.00000000E+00  0.00000000E+00  0.00000000E+00
  0.00000000E+00  0.00000000E+00  0.00000000E+00
  0.00000000E+00  0.00000000E+00  0.00000000E+00
  0.00000000E+00  0.00000000E+00  0.00000000E+00
