Cr4 O4 F8                               
   1.00000000000000     
     4.8288082887549102    0.0000859040326799   -0.0227240324865678
    -0.0000114815058314    5.1250988023675372   -0.0001467139908244
     0.0154878382588802   -0.0000728032697324    7.2515156325769112
   Cr   O    F 
     4     4     8
Direct
  0.5005748680381309  0.0000102698781143  0.9996965363889063
  0.0008503572945476  0.4999684564702976  0.0003377477290706
  0.4989811415256786  0.0002518930490869  0.4997569924242206
  0.9993146101982147  0.5001335238960355  0.5003794611623884
  0.6999318600664055  0.2752440812800697  0.0417676224579041
  0.3009822849142655  0.7246367939692995  0.9581961677024380
  0.8002228815286200  0.7754354672822601  0.4582179218373046
  0.1990725849022158  0.2247631170614144  0.5417637511887726
  0.1978716968399629  0.2028736874578534  0.9239117339803986
  0.8028605141727219  0.7967236750644149  0.0761161257332155
  0.3022680678796293  0.7029479793262154  0.5759983785559620
  0.6971650919024016  0.2968960634424650  0.4238209760375142
  0.1281766174704915  0.4812136761690347  0.2505008013401138
  0.8718308308918582  0.5188561753189830  0.7501845652364717
  0.6281120490580577  0.0188505794581664  0.7498342170230672
  0.3717845433168057  0.9811945608762890  0.2495170012022516
 
  0.00000000E+00  0.00000000E+00  0.00000000E+00
  0.00000000E+00  0.00000000E+00  0.00000000E+00
  0.00000000E+00  0.00000000E+00  0.00000000E+00
  0.00000000E+00  0.00000000E+00  0.00000000E+00
  0.00000000E+00  0.00000000E+00  0.00000000E+00
  0.00000000E+00  0.00000000E+00  0.00000000E+00
  0.00000000E+00  0.00000000E+00  0.00000000E+00
  0.00000000E+00  0.00000000E+00  0.00000000E+00
  0.00000000E+00  0.00000000E+00  0.00000000E+00
  0.00000000E+00  0.00000000E+00  0.00000000E+00
  0.00000000E+00  0.00000000E+00  0.00000000E+00
  0.00000000E+00  0.00000000E+00  0.00000000E+00
  0.00000000E+00  0.00000000E+00  0.00000000E+00
  0.00000000E+00  0.00000000E+00  0.00000000E+00
  0.00000000E+00  0.00000000E+00  0.00000000E+00
  0.00000000E+00  0.00000000E+00  0.00000000E+00
