Ti4 O4 F8                               
   1.00000000000000     
     5.2123885973297295    0.0427376187468481   -0.0092333208968906
     0.0424479326769517    5.3751567596255150   -0.0136777905747691
    -0.0120006467390753   -0.0302082057250636    7.5337393939144031
   Ti   O    F 
     4     4     8
Direct
  0.4828579604677269  0.9760033107487002  0.9912852777828300
  0.0123683468775226  0.5031389554909405  0.0189288666344626
  0.5138874599484291  0.9889344997444897  0.4955485450424594
  0.0147314112403837  0.4821230665058784  0.4997746270263144
  0.0777393700915189  0.4872383983997015  0.2462184781021778
  0.2989355780725373  0.7104048069964704  0.9587231986028676
  0.7728406861006959  0.7823842705584158  0.4637176949803968
  0.2174448723467603  0.2205959732214279  0.5393714943201803
  0.9133694777898206  0.5164758090450989  0.7568691149361259
  0.5959565813431050  0.0208486181549556  0.7529280700629497
  0.4108034702678247  0.9986133331830062  0.2415776330317964
  0.7024822640962841  0.2919473527725069  0.0340485003331705
  0.2009573708253900  0.2025990655399861  0.9474068499295053
  0.7995616429476656  0.8054162448158197  0.0448828409487679
  0.2813824347978697  0.7231336019333711  0.5524241695245369
  0.7046810727864656  0.2901426928892311  0.4562946387414516
 
  0.00000000E+00  0.00000000E+00  0.00000000E+00
  0.00000000E+00  0.00000000E+00  0.00000000E+00
  0.00000000E+00  0.00000000E+00  0.00000000E+00
  0.00000000E+00  0.00000000E+00  0.00000000E+00
  0.00000000E+00  0.00000000E+00  0.00000000E+00
  0.00000000E+00  0.00000000E+00  0.00000000E+00
  0.00000000E+00  0.00000000E+00  0.00000000E+00
  0.00000000E+00  0.00000000E+00  0.00000000E+00
  0.00000000E+00  0.00000000E+00  0.00000000E+00
  0.00000000E+00  0.00000000E+00  0.00000000E+00
  0.00000000E+00  0.00000000E+00  0.00000000E+00
  0.00000000E+00  0.00000000E+00  0.00000000E+00
  0.00000000E+00  0.00000000E+00  0.00000000E+00
  0.00000000E+00  0.00000000E+00  0.00000000E+00
  0.00000000E+00  0.00000000E+00  0.00000000E+00
  0.00000000E+00  0.00000000E+00  0.00000000E+00
