Na8 Mn8 O16 F8                          
   1.00000000000000     
     7.7830092399218485   -0.0110760901329770    0.0000522509645038
    -0.0076733222367147    7.2817698034724456   -0.0003181240798168
    -0.0003815286126661    0.0005981413918047    7.3976543348737396
   Na   Mn   O    F 
     8     8    16     8
Direct
  0.2439008884167190  0.2501080342069999  0.2580676267749102
  0.2439202524678138  0.2503704429973100  0.7416506108221907
  0.2661982884297784  0.7481978285690788  0.2550215589416439
  0.2662326492625719  0.7482659890059327  0.7449137420311936
  0.7764622490526070  0.2561882518560848  0.2467924717494474
  0.7753794125468871  0.2564266241034707  0.7518115395402321
  0.7484793548490301  0.7316950734083846  0.2502746820220529
  0.7480094394013996  0.7310553684452075  0.7502842295386012
  0.0063254408041593  0.9938433279507297  0.0004788386422422
 -0.0014145251002624  0.9987747560188314  0.5011406046629613
  0.0271040066036223  0.5053049377869757  0.0000830201769751
  0.0003995679824693  0.5018950289330087  0.4999592614327283
  0.5021147776949614  0.0163953198906873 -0.0002762745790024
  0.5008330960968775  0.0050047915567467  0.4999412015543013
  0.4824580934818013  0.4870845639498516 -0.0000702149181534
  0.4983492230391410  0.4923003130078474  0.4998257567973360
  0.2532791294275605  0.5633058729069055  0.9997891201361684
  0.0470857053014358  0.2501097932422767  0.0006219001725973
  0.0509957588384621  0.2536453671695853  0.5003228869184548
  0.9489533339912698  0.7501912776667401  0.0001430965151404
  0.9412398113015173  0.7477453777239423  0.5005526104721442
  0.4264372366655102  0.2451884203507202 -0.0004799247160822
  0.4341251081044301  0.2446848416089532  0.4996046567890203
  0.5512763258408685  0.7533582645972172  0.4998108890355558
 -0.0010288783420392  0.0025123727593260  0.2452937516953975
 -0.0006270457633749  0.0030967117383873  0.7560149616176716
  0.9920156598758105  0.4983186323391298  0.2478274202268599
  0.9917608391253403  0.4979819814538707  0.7522616145512326
  0.5013775652906290 -0.0043150898164070  0.2448782816627827
  0.5013426212201076 -0.0044110838319807  0.7545994034619101
  0.5009523852349543  0.5093935745360295  0.2458903177936198
  0.5013378304407384  0.5091507890745876  0.7537284890338050
  0.2486742294395956  0.9420276603270047  0.0001915457276437
  0.2654080370774269  0.9392797419803761  0.4999919780255295
  0.2324892917968432  0.5619420279897399  0.5001398397216046
  0.7444059159537807  0.0586426661133789 -0.0003248372243155
  0.7327823751807155  0.0692288588900513  0.4999548477672295
  0.7304276728521921  0.4418383098972265 -0.0000163164607449
  0.7646374844608176  0.4402217272024436  0.4996199992520483
  0.5558993916558440  0.7539512523933539 -0.0003151873649129
 
  0.00000000E+00  0.00000000E+00  0.00000000E+00
  0.00000000E+00  0.00000000E+00  0.00000000E+00
  0.00000000E+00  0.00000000E+00  0.00000000E+00
  0.00000000E+00  0.00000000E+00  0.00000000E+00
  0.00000000E+00  0.00000000E+00  0.00000000E+00
  0.00000000E+00  0.00000000E+00  0.00000000E+00
  0.00000000E+00  0.00000000E+00  0.00000000E+00
  0.00000000E+00  0.00000000E+00  0.00000000E+00
  0.00000000E+00  0.00000000E+00  0.00000000E+00
  0.00000000E+00  0.00000000E+00  0.00000000E+00
  0.00000000E+00  0.00000000E+00  0.00000000E+00
  0.00000000E+00  0.00000000E+00  0.00000000E+00
  0.00000000E+00  0.00000000E+00  0.00000000E+00
  0.00000000E+00  0.00000000E+00  0.00000000E+00
  0.00000000E+00  0.00000000E+00  0.00000000E+00
  0.00000000E+00  0.00000000E+00  0.00000000E+00
  0.00000000E+00  0.00000000E+00  0.00000000E+00
  0.00000000E+00  0.00000000E+00  0.00000000E+00
  0.00000000E+00  0.00000000E+00  0.00000000E+00
  0.00000000E+00  0.00000000E+00  0.00000000E+00
  0.00000000E+00  0.00000000E+00  0.00000000E+00
  0.00000000E+00  0.00000000E+00  0.00000000E+00
  0.00000000E+00  0.00000000E+00  0.00000000E+00
  0.00000000E+00  0.00000000E+00  0.00000000E+00
  0.00000000E+00  0.00000000E+00  0.00000000E+00
  0.00000000E+00  0.00000000E+00  0.00000000E+00
  0.00000000E+00  0.00000000E+00  0.00000000E+00
  0.00000000E+00  0.00000000E+00  0.00000000E+00
  0.00000000E+00  0.00000000E+00  0.00000000E+00
  0.00000000E+00  0.00000000E+00  0.00000000E+00
  0.00000000E+00  0.00000000E+00  0.00000000E+00
  0.00000000E+00  0.00000000E+00  0.00000000E+00
  0.00000000E+00  0.00000000E+00  0.00000000E+00
  0.00000000E+00  0.00000000E+00  0.00000000E+00
  0.00000000E+00  0.00000000E+00  0.00000000E+00
  0.00000000E+00  0.00000000E+00  0.00000000E+00
  0.00000000E+00  0.00000000E+00  0.00000000E+00
  0.00000000E+00  0.00000000E+00  0.00000000E+00
  0.00000000E+00  0.00000000E+00  0.00000000E+00
  0.00000000E+00  0.00000000E+00  0.00000000E+00
