Na2 Ni2 O4 F2                           
   1.00000000000000     
    -2.5189778744878533   -4.3612711372110198   -0.0037247070730289
    -5.3969400921687711    0.2084365935283405   -0.3961719874412633
    -2.9824987777103114   -1.1897355785822885   -5.3977621965699676
   Na   Ni   O    F 
     4     2     4     2
Direct
  0.3281202621642458  0.3074026517696511  0.0364714508124436
  0.8258955007997747  0.8080694285113420  0.5367766243312051
  0.1669983245859908  0.1844034401697630  0.4823388097238345
  0.6655452609536516  0.6850266401048495  0.9827566198753396
  0.9976503968002811  0.9971839641063721  0.0084740814749409
  0.4974598257159390  0.4967070893334539  0.5097066704317603
  0.2374766507465629  0.6434982810688925  0.2633714911330439
  0.6375528345927587  0.8514561401982110  0.2555122361577741
  0.3570887862361833  0.1424943190577913  0.7624056077827721
  0.7558192727079464  0.3514475408520648  0.7555957529524008
  0.1180776421872037  0.7468301463266276  0.7604131403671487
  0.8743152425094587  0.2474803585009623  0.2601775149573480
 
  0.00000000E+00  0.00000000E+00  0.00000000E+00
  0.00000000E+00  0.00000000E+00  0.00000000E+00
  0.00000000E+00  0.00000000E+00  0.00000000E+00
  0.00000000E+00  0.00000000E+00  0.00000000E+00
  0.00000000E+00  0.00000000E+00  0.00000000E+00
  0.00000000E+00  0.00000000E+00  0.00000000E+00
  0.00000000E+00  0.00000000E+00  0.00000000E+00
  0.00000000E+00  0.00000000E+00  0.00000000E+00
  0.00000000E+00  0.00000000E+00  0.00000000E+00
  0.00000000E+00  0.00000000E+00  0.00000000E+00
  0.00000000E+00  0.00000000E+00  0.00000000E+00
  0.00000000E+00  0.00000000E+00  0.00000000E+00
