Na4 Cr4 O8 F4                           
   1.00000000000000     
     5.2454262054201788    0.0506972325089387   -0.0335222334303847
     0.0272743668564582    5.3192316231700287   -0.0109363963776339
    -0.0240571528780711    0.0186482576385387    7.3518047865131235
   Na   Cr   O    F 
     4     4     8     4
Direct
  0.9942367813697223  0.0366217604962466  0.2488782282749933
  0.0166167383939612  0.9738475628426709  0.7445014266802673
  0.4961876153690142  0.4637658322388085  0.7613782329461695
  0.5056535231835794  0.5431172830496958  0.2442266898177338
  0.5306245678636394  0.9958204203205417  0.9904062482192855
  0.0097120787366897  0.5326378926681689  0.9968671401914722
  0.5051659309976568  0.9974043810777463  0.5159276791317011
  0.9973182871281502  0.4952775625824215  0.4973537277263509
  0.0570224026527601  0.4876939450014580  0.2411639089838522
  0.9352324654776062  0.5029914667598645  0.7559003323832211
  0.5894923123626001  0.0255208615396392  0.7487208018489572
  0.6864249601248507  0.2705633108962884  0.0410721272496991
  0.2808305803299896  0.7257151451492089  0.9631248634778733
  0.7776047879713460  0.7828742642738915  0.0443602022565921
  0.7814477580249628  0.7926453473010804  0.4637052079393073
  0.2155521483161197  0.2005934815494475  0.5260636369104581
  0.4159576993798299  0.9711157545830531  0.2523957913958607
  0.2079096359915719  0.2081078255512794  0.9622977353892967
  0.2965262810016204  0.7022387098316319  0.5480696241660103
  0.7004834453243154  0.2914471922868507  0.4535863950108839
 
  0.00000000E+00  0.00000000E+00  0.00000000E+00
  0.00000000E+00  0.00000000E+00  0.00000000E+00
  0.00000000E+00  0.00000000E+00  0.00000000E+00
  0.00000000E+00  0.00000000E+00  0.00000000E+00
  0.00000000E+00  0.00000000E+00  0.00000000E+00
  0.00000000E+00  0.00000000E+00  0.00000000E+00
  0.00000000E+00  0.00000000E+00  0.00000000E+00
  0.00000000E+00  0.00000000E+00  0.00000000E+00
  0.00000000E+00  0.00000000E+00  0.00000000E+00
  0.00000000E+00  0.00000000E+00  0.00000000E+00
  0.00000000E+00  0.00000000E+00  0.00000000E+00
  0.00000000E+00  0.00000000E+00  0.00000000E+00
  0.00000000E+00  0.00000000E+00  0.00000000E+00
  0.00000000E+00  0.00000000E+00  0.00000000E+00
  0.00000000E+00  0.00000000E+00  0.00000000E+00
  0.00000000E+00  0.00000000E+00  0.00000000E+00
  0.00000000E+00  0.00000000E+00  0.00000000E+00
  0.00000000E+00  0.00000000E+00  0.00000000E+00
  0.00000000E+00  0.00000000E+00  0.00000000E+00
  0.00000000E+00  0.00000000E+00  0.00000000E+00
