Na4 Co4 O8 F4                           
   1.00000000000000     
     5.2613371263727435    0.0277310528800923   -0.0014574649541026
     0.0295384239846275    5.2825790067247134   -0.0432772956152462
     0.0139507288431204   -0.0743262724024030    7.7042061715484174
   Na   Co   O    F 
     4     4     8     4
Direct
  0.9724199439256578  0.0382429761653940  0.2385311930758660
  0.0147659802101081  0.9699090782560162  0.7493628946791288
  0.4908922635688780  0.4615360245028561  0.7596331191951291
  0.5092548141736615  0.5343055750995283  0.2400588618281012
  0.4920980795946509  0.0095450427183743  0.0060227656282689
  0.0158982826097955  0.4880379690291781  0.9912697612035151
  0.4984253141604045  0.0026142168053673  0.4906688842827186
  0.9857063472835133  0.4926469948578855  0.5200812578158170
  0.9278046702820687  0.5204704615676055  0.7428728854675861
  0.3992636638394432  0.9948716192257567  0.2489024353527620
  0.6984609659067182  0.2590520265301720  0.0355019574222449
  0.3006426639643833  0.7434612076834465  0.9739051292671673
  0.2124780427545292  0.2291424390837176  0.9572204779207412
  0.7212073316617237  0.2778679161473038  0.4510072274542569
  0.7618688862914371  0.8036285361245744  0.4552026407665925
  0.2404534998205025  0.2027448940115920  0.5344313066105296
  0.0802751734872293  0.4922517886856720  0.2605486780007146
  0.5892652330444190  0.0083953647746625  0.7492262703848588
  0.7918713629672289  0.7681729179215362  0.0503368477222391
  0.2969474804536471  0.7031029508093612  0.5452154059217628
 
  0.00000000E+00  0.00000000E+00  0.00000000E+00
  0.00000000E+00  0.00000000E+00  0.00000000E+00
  0.00000000E+00  0.00000000E+00  0.00000000E+00
  0.00000000E+00  0.00000000E+00  0.00000000E+00
  0.00000000E+00  0.00000000E+00  0.00000000E+00
  0.00000000E+00  0.00000000E+00  0.00000000E+00
  0.00000000E+00  0.00000000E+00  0.00000000E+00
  0.00000000E+00  0.00000000E+00  0.00000000E+00
  0.00000000E+00  0.00000000E+00  0.00000000E+00
  0.00000000E+00  0.00000000E+00  0.00000000E+00
  0.00000000E+00  0.00000000E+00  0.00000000E+00
  0.00000000E+00  0.00000000E+00  0.00000000E+00
  0.00000000E+00  0.00000000E+00  0.00000000E+00
  0.00000000E+00  0.00000000E+00  0.00000000E+00
  0.00000000E+00  0.00000000E+00  0.00000000E+00
  0.00000000E+00  0.00000000E+00  0.00000000E+00
  0.00000000E+00  0.00000000E+00  0.00000000E+00
  0.00000000E+00  0.00000000E+00  0.00000000E+00
  0.00000000E+00  0.00000000E+00  0.00000000E+00
  0.00000000E+00  0.00000000E+00  0.00000000E+00
