Cr2 O2 F4                               
   1.00000000000000     
    -2.5270552655349516   -4.1767381324923418    0.0497092297502936
    -5.0561253551617176    0.0012586386777529    0.0013705632928889
    -2.5269356567536931   -1.3032117597901751   -4.2713241383947631
   Cr   O    F 
     2     2     4
Direct
  0.0000063783797741 -0.0000096863292464  0.0000436371601698
  0.4999722221808174  0.5000306112764676  0.4999550149203949
  0.2506112571769607  0.6734132524600058  0.2506355562386763
  0.7493945916304080  0.3265428489615538  0.7493577322776375
  0.6279067867464769  0.8711904135624475  0.2712043334793143
  0.3721571691450991  0.1288148500137405  0.7287479817898002
  0.1278647799208104  0.7296609961832571  0.7712111231516028
  0.8720868148196534  0.2703567138717741  0.2288446209824115
 
  0.00000000E+00  0.00000000E+00  0.00000000E+00
  0.00000000E+00  0.00000000E+00  0.00000000E+00
  0.00000000E+00  0.00000000E+00  0.00000000E+00
  0.00000000E+00  0.00000000E+00  0.00000000E+00
  0.00000000E+00  0.00000000E+00  0.00000000E+00
  0.00000000E+00  0.00000000E+00  0.00000000E+00
  0.00000000E+00  0.00000000E+00  0.00000000E+00
  0.00000000E+00  0.00000000E+00  0.00000000E+00
