Ti10 O18                                
   1.00000000000000     
     5.2480109907847350    0.0281501786780994   -2.1383508204618331
    -2.8137647883171151    6.5055026048270976   -0.9262617811182847
    -0.0017516141976407    0.0259367872243332    8.9304308120202816
   Ti   O 
    10    18
Direct
  0.8590588778639230  0.3220192179962993  0.5766842290891034
  0.1416406795375451  0.6782747215320342  0.4231028565098711
  0.4383933170098615  0.6517148247632889  0.7985585264137640
  0.5615897599563056  0.3483347597137723  0.2015049779363167
  0.4505947670323138  0.1575572373116785  0.7920158334683904
  0.5492273539727037  0.8423513798836879  0.2079597989868347
  0.8489254024339630  0.8200532204536444  0.5770838574721324
  0.1514188455657433  0.1798176286695394  0.4232281306675745
  0.9999856323303149  0.0000940136041194  0.0000280923446283
  0.9997237796029737  0.4999581505252877  0.9998873883228470
  0.3618957607167914  0.1578504354073971  0.9829214317728301
  0.6379960834916290  0.8421674757965221  0.0171139993371270
  0.8174935692798115  0.1848080312656180  0.9084212367276407
  0.1823776914628112  0.8151716357405476  0.0914697871868455
  0.5893457166262834  0.4556057851036996  0.8554754208902509
  0.4103210288491042  0.5443612901957451  0.1444317053029494
  0.0958663972888019  0.5156502662014546  0.8059513975759316
  0.9037760782068176  0.4842488720738842  0.1937215960992020
  0.7674743787375391  0.7988469078102440  0.7565169422477496
  0.2322492031122607  0.2011344980553176  0.2435883991332091
  0.2637730138063290  0.8492878583297738  0.6830160229016471
  0.7359901855362736  0.1507321884990844  0.3170593141917806
  0.0469735889410146  0.1237986172890473  0.6359393905355759
  0.9531872798631511  0.8760084516433650  0.3643161759308171
  0.4897521041117017  0.1883717840444987  0.5786091369583559
  0.5108410956819611  0.8116399641817580  0.4214353954146262
  0.2306134406875415  0.4691355143264033  0.5440388929998790
  0.7695149682945370  0.5310052695822947  0.4559200635821341
 
  0.00000000E+00  0.00000000E+00  0.00000000E+00
  0.00000000E+00  0.00000000E+00  0.00000000E+00
  0.00000000E+00  0.00000000E+00  0.00000000E+00
  0.00000000E+00  0.00000000E+00  0.00000000E+00
  0.00000000E+00  0.00000000E+00  0.00000000E+00
  0.00000000E+00  0.00000000E+00  0.00000000E+00
  0.00000000E+00  0.00000000E+00  0.00000000E+00
  0.00000000E+00  0.00000000E+00  0.00000000E+00
  0.00000000E+00  0.00000000E+00  0.00000000E+00
  0.00000000E+00  0.00000000E+00  0.00000000E+00
  0.00000000E+00  0.00000000E+00  0.00000000E+00
  0.00000000E+00  0.00000000E+00  0.00000000E+00
  0.00000000E+00  0.00000000E+00  0.00000000E+00
  0.00000000E+00  0.00000000E+00  0.00000000E+00
  0.00000000E+00  0.00000000E+00  0.00000000E+00
  0.00000000E+00  0.00000000E+00  0.00000000E+00
  0.00000000E+00  0.00000000E+00  0.00000000E+00
  0.00000000E+00  0.00000000E+00  0.00000000E+00
  0.00000000E+00  0.00000000E+00  0.00000000E+00
  0.00000000E+00  0.00000000E+00  0.00000000E+00
  0.00000000E+00  0.00000000E+00  0.00000000E+00
  0.00000000E+00  0.00000000E+00  0.00000000E+00
  0.00000000E+00  0.00000000E+00  0.00000000E+00
  0.00000000E+00  0.00000000E+00  0.00000000E+00
  0.00000000E+00  0.00000000E+00  0.00000000E+00
  0.00000000E+00  0.00000000E+00  0.00000000E+00
  0.00000000E+00  0.00000000E+00  0.00000000E+00
  0.00000000E+00  0.00000000E+00  0.00000000E+00
