Ti4 O4 F8                               
   1.00000000000000     
     5.1879039060965617    0.0656632218359743   -0.0058158559557057
     0.0617685626927402    5.3505653958914303   -0.0072065195224868
    -0.0090193000441947   -0.0089033718119099    7.6247465282942297
   Ti   O    F 
     4     4     8
Direct
  0.4976587431819155  0.0227884574805799  0.0008401891020853
  0.9944947324269222  0.4707725684425483  0.0002093179648597
  0.4853778472915806  0.0141500225381179  0.5025494490744862
  0.9897126487545691  0.5195839442759649  0.4975872699887418
  0.7112392400778091  0.2843985401572553  0.0427116615082355
  0.2101422131317321  0.2077179813323227  0.9543266204893115
  0.7868307235278635  0.7821383454517914  0.4638681938251494
  0.2198985961060771  0.2188935418246629  0.5353638375507543
  0.2908672194278097  0.7096738389222992  0.9638587410937518
  0.7922473485845103  0.7845287679995891  0.0387994754212500
  0.2955935280948268  0.7101408918507062  0.5478167476785245
  0.7156258314544530  0.2856701535721413  0.4516943430558769
  0.0909941520305040  0.4926949654287682  0.2490540521089812
  0.9134919691756167  0.5156519300450313  0.7505632953597612
  0.5899226291600357  0.0038375714461196  0.7510197190471004
  0.4159025775737746  0.9773584792320946  0.2497370867311446
 
  0.00000000E+00  0.00000000E+00  0.00000000E+00
  0.00000000E+00  0.00000000E+00  0.00000000E+00
  0.00000000E+00  0.00000000E+00  0.00000000E+00
  0.00000000E+00  0.00000000E+00  0.00000000E+00
  0.00000000E+00  0.00000000E+00  0.00000000E+00
  0.00000000E+00  0.00000000E+00  0.00000000E+00
  0.00000000E+00  0.00000000E+00  0.00000000E+00
  0.00000000E+00  0.00000000E+00  0.00000000E+00
  0.00000000E+00  0.00000000E+00  0.00000000E+00
  0.00000000E+00  0.00000000E+00  0.00000000E+00
  0.00000000E+00  0.00000000E+00  0.00000000E+00
  0.00000000E+00  0.00000000E+00  0.00000000E+00
  0.00000000E+00  0.00000000E+00  0.00000000E+00
  0.00000000E+00  0.00000000E+00  0.00000000E+00
  0.00000000E+00  0.00000000E+00  0.00000000E+00
  0.00000000E+00  0.00000000E+00  0.00000000E+00
