Mn4 O4 F8                               
   1.00000000000000     
     4.9087199897923206    0.1756847471667679    0.0048050415576629
     0.1554711000284674    5.2062628788773564   -0.0027737951016592
    -0.0083151415919722    0.0075904051810058    7.1869449303658248
   Mn   O    F 
     4     4     8
Direct
  0.5053250336594941  0.9946975400269896  0.0120585461894636
  0.0281538973682357  0.4790214891048468  0.9917699431445938
  0.4946912092443455  0.0054363478088245  0.5120597766286366
  0.9719158480998701  0.5210586416948126  0.4917720157474608
  0.2034677717302127  0.1741352981765028  0.9267499575508886
  0.7964432214209896  0.8259876698436194  0.4266187568023310
  0.5970464639876731  0.0589046692098627  0.7548810289602569
  0.4033292179704107  0.9407293388983570  0.2549127336908635
  0.6841740224326284  0.2819516741892836  0.0687218182343682
  0.3555972940622522  0.6923793831650467  0.9468254039574815
  0.8391845556356177  0.7997276973544692  0.0508727774059304
  0.3157474776990111  0.7180457348318043  0.5688191878077529
  0.6443469147574359  0.3076387271467942  0.4467515109139600
  0.1608635383365620  0.2003056087772622  0.5509512604484101
  0.1238375328634680  0.4535217940680662  0.2481780990046662
  0.8758760007317864  0.5464583857034582  0.7480571835129358
 
  0.00000000E+00  0.00000000E+00  0.00000000E+00
  0.00000000E+00  0.00000000E+00  0.00000000E+00
  0.00000000E+00  0.00000000E+00  0.00000000E+00
  0.00000000E+00  0.00000000E+00  0.00000000E+00
  0.00000000E+00  0.00000000E+00  0.00000000E+00
  0.00000000E+00  0.00000000E+00  0.00000000E+00
  0.00000000E+00  0.00000000E+00  0.00000000E+00
  0.00000000E+00  0.00000000E+00  0.00000000E+00
  0.00000000E+00  0.00000000E+00  0.00000000E+00
  0.00000000E+00  0.00000000E+00  0.00000000E+00
  0.00000000E+00  0.00000000E+00  0.00000000E+00
  0.00000000E+00  0.00000000E+00  0.00000000E+00
  0.00000000E+00  0.00000000E+00  0.00000000E+00
  0.00000000E+00  0.00000000E+00  0.00000000E+00
  0.00000000E+00  0.00000000E+00  0.00000000E+00
  0.00000000E+00  0.00000000E+00  0.00000000E+00
