Sodium manganese oxide (1/7/12)         
   1.00000000000000     
     7.3193337753386052   -0.0000190403211661    0.0000034574898617
    -0.0000190741592771    7.3195395370022860    0.0000174487689638
     0.0000032898645085    0.0000172587848012    7.3189939788726672
   Na   Mn   O 
     2    14    24
Direct
  0.9999998238017369  0.0000000190033873  0.0000000123030759
  0.4999998119457132  0.5000000170387580  0.5000000091727088
  0.9999953428391350  0.4999998665210583  0.4999999930259023
  0.4999746344968443  0.0000000442486936  0.5000000211316120
  0.4999777200012190  0.5000000874835138  0.9999999766530507
  0.4999952332509565  0.9999998940220891  0.0000000157322901
  0.9999746642192804  0.5000000281557107  0.0000000155773776
  0.9999775742471400  0.0000001001827172  0.4999999643114776
  0.2500002554312672  0.2500109434784292  0.2499952612815974
  0.7500002545463857  0.7500109453130648  0.7499952566457466
  0.7500002890328972  0.7500108963772973  0.2500046710728299
  0.2500002904456693  0.2500108983325120  0.7500046686095345
  0.7500002943975304  0.2499891116346689  0.7499953627982734
  0.2500002913665398  0.7499891028416954  0.2499953760520270
  0.2500002633279479  0.7499889881952413  0.7500047002301926
  0.7500002571405986  0.2499889936158866  0.2500046929129596
  0.1836729620569955  0.3118104239231769  0.0000005083105350
  0.8163350789061568  0.6881750123206487  0.9999994989935317
  0.8163329812815618  0.3118226980415457  0.0000011784787333
  0.1836749568779297  0.6881917630785424  0.9999987180296728
  0.0000043942084957  0.1836847828710546  0.3117835815255887
  0.0000032555967877  0.8163152117273782  0.6882163750062844
  0.0000031602188102  0.8163169505797967  0.3117850434571992
  0.0000045172103782  0.1836830392690274  0.6882150013346262
  0.3118020764442164  0.9999991831073771  0.1836790934709924
  0.6882078867144514  0.0000009795239819  0.8163075211976789
  0.3118013274725371  0.9999988796309012  0.8163210750431347
  0.6882086114441606  0.0000010572006417  0.1836922912363548
  0.6836729917451265  0.8118104203029475  0.5000005252998818
  0.3163351017531042  0.1881749995366988  0.4999995091488785
  0.3163330030254912  0.8118227324150524  0.5000012897421229
  0.6836749824297499  0.1881917978454410  0.4999988216154279
  0.5000045699739388  0.6836847897918688  0.8117835942982055
  0.5000034248998944  0.3163152182586160  0.1882163777465067
  0.5000033060019717  0.3163169337084213  0.8117850345116224
  0.5000046570130152  0.6836830234201301  0.1882149965385338
  0.8118020396876418  0.4999991915130906  0.6836791143080063
  0.1882078508531535  0.5000009806086112  0.3163075361878569
  0.8118012899684217  0.4999989089438373  0.3163210464736039
  0.1882085737251344  0.5000010859365176  0.6836922705343937
 
  0.00000000E+00  0.00000000E+00  0.00000000E+00
  0.00000000E+00  0.00000000E+00  0.00000000E+00
  0.00000000E+00  0.00000000E+00  0.00000000E+00
  0.00000000E+00  0.00000000E+00  0.00000000E+00
  0.00000000E+00  0.00000000E+00  0.00000000E+00
  0.00000000E+00  0.00000000E+00  0.00000000E+00
  0.00000000E+00  0.00000000E+00  0.00000000E+00
  0.00000000E+00  0.00000000E+00  0.00000000E+00
  0.00000000E+00  0.00000000E+00  0.00000000E+00
  0.00000000E+00  0.00000000E+00  0.00000000E+00
  0.00000000E+00  0.00000000E+00  0.00000000E+00
  0.00000000E+00  0.00000000E+00  0.00000000E+00
  0.00000000E+00  0.00000000E+00  0.00000000E+00
  0.00000000E+00  0.00000000E+00  0.00000000E+00
  0.00000000E+00  0.00000000E+00  0.00000000E+00
  0.00000000E+00  0.00000000E+00  0.00000000E+00
  0.00000000E+00  0.00000000E+00  0.00000000E+00
  0.00000000E+00  0.00000000E+00  0.00000000E+00
  0.00000000E+00  0.00000000E+00  0.00000000E+00
  0.00000000E+00  0.00000000E+00  0.00000000E+00
  0.00000000E+00  0.00000000E+00  0.00000000E+00
  0.00000000E+00  0.00000000E+00  0.00000000E+00
  0.00000000E+00  0.00000000E+00  0.00000000E+00
  0.00000000E+00  0.00000000E+00  0.00000000E+00
  0.00000000E+00  0.00000000E+00  0.00000000E+00
  0.00000000E+00  0.00000000E+00  0.00000000E+00
  0.00000000E+00  0.00000000E+00  0.00000000E+00
  0.00000000E+00  0.00000000E+00  0.00000000E+00
  0.00000000E+00  0.00000000E+00  0.00000000E+00
  0.00000000E+00  0.00000000E+00  0.00000000E+00
  0.00000000E+00  0.00000000E+00  0.00000000E+00
  0.00000000E+00  0.00000000E+00  0.00000000E+00
  0.00000000E+00  0.00000000E+00  0.00000000E+00
  0.00000000E+00  0.00000000E+00  0.00000000E+00
  0.00000000E+00  0.00000000E+00  0.00000000E+00
  0.00000000E+00  0.00000000E+00  0.00000000E+00
  0.00000000E+00  0.00000000E+00  0.00000000E+00
  0.00000000E+00  0.00000000E+00  0.00000000E+00
  0.00000000E+00  0.00000000E+00  0.00000000E+00
  0.00000000E+00  0.00000000E+00  0.00000000E+00
