Mn8 O8 F16                              
   1.00000000000000     
     6.9102740470977038    0.3002842681885070    0.1515423341934450
     0.3408940916332910    7.4196895821340760    0.2391428562178108
     0.1896516116322786    0.2365480644425626    6.8896435527946105
   Mn   O    F 
     8     8    16
Direct
  0.0105442018202091  0.9986642149312382  0.0101084416427126
  0.0089602449130710  0.0008003425518333  0.4920151773059012
  0.0053021288889968  0.5002647438666602  0.0023473102743666
  0.0033685304526382  0.5046098425189366  0.4969242041109191
  0.4926604453401534  0.9977264417619730  0.9845955837964748
  0.4925168223733888  0.9992249995682733  0.5149009085843536
  0.4941780897212857  0.4966114524873927  0.0021008254943615
  0.4945166689457070  0.5027587694984933  0.4963350199938092
  0.0830739392916901  0.9296561545078322  0.2523849212339115
  0.5785729253264843  0.9301794464399158  0.7504827512199437
  0.2503731308382580  0.9373834539498037  0.5928744702358486
  0.2485308492399589  0.5568743074948430  0.4018008734694737
  0.7498015287966296  0.5410762980922228  0.9071065362640583
  0.7489031920498622  0.4556943922203812  0.5915766618265504
  0.2472938038011491  0.0628573303443474  0.9077652252423419
  0.2497362210160065  0.4447895988292443  0.0976689427553956
  0.0608849386046503  0.7652125970770585  0.9374476557668412
  0.5532395751771734  0.2322417769201425  0.9297152881315124
  0.9269947127691699  0.0669268128877107  0.7498055553332733
  0.9050890043962303  0.5741392460333027  0.2483301245848297
  0.0910541165793941  0.4281413101546758  0.7489706282820705
  0.4302733428677535  0.0657471384353021  0.2488065731938408
  0.5907144087480508  0.4227484946199424  0.2518629055147354
  0.4060241244996603  0.5712523129029705  0.7495492784522148
  0.7517513135106650  0.9409452885415053  0.0729930149737229
  0.7482361156791865  0.0647053535996214  0.4288283897474704
  0.9394767914836478  0.2332850944124797  0.0661181846900887
  0.0545740742766141  0.2363890533610846  0.4324429573561127
  0.9435906102186569  0.7696710168303997  0.5665749751814091
  0.4347392182450932  0.2361370256488151  0.5655253885802286
  0.4460972490014609  0.7644114259542826  0.0650383611544807
  0.5589276811271188  0.7688742635573006  0.4370028656067468
 
  0.00000000E+00  0.00000000E+00  0.00000000E+00
  0.00000000E+00  0.00000000E+00  0.00000000E+00
  0.00000000E+00  0.00000000E+00  0.00000000E+00
  0.00000000E+00  0.00000000E+00  0.00000000E+00
  0.00000000E+00  0.00000000E+00  0.00000000E+00
  0.00000000E+00  0.00000000E+00  0.00000000E+00
  0.00000000E+00  0.00000000E+00  0.00000000E+00
  0.00000000E+00  0.00000000E+00  0.00000000E+00
  0.00000000E+00  0.00000000E+00  0.00000000E+00
  0.00000000E+00  0.00000000E+00  0.00000000E+00
  0.00000000E+00  0.00000000E+00  0.00000000E+00
  0.00000000E+00  0.00000000E+00  0.00000000E+00
  0.00000000E+00  0.00000000E+00  0.00000000E+00
  0.00000000E+00  0.00000000E+00  0.00000000E+00
  0.00000000E+00  0.00000000E+00  0.00000000E+00
  0.00000000E+00  0.00000000E+00  0.00000000E+00
  0.00000000E+00  0.00000000E+00  0.00000000E+00
  0.00000000E+00  0.00000000E+00  0.00000000E+00
  0.00000000E+00  0.00000000E+00  0.00000000E+00
  0.00000000E+00  0.00000000E+00  0.00000000E+00
  0.00000000E+00  0.00000000E+00  0.00000000E+00
  0.00000000E+00  0.00000000E+00  0.00000000E+00
  0.00000000E+00  0.00000000E+00  0.00000000E+00
  0.00000000E+00  0.00000000E+00  0.00000000E+00
  0.00000000E+00  0.00000000E+00  0.00000000E+00
  0.00000000E+00  0.00000000E+00  0.00000000E+00
  0.00000000E+00  0.00000000E+00  0.00000000E+00
  0.00000000E+00  0.00000000E+00  0.00000000E+00
  0.00000000E+00  0.00000000E+00  0.00000000E+00
  0.00000000E+00  0.00000000E+00  0.00000000E+00
  0.00000000E+00  0.00000000E+00  0.00000000E+00
  0.00000000E+00  0.00000000E+00  0.00000000E+00
