V4 O4 F8                                
   1.00000000000000     
     5.0824727048800131   -0.0465331791079613   -0.0036692861497171
    -0.0477523566358095    5.2933686869216130    0.0063953243093844
     0.0038442728941397   -0.0062870846931101    7.3663681424122940
   V    O    F 
     4     4     8
Direct
  0.4825481561807808  0.9989280165313175  0.0300638703695921
  0.9681019435252453  0.4803322889465588  0.0002254976373996
  0.5175330487712069  0.0010395862722368  0.5300612027519230
  0.0319466545656498  0.5196651283081843  0.5002565011584930
  0.5864392755127718  0.0081388869747105  0.7474522523687801
  0.4136055776872603  0.9919250927959153  0.2474221110008931
  0.7096677046369898  0.2905549057082356  0.0374847734035892
  0.2906381977174555  0.7090481846576152  0.5375367884265315
  0.1042081784201299  0.4735544024336165  0.2445565108490086
  0.8957299955715271  0.5267131709288239  0.7444804580025030
  0.2858878377518075  0.6982545777597893  0.9527481320987626
  0.1994609714769187  0.2038464192611592  0.9411096481697707
  0.7986277505464046  0.7958340783894626  0.0463851708620239
  0.7137747325586118  0.3019134558169799  0.4527920656267173
  0.8007391921433913  0.7964262115727095  0.4412589182959357
  0.2010907829338419  0.2038255936426849  0.5461660989780839
 
  0.00000000E+00  0.00000000E+00  0.00000000E+00
  0.00000000E+00  0.00000000E+00  0.00000000E+00
  0.00000000E+00  0.00000000E+00  0.00000000E+00
  0.00000000E+00  0.00000000E+00  0.00000000E+00
  0.00000000E+00  0.00000000E+00  0.00000000E+00
  0.00000000E+00  0.00000000E+00  0.00000000E+00
  0.00000000E+00  0.00000000E+00  0.00000000E+00
  0.00000000E+00  0.00000000E+00  0.00000000E+00
  0.00000000E+00  0.00000000E+00  0.00000000E+00
  0.00000000E+00  0.00000000E+00  0.00000000E+00
  0.00000000E+00  0.00000000E+00  0.00000000E+00
  0.00000000E+00  0.00000000E+00  0.00000000E+00
  0.00000000E+00  0.00000000E+00  0.00000000E+00
  0.00000000E+00  0.00000000E+00  0.00000000E+00
  0.00000000E+00  0.00000000E+00  0.00000000E+00
  0.00000000E+00  0.00000000E+00  0.00000000E+00
