Fe4 O4 F8                               
   1.00000000000000     
     5.0756459837893040   -0.0552419645185207    0.0218857623195269
    -0.0209999835656938    5.3656633045742925   -0.0725755750365011
     0.0281341094401027   -0.0887222154828187    7.1948380197271664
   Fe   O    F 
     4     4     8
Direct
  0.5024013567693046 -0.0012388628021197  0.0013435829048971
  0.0101436608075239  0.5083751869710389  0.0033627536300306
  0.4996157881142572  0.0082515391281962  0.4905675517683160
 -0.0072842640610074  0.5016974653835335  0.4935734903294284
  0.7159759445967221  0.2893493629655456  0.1141162700301901
  0.1736624120366356  0.1785802340397911  0.9515555362183314
  0.7111841874146090  0.2855434209501383  0.4000789092582646
  0.7777750887056197  0.7782283494871255  0.4358394055523345
  0.3289100576157798  0.6824450058987085  0.9331468472491804
  0.8116090486277898  0.8044706595955585  0.0541725724435751
  0.2797521353390521  0.7275842602380397  0.5637527366400570
  0.2070306900208169  0.2218472117847922  0.5627168414004341
  0.1599025501199007  0.4867476902680455  0.2471547151021160
  0.8748579296446624  0.5039953690163709  0.7545820204853387
  0.6116812606044999  0.0553042932140706  0.7510212287652140
  0.3427821536438482  0.9688188138611500  0.2430155382222933
 
  0.00000000E+00  0.00000000E+00  0.00000000E+00
  0.00000000E+00  0.00000000E+00  0.00000000E+00
  0.00000000E+00  0.00000000E+00  0.00000000E+00
  0.00000000E+00  0.00000000E+00  0.00000000E+00
  0.00000000E+00  0.00000000E+00  0.00000000E+00
  0.00000000E+00  0.00000000E+00  0.00000000E+00
  0.00000000E+00  0.00000000E+00  0.00000000E+00
  0.00000000E+00  0.00000000E+00  0.00000000E+00
  0.00000000E+00  0.00000000E+00  0.00000000E+00
  0.00000000E+00  0.00000000E+00  0.00000000E+00
  0.00000000E+00  0.00000000E+00  0.00000000E+00
  0.00000000E+00  0.00000000E+00  0.00000000E+00
  0.00000000E+00  0.00000000E+00  0.00000000E+00
  0.00000000E+00  0.00000000E+00  0.00000000E+00
  0.00000000E+00  0.00000000E+00  0.00000000E+00
  0.00000000E+00  0.00000000E+00  0.00000000E+00
