V4 O4 F8                                
   1.00000000000000     
     5.1387534822849812   -0.0059147731581417    0.0372493448766064
    -0.0213461846390768    5.3109970533656465   -0.0080383167455450
     0.0083049881953774    0.0390929529581233    7.3329367512550281
   V    O    F 
     4     4     8
Direct
  0.5381290750239600  0.9739999002604307  0.0075589325562788
  0.0285770296713537  0.4664830722420135  0.9933323544825257
  0.4774681714512710  0.9782486585755734  0.5087985151455001
  0.0056438444357525  0.5017527644744959  0.4778005089478654
  0.2177246763374328  0.2230940558260599  0.9606217083003372
  0.7810416161962479  0.7822627296148639  0.0434581507557752
  0.2892234395826065  0.7254820976013079  0.5417399425641563
  0.0762944754248380  0.4868604594751673  0.2552897772573033
  0.7073964825954704  0.2911787650165252  0.0503228194528234
  0.2819196751218698  0.7260126496978927  0.9411457452689547
  0.6932047619847168  0.2888473819407125  0.4605732606520334
  0.7930684181589243  0.8004841480805567  0.4541768897482967
  0.2010746614419929  0.2155171676628669  0.5574797003235332
  0.9078379857157870  0.5163423283674788  0.7442490298193079
  0.6031512072106011  0.0275881375096816  0.7511591127624229
  0.3982444796471825  0.9958456836543661  0.2522935519628717
 
  0.00000000E+00  0.00000000E+00  0.00000000E+00
  0.00000000E+00  0.00000000E+00  0.00000000E+00
  0.00000000E+00  0.00000000E+00  0.00000000E+00
  0.00000000E+00  0.00000000E+00  0.00000000E+00
  0.00000000E+00  0.00000000E+00  0.00000000E+00
  0.00000000E+00  0.00000000E+00  0.00000000E+00
  0.00000000E+00  0.00000000E+00  0.00000000E+00
  0.00000000E+00  0.00000000E+00  0.00000000E+00
  0.00000000E+00  0.00000000E+00  0.00000000E+00
  0.00000000E+00  0.00000000E+00  0.00000000E+00
  0.00000000E+00  0.00000000E+00  0.00000000E+00
  0.00000000E+00  0.00000000E+00  0.00000000E+00
  0.00000000E+00  0.00000000E+00  0.00000000E+00
  0.00000000E+00  0.00000000E+00  0.00000000E+00
  0.00000000E+00  0.00000000E+00  0.00000000E+00
  0.00000000E+00  0.00000000E+00  0.00000000E+00
