Na8 V8 O16 F8                           
   1.00000000000000     
     7.7126833754833033    0.0000046557673187    0.0000041762412846
     0.0000046375022397    7.7007311219756653    0.0000016743452191
     0.0000045112723372    0.0000014194005298    7.4596874632221351
   Na   V    O    F 
     8     8    16     8
Direct
  0.2440546686303502  0.2515677422315603  0.2506277899127110
  0.2440569021723651  0.2515718568309713  0.7493689813997172
  0.2440543674128035  0.7484348880563445  0.2506294113089140
  0.2440545657649547  0.7484336390415217  0.7493700513546306
  0.7584564058625407  0.2498852968121620  0.2497306801115980
  0.7584562061391437  0.2498845013156635  0.7502683402019572
  0.7584560239831425  0.7501163412428556  0.2497318037765312
  0.7584558519798298  0.7501172707093325  0.7502670596037119
  0.0006361533329930  0.9999990498329931 -0.0000012198472674
  0.9995491748523062  0.0000139221425051  0.5000028784845136
  0.0020586845281217  0.4999983814973556 -0.0000010202453957
  0.9985583607205757  0.5000232832542058  0.5000018414375548
  0.5002569260890941  0.0000003787238396  0.0000029591753702
  0.4994754694207454  0.9999930945739317  0.5000096110771417
  0.5040188567264526  0.5000005422075021 -0.0000060673215653
  0.4989919382713377  0.4999897230395220  0.4999921061713821
  0.2376181989022480  0.9999998654325061  0.0000010490368342
  0.2365259930308961  0.4999996750209854  0.0000001859203395
  0.7628492451134798  0.9999999915623898  0.0000006938641552
  0.7627535188030706  0.4999998749631374  0.0000005214002212
  0.9986455572816113  0.2408253452183028  0.5000003131959320
  0.9986464522724473  0.7591643554539567  0.5000003212921138
  0.4985605626476922  0.2597194520975712  0.4999999893346243
  0.4985577511549031  0.7402771098999285  0.4999949122216640
  0.9998260185927683  0.9999968443765861  0.2592507109866457
  0.9998262617484390  0.9999967922832839  0.7407496103261300
  0.9991363153629336  0.4999960237818834  0.2602218553323893
  0.9991363017277844  0.4999960398879126  0.7397776157616017
  0.4996895809292726  0.0000012520515875  0.2432505417030691
  0.4996896976564459 -0.0000000042244915  0.7567525425941179
  0.4989905090428235  0.4999983112559626  0.2398594113044959
  0.4989910381197990  0.4999997627901692  0.7601392612355110
  0.2474830023749360  0.0000019068809304  0.5000008368645403
  0.2489785427761641  0.4999988506391774  0.4999995469334468
  0.7513526125049734  0.0000013371292408  0.5000012971763560
  0.7485436746463778  0.4999989701593005  0.4999987901907447
  0.0000494144808066  0.2501634543739384  0.0000015947884923
  0.0000495368141904  0.7498343753003415  0.0000015663730258
  0.5002547863862425  0.2494159581247634  0.0000002292178143
  0.5002548717429375  0.7505845440283907  0.0000013963441866
 
  0.00000000E+00  0.00000000E+00  0.00000000E+00
  0.00000000E+00  0.00000000E+00  0.00000000E+00
  0.00000000E+00  0.00000000E+00  0.00000000E+00
  0.00000000E+00  0.00000000E+00  0.00000000E+00
  0.00000000E+00  0.00000000E+00  0.00000000E+00
  0.00000000E+00  0.00000000E+00  0.00000000E+00
  0.00000000E+00  0.00000000E+00  0.00000000E+00
  0.00000000E+00  0.00000000E+00  0.00000000E+00
  0.00000000E+00  0.00000000E+00  0.00000000E+00
  0.00000000E+00  0.00000000E+00  0.00000000E+00
  0.00000000E+00  0.00000000E+00  0.00000000E+00
  0.00000000E+00  0.00000000E+00  0.00000000E+00
  0.00000000E+00  0.00000000E+00  0.00000000E+00
  0.00000000E+00  0.00000000E+00  0.00000000E+00
  0.00000000E+00  0.00000000E+00  0.00000000E+00
  0.00000000E+00  0.00000000E+00  0.00000000E+00
  0.00000000E+00  0.00000000E+00  0.00000000E+00
  0.00000000E+00  0.00000000E+00  0.00000000E+00
  0.00000000E+00  0.00000000E+00  0.00000000E+00
  0.00000000E+00  0.00000000E+00  0.00000000E+00
  0.00000000E+00  0.00000000E+00  0.00000000E+00
  0.00000000E+00  0.00000000E+00  0.00000000E+00
  0.00000000E+00  0.00000000E+00  0.00000000E+00
  0.00000000E+00  0.00000000E+00  0.00000000E+00
  0.00000000E+00  0.00000000E+00  0.00000000E+00
  0.00000000E+00  0.00000000E+00  0.00000000E+00
  0.00000000E+00  0.00000000E+00  0.00000000E+00
  0.00000000E+00  0.00000000E+00  0.00000000E+00
  0.00000000E+00  0.00000000E+00  0.00000000E+00
  0.00000000E+00  0.00000000E+00  0.00000000E+00
  0.00000000E+00  0.00000000E+00  0.00000000E+00
  0.00000000E+00  0.00000000E+00  0.00000000E+00
  0.00000000E+00  0.00000000E+00  0.00000000E+00
  0.00000000E+00  0.00000000E+00  0.00000000E+00
  0.00000000E+00  0.00000000E+00  0.00000000E+00
  0.00000000E+00  0.00000000E+00  0.00000000E+00
  0.00000000E+00  0.00000000E+00  0.00000000E+00
  0.00000000E+00  0.00000000E+00  0.00000000E+00
  0.00000000E+00  0.00000000E+00  0.00000000E+00
  0.00000000E+00  0.00000000E+00  0.00000000E+00
