Na4 V4 O8 F4                            
   1.00000000000000     
     5.4034169375510697    0.0053163519238582   -0.0000690796310169
    -2.6971870899421297    4.6740384011698710    0.0001723497304106
    -0.0000341303053844    0.0002550004262822    9.1436089933093658
   Na   V    O    F 
     4     4     8     4
Direct
  0.9986045621272055  0.9927643655545211  0.9957083391265229
  0.9989748900045470  0.9927382856469009  0.5039352717900130
  0.3227687038728249  0.6536140579294312  0.2499643140137451
  0.6774733493088405  0.3305302213243380  0.7505747497996325
  0.3346240513330017  0.6558233424526350  0.5968867698529721
  0.6652548707082175  0.3212080421105838  0.4027885015965822
  0.6653767106893227  0.3212403627196636  0.0973996463521942
  0.3347680779905602  0.6560095901924470  0.9030644492547069
  0.4327813714771551  0.9993703584802844  0.9873446519326947
  0.9999638188374931  0.4243449987823809  0.9998373384268291
  0.5677532117314783  0.5667961492564189  0.0120952025711460
  0.4326544507594861  0.9992789851812702  0.5126081630608965
  0.9999877702828286  0.4243379109206131  0.5000719304562367
  0.5676391637999458  0.5668375035911595  0.4877591003564987
  0.2837184968644451  0.4111656908730907  0.7499884084602044
  0.7155130913679812  0.1267059977207836  0.2500051141297490
  0.8919374249300205  0.6464946405996415  0.2500141655310841
  0.3380495518154873  0.2467290468722894  0.2499637535981591
  0.6642015535148289  0.9082779231982414  0.7499930122944676
  0.1079548785843230  0.7557325265933130  0.7499971173956794
 
  0.00000000E+00  0.00000000E+00  0.00000000E+00
  0.00000000E+00  0.00000000E+00  0.00000000E+00
  0.00000000E+00  0.00000000E+00  0.00000000E+00
  0.00000000E+00  0.00000000E+00  0.00000000E+00
  0.00000000E+00  0.00000000E+00  0.00000000E+00
  0.00000000E+00  0.00000000E+00  0.00000000E+00
  0.00000000E+00  0.00000000E+00  0.00000000E+00
  0.00000000E+00  0.00000000E+00  0.00000000E+00
  0.00000000E+00  0.00000000E+00  0.00000000E+00
  0.00000000E+00  0.00000000E+00  0.00000000E+00
  0.00000000E+00  0.00000000E+00  0.00000000E+00
  0.00000000E+00  0.00000000E+00  0.00000000E+00
  0.00000000E+00  0.00000000E+00  0.00000000E+00
  0.00000000E+00  0.00000000E+00  0.00000000E+00
  0.00000000E+00  0.00000000E+00  0.00000000E+00
  0.00000000E+00  0.00000000E+00  0.00000000E+00
  0.00000000E+00  0.00000000E+00  0.00000000E+00
  0.00000000E+00  0.00000000E+00  0.00000000E+00
  0.00000000E+00  0.00000000E+00  0.00000000E+00
  0.00000000E+00  0.00000000E+00  0.00000000E+00
