Na4 V4 O8 F4                            
   1.00000000000000     
     5.3780626637783735   -0.0028889311879956   -0.0001701768572401
    -0.0026709697064727    5.4976780618636649    0.0035757008776080
     0.0065679315933928   -0.0059794498124514    7.2908611250649029
   Na   V    O    F 
     4     4     8     4
Direct
  0.0065616528080866  0.9987351951448974  0.2551897910632263
  0.9959783329343868  0.9482716758391143  0.7499949663275048
  0.5068342976382657  0.4887215277093772  0.7480140160624849
  0.5000661047437255  0.5494656869423545  0.2524891368906518
  0.4970820394460901  0.0157469810804686  0.9998176065862483
  0.9910757649705527  0.4480068402482027  0.0005495903830186
  0.4845564197954046  0.0412286840951387  0.5020971012337783
  0.9881297974281650  0.4774916849160316  0.4979925201459184
  0.0605192229424543  0.5062991851149125  0.2388311693575576
  0.9546544693285666  0.5238446022344889  0.7599675938504514
  0.5581018719570701  0.0139939341724296  0.7563073420804551
  0.4521019150501377  0.9862950587957163  0.2430335790545433
  0.7082670135986389  0.3048699267592954  0.0330528380372485
  0.1944713211133963  0.2041259697457972  0.9686094349329842
  0.7040546983286171  0.2916789187585059  0.4701086364132614
  0.2054703585755572  0.1947568197053654  0.5263089533533488
  0.3055079781496093  0.7027596770902863  0.9665029391142287
  0.8036584034214866  0.8041056158028107  0.0299270021495953
  0.2993229911259123  0.7061117264812983  0.5295027234263402
  0.7835853466438836  0.7934902893635079  0.4717030595371464
 
  0.00000000E+00  0.00000000E+00  0.00000000E+00
  0.00000000E+00  0.00000000E+00  0.00000000E+00
  0.00000000E+00  0.00000000E+00  0.00000000E+00
  0.00000000E+00  0.00000000E+00  0.00000000E+00
  0.00000000E+00  0.00000000E+00  0.00000000E+00
  0.00000000E+00  0.00000000E+00  0.00000000E+00
  0.00000000E+00  0.00000000E+00  0.00000000E+00
  0.00000000E+00  0.00000000E+00  0.00000000E+00
  0.00000000E+00  0.00000000E+00  0.00000000E+00
  0.00000000E+00  0.00000000E+00  0.00000000E+00
  0.00000000E+00  0.00000000E+00  0.00000000E+00
  0.00000000E+00  0.00000000E+00  0.00000000E+00
  0.00000000E+00  0.00000000E+00  0.00000000E+00
  0.00000000E+00  0.00000000E+00  0.00000000E+00
  0.00000000E+00  0.00000000E+00  0.00000000E+00
  0.00000000E+00  0.00000000E+00  0.00000000E+00
  0.00000000E+00  0.00000000E+00  0.00000000E+00
  0.00000000E+00  0.00000000E+00  0.00000000E+00
  0.00000000E+00  0.00000000E+00  0.00000000E+00
  0.00000000E+00  0.00000000E+00  0.00000000E+00
