Na4 Fe4 O8 F4                           
   1.00000000000000     
     6.3057202201740079   -0.0618815471792476    0.1188110966697512
    -0.1728323604387412    6.3346133716720274   -0.0723598209266782
     0.1174276110539550   -0.1706628600432689    7.2141383760585400
   Na   Fe   O    F 
     8     4     8     4
Direct
  0.6345847313457149  0.6743789704257204  0.6982892550961179
  0.3020516739824620  0.3293198515572305  0.8253255391371952
  0.6648040372800817  0.6912547840581668  0.3243035963406857
  0.3220307811826159  0.3588333321118263  0.1990145259728579
  0.8714725214120037  0.1125111555430907  0.6837150423450382
  0.1539984201341221  0.8222158478121377  0.7762053843555154
  0.8848792552486183  0.1253817657129838  0.1875892823938848
  0.1705613038615630  0.8362197369581393  0.2725898238064925
  0.4879615609384126  0.9637343109392150  0.0027040847063657
  0.8719596970312509  0.5385081166590980  0.0004377264677811
  0.4528394894590603  0.1206578102040004  0.5016901152145431
  0.0304903581415395  0.5075648514830388  0.5012410752826290
  0.9858980472338831  0.4869418142410107  0.2277976151740712
  0.9892521762379251  0.4636780200616993  0.7723400623833486
  0.5064503159520024  0.0075595218897298  0.7285795677583528
  0.5312869469579499  0.0046466149721086  0.2737857307068836
  0.2158311773452485  0.0657455749311394  0.0246108528268375
  0.7680793480400281  0.8068957348888186  0.9942838317972078
  0.9289171034888973  0.7783822890789187  0.5236021274011332
  0.1846742104773246  0.2268829992057410  0.4933177386497359
  0.6357987054951106  0.3191907827104798  0.0125064605907354
  0.3594101704935387  0.6545605396507896  0.9824073083248681
  0.3404832194149756  0.6338999428655558  0.4803627517539641
  0.6721847488456754  0.3577956320393491  0.5133005015137694
 
  0.00000000E+00  0.00000000E+00  0.00000000E+00
  0.00000000E+00  0.00000000E+00  0.00000000E+00
  0.00000000E+00  0.00000000E+00  0.00000000E+00
  0.00000000E+00  0.00000000E+00  0.00000000E+00
  0.00000000E+00  0.00000000E+00  0.00000000E+00
  0.00000000E+00  0.00000000E+00  0.00000000E+00
  0.00000000E+00  0.00000000E+00  0.00000000E+00
  0.00000000E+00  0.00000000E+00  0.00000000E+00
  0.00000000E+00  0.00000000E+00  0.00000000E+00
  0.00000000E+00  0.00000000E+00  0.00000000E+00
  0.00000000E+00  0.00000000E+00  0.00000000E+00
  0.00000000E+00  0.00000000E+00  0.00000000E+00
  0.00000000E+00  0.00000000E+00  0.00000000E+00
  0.00000000E+00  0.00000000E+00  0.00000000E+00
  0.00000000E+00  0.00000000E+00  0.00000000E+00
  0.00000000E+00  0.00000000E+00  0.00000000E+00
  0.00000000E+00  0.00000000E+00  0.00000000E+00
  0.00000000E+00  0.00000000E+00  0.00000000E+00
  0.00000000E+00  0.00000000E+00  0.00000000E+00
  0.00000000E+00  0.00000000E+00  0.00000000E+00
  0.00000000E+00  0.00000000E+00  0.00000000E+00
  0.00000000E+00  0.00000000E+00  0.00000000E+00
  0.00000000E+00  0.00000000E+00  0.00000000E+00
  0.00000000E+00  0.00000000E+00  0.00000000E+00
