Mn2 O2 F4                               
    1.000000000000000     
     3.7098661225369489    0.0000139024564618    0.0025798426607428
     0.0000175660832882    3.8056317212681385    0.0010393668579479
    -0.0087179505118995    0.0019756779292807    7.8381712306419073
   Mn   O    F 
     2     2     4
Direct
  0.4997964372262649  0.5000057846969578  0.2582346930714180
  0.5000181203474534  0.4997421363854312  0.7583161583297003
  0.4999573139879566  0.0000306338747919  0.2415095590076773
  0.0001056964784687  0.5001366269639165  0.7512010415698392
  0.4999740954844508  0.5000961222269712  0.0220305313601235
  0.5000639445976448  0.5000348643610932  0.4907874480774382
  0.5003732972928797  0.9999105205215242  0.7595028802314553
  0.9997110945848806  0.5000433109693071  0.2614176883523400
 
  0.00000000E+00  0.00000000E+00  0.00000000E+00
  0.00000000E+00  0.00000000E+00  0.00000000E+00
  0.00000000E+00  0.00000000E+00  0.00000000E+00
  0.00000000E+00  0.00000000E+00  0.00000000E+00
  0.00000000E+00  0.00000000E+00  0.00000000E+00
  0.00000000E+00  0.00000000E+00  0.00000000E+00
  0.00000000E+00  0.00000000E+00  0.00000000E+00
  0.00000000E+00  0.00000000E+00  0.00000000E+00
