Co4 O4 F8                               
    1.000000000000000     
     4.9891525925610960    0.0369894034289240    0.0119784719792903
     0.0348374194781709    5.1680125824952237    0.0128056166400485
    -0.0186271981963843    0.0471482625834535    7.1470409815988019
   Co   O    F 
     4     4     8
Direct
  0.4838275434227976  0.9896724547768335  0.9971873617987381
  0.9828732286270209  0.4971333075281743 -0.0035026264729356
  0.5067590340934718  0.0091108602254838  0.4982779289057246
  0.0088994675104433  0.5103915777422918  0.4984759371830360
  0.9100578454189541  0.5325003432347805  0.7429816672997285
  0.3111103682383137  0.6729052964668799  0.9455026334912793
  0.8396516560067442  0.8059199485241185  0.4506499506532995
  0.1699988701462115  0.2084107159586591  0.5500525963815512
  0.1210639241698810  0.4646755908249592  0.2509659608894810
  0.6380258583922848  0.0287950138784676  0.7549690057548227
  0.3620445471805355  0.9711633012988349  0.2492007314647176
  0.6764342183125316  0.3099903895325772  0.0582178299625892
  0.1722781920939885  0.1757545608847249  0.9291653575583332
  0.7998669667797089  0.8081241082548550  0.0745587968783669
  0.3442375175152730  0.7076847246370651  0.5692731481813947
  0.6728707620918402  0.3077678062312945  0.4340237200698802
 
  0.00000000E+00  0.00000000E+00  0.00000000E+00
  0.00000000E+00  0.00000000E+00  0.00000000E+00
  0.00000000E+00  0.00000000E+00  0.00000000E+00
  0.00000000E+00  0.00000000E+00  0.00000000E+00
  0.00000000E+00  0.00000000E+00  0.00000000E+00
  0.00000000E+00  0.00000000E+00  0.00000000E+00
  0.00000000E+00  0.00000000E+00  0.00000000E+00
  0.00000000E+00  0.00000000E+00  0.00000000E+00
  0.00000000E+00  0.00000000E+00  0.00000000E+00
  0.00000000E+00  0.00000000E+00  0.00000000E+00
  0.00000000E+00  0.00000000E+00  0.00000000E+00
  0.00000000E+00  0.00000000E+00  0.00000000E+00
  0.00000000E+00  0.00000000E+00  0.00000000E+00
  0.00000000E+00  0.00000000E+00  0.00000000E+00
  0.00000000E+00  0.00000000E+00  0.00000000E+00
  0.00000000E+00  0.00000000E+00  0.00000000E+00
