Fe4 O4 F8                               
   1.00000000000000     
     5.5389988950250579    0.0326772612953053   -0.0167815080434542
    -2.7472227475251638    4.7907681609880228    0.0274899606854501
    -0.0384338852360981    0.0399704165671013    9.5560107843399660
   Fe   O    F 
     4     4     8
Direct
  0.3305345519786923  0.6625401505711598  0.6114095806979443
  0.6651462934283583  0.3335099832834451  0.3889081140183164
  0.6564161797556880  0.3432984456948431  0.1003100364625965
  0.3435834043635843  0.6567893873210334  0.8996939438149779
  0.5007064004181130  0.4998253732700139  0.0001916206872300
  0.4974277985542949  0.4976237734799204  0.5000741710038504
  0.8159539937164175  0.1924319427457913  0.2390814005488024
  0.1919673823133289  0.8159753349897226  0.7601944687080346
  0.5006395009738104  0.9987098973211280  0.0014810880065500
  0.9986712901093944  0.5008064461540468  0.9988056752607787
  0.4994573111236675  0.9971866038562687  0.4988002218749926
  0.9971149316982808  0.4990856013706143  0.5009893064549850
  0.8167281013679246  0.6328347637855201  0.2462051954951505
  0.1862917055053982  0.3662817748019959  0.7545720813992515
  0.3686192921552272  0.1866017948609774  0.2463162017977341
  0.6307418625378267  0.8164987264935331  0.7529668937687977
 
  0.00000000E+00  0.00000000E+00  0.00000000E+00
  0.00000000E+00  0.00000000E+00  0.00000000E+00
  0.00000000E+00  0.00000000E+00  0.00000000E+00
  0.00000000E+00  0.00000000E+00  0.00000000E+00
  0.00000000E+00  0.00000000E+00  0.00000000E+00
  0.00000000E+00  0.00000000E+00  0.00000000E+00
  0.00000000E+00  0.00000000E+00  0.00000000E+00
  0.00000000E+00  0.00000000E+00  0.00000000E+00
  0.00000000E+00  0.00000000E+00  0.00000000E+00
  0.00000000E+00  0.00000000E+00  0.00000000E+00
  0.00000000E+00  0.00000000E+00  0.00000000E+00
  0.00000000E+00  0.00000000E+00  0.00000000E+00
  0.00000000E+00  0.00000000E+00  0.00000000E+00
  0.00000000E+00  0.00000000E+00  0.00000000E+00
  0.00000000E+00  0.00000000E+00  0.00000000E+00
  0.00000000E+00  0.00000000E+00  0.00000000E+00
