Na4 Fe4 O8 F4                           
   1.00000000000000     
     5.2278238023727033    0.1705386006022995   -0.0000411135523222
     0.1701553973634098    5.3136033865206720    0.0000605995315196
    -0.0001127583203696   -0.0000289554748935    7.5640927852900566
   Na   Fe   O    F 
     4     4     8     4
Direct
  0.9841727332874762  0.0316246504758575  0.2474866225513074
  0.0158221912265556  0.9684547483775886  0.7474794518754436
  0.4868295859557675  0.4573883934999716  0.7461556078196709
  0.5131774756991787  0.5426097025370226  0.2461516880784102
  0.4938677672621802  0.9863502661124519  0.9947172335996228
  0.0205799681328702  0.5144127203284170  0.0005030229987846
  0.5061306253324432  0.0136276699069948  0.4947467966633416
  0.9794232350491221  0.4855861114008895  0.5005006454822706
  0.2862989153428782  0.7124450752219350  0.9637529772386690
  0.2198857665026380  0.2183507181610108  0.9601534691337524
  0.7867733831253921  0.7879633636581277  0.0418196140067662
  0.7137295123409687  0.2875327352915934  0.4637498540964416
  0.7801333692212291  0.7816303631538899  0.4601455428143163
  0.2132067834726885  0.2120524922812011  0.5418176987883243
  0.5715119618296097  0.0007008745546840  0.7503697406292462
  0.4284830760067401  0.9992919995504796  0.2503640500932159
  0.7256822844221649  0.2966861028422553  0.0415756074685206
  0.2742967123433438  0.7032824902922682  0.5415855702665341
  0.0948498533419878  0.4808523433400174  0.2534603073142523
  0.9051448001047583  0.5191571790133369  0.7534644990811026
 
  0.00000000E+00  0.00000000E+00  0.00000000E+00
  0.00000000E+00  0.00000000E+00  0.00000000E+00
  0.00000000E+00  0.00000000E+00  0.00000000E+00
  0.00000000E+00  0.00000000E+00  0.00000000E+00
  0.00000000E+00  0.00000000E+00  0.00000000E+00
  0.00000000E+00  0.00000000E+00  0.00000000E+00
  0.00000000E+00  0.00000000E+00  0.00000000E+00
  0.00000000E+00  0.00000000E+00  0.00000000E+00
  0.00000000E+00  0.00000000E+00  0.00000000E+00
  0.00000000E+00  0.00000000E+00  0.00000000E+00
  0.00000000E+00  0.00000000E+00  0.00000000E+00
  0.00000000E+00  0.00000000E+00  0.00000000E+00
  0.00000000E+00  0.00000000E+00  0.00000000E+00
  0.00000000E+00  0.00000000E+00  0.00000000E+00
  0.00000000E+00  0.00000000E+00  0.00000000E+00
  0.00000000E+00  0.00000000E+00  0.00000000E+00
  0.00000000E+00  0.00000000E+00  0.00000000E+00
  0.00000000E+00  0.00000000E+00  0.00000000E+00
  0.00000000E+00  0.00000000E+00  0.00000000E+00
  0.00000000E+00  0.00000000E+00  0.00000000E+00
