Ni8 O8 F16                              
   1.00000000000000     
     7.5636388319455605    0.0052184000143602    0.0260228269831144
     0.0049202249844215    7.5852495789415011   -0.0002432446954205
     0.0289242519577429   -0.0000587486961975    7.3699170128263791
   Ni   O    F 
     8     8    16
Direct
  0.0001077700228578  0.0000212042500181  0.9991096273626638
  0.0000751690699232  0.0000158353045165  0.4992181194623555
  0.9991725168136156  0.4999992543259424  0.9993241777434392
  0.0006696940487458  0.4999819758662269  0.4978928694798341
  0.5000090885123996  0.9999975372071930  0.9993539018732420
  0.5000797183276831  0.0000039112854822  0.4993311546106796
  0.4998158287523395  0.4999939989979794  0.9999063248949369
  0.4999765733674906  0.5000291166573163  0.4997685782473766
  0.9996250349723752  0.0000138088996096  0.2496524774569906
  0.5000396835689855  0.0000601824995954  0.7496220527254920
  0.9996194277228341  0.0000031127651141  0.7488962863384288
  0.0065752370642542  0.4998977367778252  0.2515771684197929
  0.5000124599618232  0.0000633165905057  0.2492079813103061
  0.4999307186773834  0.5002414230488839  0.2517794766684176
  0.4995667330194422  0.5000261674394935  0.7487773115635648
  0.2461701881796543  0.4995624974285704  0.0138237228795717
  0.2517748997674261  0.9995748781842622  0.4989590551570515
  0.2508432643004497  0.4996430743434743  0.5043159980178444
  0.7521946769123744  0.5003238226430682  0.0034256032378366
  0.7496788008552357  0.5002548595183072  0.4980110900391423
  0.0045825612024757  0.7510297191480646  0.0054735891164839
  0.4937363914639548  0.2517875549931077  0.9994149868071887
  0.0008283395577990  0.4999593625503351  0.7479939504980138
  0.2522250184664898  0.9996254798179365  0.9985869412452359
  0.7476308206253606  0.0003732759608326  0.9995873716053509
  0.7479628019441620  0.0003261644438695  0.4999194002585057
  0.0043070889019887  0.2489611545741113  0.0054140155530646
  0.0000563051888847  0.2489346516211839  0.4920611546256666
  0.0001086672390613  0.7510344014379982  0.4920474134119601
  0.4993542689858899  0.2507295564490093  0.4990817327529982
  0.4938688245026128  0.7482258952830492  0.9993371181954842
  0.4994014280040346  0.7493050696871251  0.4991293484410804
 
  0.00000000E+00  0.00000000E+00  0.00000000E+00
  0.00000000E+00  0.00000000E+00  0.00000000E+00
  0.00000000E+00  0.00000000E+00  0.00000000E+00
  0.00000000E+00  0.00000000E+00  0.00000000E+00
  0.00000000E+00  0.00000000E+00  0.00000000E+00
  0.00000000E+00  0.00000000E+00  0.00000000E+00
  0.00000000E+00  0.00000000E+00  0.00000000E+00
  0.00000000E+00  0.00000000E+00  0.00000000E+00
  0.00000000E+00  0.00000000E+00  0.00000000E+00
  0.00000000E+00  0.00000000E+00  0.00000000E+00
  0.00000000E+00  0.00000000E+00  0.00000000E+00
  0.00000000E+00  0.00000000E+00  0.00000000E+00
  0.00000000E+00  0.00000000E+00  0.00000000E+00
  0.00000000E+00  0.00000000E+00  0.00000000E+00
  0.00000000E+00  0.00000000E+00  0.00000000E+00
  0.00000000E+00  0.00000000E+00  0.00000000E+00
  0.00000000E+00  0.00000000E+00  0.00000000E+00
  0.00000000E+00  0.00000000E+00  0.00000000E+00
  0.00000000E+00  0.00000000E+00  0.00000000E+00
  0.00000000E+00  0.00000000E+00  0.00000000E+00
  0.00000000E+00  0.00000000E+00  0.00000000E+00
  0.00000000E+00  0.00000000E+00  0.00000000E+00
  0.00000000E+00  0.00000000E+00  0.00000000E+00
  0.00000000E+00  0.00000000E+00  0.00000000E+00
  0.00000000E+00  0.00000000E+00  0.00000000E+00
  0.00000000E+00  0.00000000E+00  0.00000000E+00
  0.00000000E+00  0.00000000E+00  0.00000000E+00
  0.00000000E+00  0.00000000E+00  0.00000000E+00
  0.00000000E+00  0.00000000E+00  0.00000000E+00
  0.00000000E+00  0.00000000E+00  0.00000000E+00
  0.00000000E+00  0.00000000E+00  0.00000000E+00
  0.00000000E+00  0.00000000E+00  0.00000000E+00
