Ti8 O8 F16                              
   1.00000000000000     
     7.7959526856339005   -0.0053949423309315   -0.0000120985464086
    -0.0005610338930523    7.4813138343272989   -0.0000017639931750
    -0.0000120713861420   -0.0000013796693612    7.8360425015296213
   Ti   O    F 
     8     8    16
Direct
  0.0024552323194942  0.9907343142512429  0.9999998831494215
  0.9970234726607570  0.9872053604573192  0.4999998619351143
  0.0045488220115528  0.4880663507410717  0.0000030789174379
  0.0020757892328239  0.4868737862132082  0.5000019227595285
  0.5031500522140928  0.9855855860936996  0.9999987920464884
  0.4967344403805713  0.9875867991020013  0.4999976660421659
  0.4793592039560702  0.5046549789860112  0.0000002692811551
  0.5027972020929808  0.4864261646110555  0.5000000850414987
  0.2542229137897939  0.4944027857035740  0.0000036776837581
  0.9945248093742327  0.2495358957627333  0.0000033445265767
  0.9991082075198683  0.2519620424308087  0.4999990880260136
  0.0031334308157468  0.7553832676437805  0.9999986538258382
  0.9998240122605162  0.7528978957999031  0.5000041441155374
  0.4997151281658447  0.2511045106699131  0.5000005158453017
  0.4998336173655422  0.7549098284910853  0.9999993297614407
  0.4975097482012429  0.7525586506530840  0.4999974854203592
  0.9998551163218761  0.0046281634901655  0.2506046470387759
  0.9998597847926878  0.0046324806678928  0.7493952277432040
  0.9977513053251016  0.5049720921433218  0.2518502035775043
  0.9977541630074173  0.5049622654168361  0.7481541131792404
  0.4987190067107474  0.0071340076570487  0.2471912643963422
  0.4987215706813027  0.0071264570729584  0.7528070023930244
  0.5038291097614725  0.4985187597868870  0.2494350413605951
  0.5038184336509751  0.4985213721428445  0.7505645331318843
  0.2564986136413709  0.0144682390004397  0.0000002293015982
  0.2486025690833361  0.0057261264051651  0.4999976067294719
  0.2524282268325171  0.5041131266688371  0.4999991352720184
  0.7483529959263633  0.0027145480017188  0.0000008323250289
  0.7464951985012290  0.0037193351910294  0.4999947414879974
  0.7466424819193305  0.5044198443640210  0.0000014354514978
  0.7504277098466702  0.5060948924220771  0.5000045502948096
  0.5142276316364440  0.2483600719582518  0.9999916379393790
 
  0.00000000E+00  0.00000000E+00  0.00000000E+00
  0.00000000E+00  0.00000000E+00  0.00000000E+00
  0.00000000E+00  0.00000000E+00  0.00000000E+00
  0.00000000E+00  0.00000000E+00  0.00000000E+00
  0.00000000E+00  0.00000000E+00  0.00000000E+00
  0.00000000E+00  0.00000000E+00  0.00000000E+00
  0.00000000E+00  0.00000000E+00  0.00000000E+00
  0.00000000E+00  0.00000000E+00  0.00000000E+00
  0.00000000E+00  0.00000000E+00  0.00000000E+00
  0.00000000E+00  0.00000000E+00  0.00000000E+00
  0.00000000E+00  0.00000000E+00  0.00000000E+00
  0.00000000E+00  0.00000000E+00  0.00000000E+00
  0.00000000E+00  0.00000000E+00  0.00000000E+00
  0.00000000E+00  0.00000000E+00  0.00000000E+00
  0.00000000E+00  0.00000000E+00  0.00000000E+00
  0.00000000E+00  0.00000000E+00  0.00000000E+00
  0.00000000E+00  0.00000000E+00  0.00000000E+00
  0.00000000E+00  0.00000000E+00  0.00000000E+00
  0.00000000E+00  0.00000000E+00  0.00000000E+00
  0.00000000E+00  0.00000000E+00  0.00000000E+00
  0.00000000E+00  0.00000000E+00  0.00000000E+00
  0.00000000E+00  0.00000000E+00  0.00000000E+00
  0.00000000E+00  0.00000000E+00  0.00000000E+00
  0.00000000E+00  0.00000000E+00  0.00000000E+00
  0.00000000E+00  0.00000000E+00  0.00000000E+00
  0.00000000E+00  0.00000000E+00  0.00000000E+00
  0.00000000E+00  0.00000000E+00  0.00000000E+00
  0.00000000E+00  0.00000000E+00  0.00000000E+00
  0.00000000E+00  0.00000000E+00  0.00000000E+00
  0.00000000E+00  0.00000000E+00  0.00000000E+00
  0.00000000E+00  0.00000000E+00  0.00000000E+00
  0.00000000E+00  0.00000000E+00  0.00000000E+00
