V2 O2 F4                                
   1.00000000000000     
    -2.5637962272768497   -4.3339506809062067    0.0104788969333652
    -5.1227300858731528    0.0025784378289113   -0.0011740263340075
    -2.5608226909863636   -1.4202215568468457   -4.3971734674525145
   V    O    F 
     2     2     4
Direct
  0.9766637159046354  0.0326213335136103  0.9777219761752320
  0.4768371181401889  0.5130577393054168  0.4774978607592644
  0.2603065262261737  0.6584322559771891  0.2519186484617109
  0.7601845589367926  0.3293089871932011  0.7519434604072615
  0.6430738613292846  0.8570083851361758  0.2762630876270862
  0.3698986284478991  0.1318528316024015  0.7442354273683165
  0.1431349266835582  0.7236457446929876  0.7761777228857980
  0.8699006643314675  0.2540727225790107  0.2442418163153306
 
  0.00000000E+00  0.00000000E+00  0.00000000E+00
  0.00000000E+00  0.00000000E+00  0.00000000E+00
  0.00000000E+00  0.00000000E+00  0.00000000E+00
  0.00000000E+00  0.00000000E+00  0.00000000E+00
  0.00000000E+00  0.00000000E+00  0.00000000E+00
  0.00000000E+00  0.00000000E+00  0.00000000E+00
  0.00000000E+00  0.00000000E+00  0.00000000E+00
  0.00000000E+00  0.00000000E+00  0.00000000E+00
