Na4 Cr4 O8 F4                           
   1.00000000000000     
     5.3350722128107968    0.0259021002098497   -0.0903412914661012
    -2.6742419271053146    4.6130540991979094   -0.0325692382697965
     0.1424607526896135    0.0183116292593041    9.0609854383974096
   Na   Cr   O    F 
     4     4     8     4
Direct
  0.9694197946394459  0.9885315392159237  0.9256962620032237
  0.0251268161942827  0.0195338984034001  0.5685742752118171
  0.3346879778052042  0.6666879337324290  0.2553824837052009
  0.6696281736741492  0.3385325733269086  0.7490411624622538
  0.3342232146279074  0.6756156296628367  0.6051874044053775
  0.6766841017415867  0.3413833448511992  0.4116321294989344
  0.6243559115715736  0.3075269362663749  0.0965494896694164
  0.2747544530810562  0.6367486209729974  0.9058493259876867
  0.5406664305227574  0.9489280184618110  0.0138635468798763
  0.9541131485358826  0.5504029027075145  0.9831173713514018
  0.3793413140385483  0.3957752235902334 -0.0058098605274808
  0.6164126213015225  0.0418424255872585  0.5110949077879894
  0.0365406350102205  0.6123782796557966  0.4909169758083625
  0.4563768447397520  0.4560182660230558  0.4975103078854310
  0.1490147315395071  0.3823227316283434  0.7446439592371390
  0.2962282703457518  0.8848568033018728  0.7565897334916363
  0.7336009035715132  0.6233810860891340  0.2426894518360403
  0.3587187875053850  0.1060746639702475  0.2601771720903228
  0.6880316988869571  0.7588602034038605  0.7382825515133909
  0.8820741706670187  0.2645989191488165  0.2490113497019814
 
  0.00000000E+00  0.00000000E+00  0.00000000E+00
  0.00000000E+00  0.00000000E+00  0.00000000E+00
  0.00000000E+00  0.00000000E+00  0.00000000E+00
  0.00000000E+00  0.00000000E+00  0.00000000E+00
  0.00000000E+00  0.00000000E+00  0.00000000E+00
  0.00000000E+00  0.00000000E+00  0.00000000E+00
  0.00000000E+00  0.00000000E+00  0.00000000E+00
  0.00000000E+00  0.00000000E+00  0.00000000E+00
  0.00000000E+00  0.00000000E+00  0.00000000E+00
  0.00000000E+00  0.00000000E+00  0.00000000E+00
  0.00000000E+00  0.00000000E+00  0.00000000E+00
  0.00000000E+00  0.00000000E+00  0.00000000E+00
  0.00000000E+00  0.00000000E+00  0.00000000E+00
  0.00000000E+00  0.00000000E+00  0.00000000E+00
  0.00000000E+00  0.00000000E+00  0.00000000E+00
  0.00000000E+00  0.00000000E+00  0.00000000E+00
  0.00000000E+00  0.00000000E+00  0.00000000E+00
  0.00000000E+00  0.00000000E+00  0.00000000E+00
  0.00000000E+00  0.00000000E+00  0.00000000E+00
  0.00000000E+00  0.00000000E+00  0.00000000E+00
