Na4 V4 O8 F4                            
   1.00000000000000     
     5.2159901483967985    0.0000002889697210    0.0000425785024349
     0.0000003403455620    5.2468440591969028    0.0000001175962678
     0.0000659300844441    0.0000001092725047    7.8446049844403420
   Na   V    O    F 
     4     4     8     4
Direct
  0.9788531115173384  0.0259699832178910  0.2500000382130168
  0.0210201842490179  0.9741713579943649  0.7499996564751257
  0.4788529758879605  0.4740305643400191  0.7500000610662738
  0.5210202695225092  0.5258283677944462  0.2499996628548971
  0.4999884909334256  0.0001088853928195  0.0000018346845323
  0.9999905344628957  0.4998827141911377  0.9999978537112000
  0.4999889234713564  0.0001170723318040  0.4999976326654121
  0.9999874819175005  0.4998910965142827  0.5000023227330317
  0.7099952469253310  0.2655797458382168  0.0370371559452778
  0.2900921711256146  0.7343568694032854  0.9629718114042589
  0.2099655446834348  0.2344434419197796  0.9629617330878517
  0.7901172327813271  0.7656173093858811  0.0370287707288028
  0.2901159227227836  0.7343838278590624  0.5370292916725603
  0.7099653513759492  0.2655560060742275  0.4629611397712381
  0.7900911840426232  0.7656423129517052  0.4629712846133600
  0.2099944342586610  0.2344198581982511  0.5370403069796481
  0.0888826719399916  0.4826465623899239  0.2499978848292486
  0.9110977471734074  0.5173152846686264  0.7500021726644306
  0.5888827578640061  0.0173537413192975  0.7499974289047842
  0.4110977631448591  0.9826849982149710  0.2500019569950354
 
  0.00000000E+00  0.00000000E+00  0.00000000E+00
  0.00000000E+00  0.00000000E+00  0.00000000E+00
  0.00000000E+00  0.00000000E+00  0.00000000E+00
  0.00000000E+00  0.00000000E+00  0.00000000E+00
  0.00000000E+00  0.00000000E+00  0.00000000E+00
  0.00000000E+00  0.00000000E+00  0.00000000E+00
  0.00000000E+00  0.00000000E+00  0.00000000E+00
  0.00000000E+00  0.00000000E+00  0.00000000E+00
  0.00000000E+00  0.00000000E+00  0.00000000E+00
  0.00000000E+00  0.00000000E+00  0.00000000E+00
  0.00000000E+00  0.00000000E+00  0.00000000E+00
  0.00000000E+00  0.00000000E+00  0.00000000E+00
  0.00000000E+00  0.00000000E+00  0.00000000E+00
  0.00000000E+00  0.00000000E+00  0.00000000E+00
  0.00000000E+00  0.00000000E+00  0.00000000E+00
  0.00000000E+00  0.00000000E+00  0.00000000E+00
  0.00000000E+00  0.00000000E+00  0.00000000E+00
  0.00000000E+00  0.00000000E+00  0.00000000E+00
  0.00000000E+00  0.00000000E+00  0.00000000E+00
  0.00000000E+00  0.00000000E+00  0.00000000E+00
