Cr4 O4 F8                               
   1.00000000000000     
     4.8082591493641749   -0.0004813492598130    0.0314937301159621
    -0.0044804491748421    5.1044469905084098   -0.0043387098890161
    -0.0179740361334149   -0.0176722377535504    7.1967142378757218
   Cr   O    F 
     4     4     8
Direct
  0.4958371267332643  0.0221427695449244  0.0009732151831084
  0.9921681500548147  0.4682822623428333  0.0049428280550617
  0.5329169663232182  0.0045385161158563  0.4931006647388040
  0.9802124836281770  0.4987390054838161  0.4995670104231943
  0.6855026228761445  0.3182331958387183  0.0621555611720316
  0.1877145108931134  0.2041421315059333  0.9362398187452120
  0.6940420814006013  0.2909725331938836  0.4273844113954301
  0.8028297319366514  0.7944375018441205  0.4510261294800405
  0.3062567102763430  0.7004783950697613  0.9457013381557928
  0.8164176463424611  0.8105321799945971  0.0572911724846211
  0.3074833761461031  0.6974756233899241  0.5610837947002636
  0.1948742847745152  0.1906703169565149  0.5576709094195870
  0.1293002545207904  0.4723450260546668  0.2515166875344006
  0.8698584516265125  0.5208162921746550  0.7519736486477068
  0.6288380088048041  0.0354292721357185  0.7478719640976452
  0.3757475936624935  0.9707649783540833  0.2515008457671002
 
  0.00000000E+00  0.00000000E+00  0.00000000E+00
  0.00000000E+00  0.00000000E+00  0.00000000E+00
  0.00000000E+00  0.00000000E+00  0.00000000E+00
  0.00000000E+00  0.00000000E+00  0.00000000E+00
  0.00000000E+00  0.00000000E+00  0.00000000E+00
  0.00000000E+00  0.00000000E+00  0.00000000E+00
  0.00000000E+00  0.00000000E+00  0.00000000E+00
  0.00000000E+00  0.00000000E+00  0.00000000E+00
  0.00000000E+00  0.00000000E+00  0.00000000E+00
  0.00000000E+00  0.00000000E+00  0.00000000E+00
  0.00000000E+00  0.00000000E+00  0.00000000E+00
  0.00000000E+00  0.00000000E+00  0.00000000E+00
  0.00000000E+00  0.00000000E+00  0.00000000E+00
  0.00000000E+00  0.00000000E+00  0.00000000E+00
  0.00000000E+00  0.00000000E+00  0.00000000E+00
  0.00000000E+00  0.00000000E+00  0.00000000E+00
