Sodium cobalt oxide (0.5/1/2)           
   1.00000000000000     
     4.8612182285531373   -0.0098328879136493   -0.0061460913514896
    -0.0121497616100944    5.5997353474267637   -0.0199681472171173
    -0.0463663191054731   -0.0127622207424165   11.0256965455505558
   Co   Na   O 
     8     4    16
Direct
  0.0034354302490271  0.2490490625669821  0.0029313228115484
  0.9977293244977758  0.7489835474601492  0.9968107469979444
  0.0019445550027513  0.2517789741292589  0.4974132873216419
  0.9973455987471809  0.7494880128058696  0.5032308143155149
  0.5007104480549529  0.9992990146486278  0.9998793768488241
  0.5007507505384794  0.4994340070835435  0.5003760171479286
  0.4998065222054890  0.9998102125925499  0.4999128797119212
  0.5005345429338135  0.4993413507427817  0.9999783759140257
  0.9699829724013256  0.2513609400646715  0.7506536925430183
  0.0274704386731699  0.7502676317479597  0.2472838682827501
  0.3525909549556516  0.7487330748133445  0.7505066225763741
  0.6481571726758020  0.2523094774928580  0.2503574329926508
  0.3390800535930794  0.2497106435282959  0.0897487009581113
  0.6623273551330300  0.7486398307944384  0.9100473725446321
  0.3366824036847262  0.2481907640735201  0.4117713406604366
  0.6660878380102702  0.7520020106413057  0.5887732034087279
  0.3401087038553072  0.7498728515030635  0.0854311735991544
  0.6611613833294854  0.2488528729320691  0.9144066630963579
  0.3258588466510659  0.7579389207917231  0.4130042754611551
  0.6688957040493477  0.2408456954312541  0.5874368362413733
  0.8280231940659064  0.9967611628457149  0.0893814248642002
  0.1730393644965034  0.0016510390009827  0.9103969619905570
  0.8503255580181630  0.5080106038081666  0.4066965156007925
  0.1483198328105360  0.5077501930991133  0.5938856699799615
  0.1699316958973256  0.9996396124485400  0.5894064454892671
  0.8285857586263106  0.9921200988855006  0.4104759067750194
  0.1731309391074518  0.4956138450529650  0.9105308682258340
  0.8279825637360787  0.5025445350147351  0.0892722286402687
 
  0.00000000E+00  0.00000000E+00  0.00000000E+00
  0.00000000E+00  0.00000000E+00  0.00000000E+00
  0.00000000E+00  0.00000000E+00  0.00000000E+00
  0.00000000E+00  0.00000000E+00  0.00000000E+00
  0.00000000E+00  0.00000000E+00  0.00000000E+00
  0.00000000E+00  0.00000000E+00  0.00000000E+00
  0.00000000E+00  0.00000000E+00  0.00000000E+00
  0.00000000E+00  0.00000000E+00  0.00000000E+00
  0.00000000E+00  0.00000000E+00  0.00000000E+00
  0.00000000E+00  0.00000000E+00  0.00000000E+00
  0.00000000E+00  0.00000000E+00  0.00000000E+00
  0.00000000E+00  0.00000000E+00  0.00000000E+00
  0.00000000E+00  0.00000000E+00  0.00000000E+00
  0.00000000E+00  0.00000000E+00  0.00000000E+00
  0.00000000E+00  0.00000000E+00  0.00000000E+00
  0.00000000E+00  0.00000000E+00  0.00000000E+00
  0.00000000E+00  0.00000000E+00  0.00000000E+00
  0.00000000E+00  0.00000000E+00  0.00000000E+00
  0.00000000E+00  0.00000000E+00  0.00000000E+00
  0.00000000E+00  0.00000000E+00  0.00000000E+00
  0.00000000E+00  0.00000000E+00  0.00000000E+00
  0.00000000E+00  0.00000000E+00  0.00000000E+00
  0.00000000E+00  0.00000000E+00  0.00000000E+00
  0.00000000E+00  0.00000000E+00  0.00000000E+00
  0.00000000E+00  0.00000000E+00  0.00000000E+00
  0.00000000E+00  0.00000000E+00  0.00000000E+00
  0.00000000E+00  0.00000000E+00  0.00000000E+00
  0.00000000E+00  0.00000000E+00  0.00000000E+00
