Na4 V4 O8 F4                            
   1.00000000000000     
     5.3716940410531668    0.0918864172648095   -0.0333871008229353
     0.1132593791217365    5.4302952650618224    0.0089227970936364
    -0.0372608877443167   -0.0008639784247289    7.3590120137704123
   Na   V    O    F 
     4     4     8     4
Direct
 -0.0003488506975363  0.0434212982473458  0.2534927395954287
 -0.0005475599740747  0.9915078312638911  0.7488775535720569
  0.4998974155012418  0.4539330623148882  0.7568742879040271
  0.4922667290057727  0.5230569972286568  0.2497163636512485
  0.5131930708718619  0.9641609601071804  0.0004035812128839
  0.0170634645868031  0.5322286469919596  0.9981191727541252
  0.4953257852391077  0.9976497597287703  0.4997016135080987
  0.9969613487173524  0.5001210258860639  0.5002217203941492
  0.3003377516551349  0.7144345448346049  0.9627319357327120
  0.8033511931694047  0.8179679894401991  0.0294118466608273
  0.7983417090418381  0.7718104725307118  0.4738751650008701
  0.2006178733162201  0.2229133810745307  0.5239047398429006
  0.0535275625834845  0.4863974488008440  0.2376323198589678
  0.9357065403952914  0.4979903550871703  0.7627483261218456
  0.5515463226268945  0.0118026158515696  0.7412251345473315
  0.4414913672516034  0.9760946432767558  0.2566524273200089
  0.6881104387380090  0.2977539141859248  0.0349149591295913
  0.2154885147430625  0.2058878831397472  0.9680507259214520
  0.2968493694567689  0.6993825623091959  0.5414552022862804
  0.7008199537717597  0.2914846076999819  0.4599901849851868
 
  0.00000000E+00  0.00000000E+00  0.00000000E+00
  0.00000000E+00  0.00000000E+00  0.00000000E+00
  0.00000000E+00  0.00000000E+00  0.00000000E+00
  0.00000000E+00  0.00000000E+00  0.00000000E+00
  0.00000000E+00  0.00000000E+00  0.00000000E+00
  0.00000000E+00  0.00000000E+00  0.00000000E+00
  0.00000000E+00  0.00000000E+00  0.00000000E+00
  0.00000000E+00  0.00000000E+00  0.00000000E+00
  0.00000000E+00  0.00000000E+00  0.00000000E+00
  0.00000000E+00  0.00000000E+00  0.00000000E+00
  0.00000000E+00  0.00000000E+00  0.00000000E+00
  0.00000000E+00  0.00000000E+00  0.00000000E+00
  0.00000000E+00  0.00000000E+00  0.00000000E+00
  0.00000000E+00  0.00000000E+00  0.00000000E+00
  0.00000000E+00  0.00000000E+00  0.00000000E+00
  0.00000000E+00  0.00000000E+00  0.00000000E+00
  0.00000000E+00  0.00000000E+00  0.00000000E+00
  0.00000000E+00  0.00000000E+00  0.00000000E+00
  0.00000000E+00  0.00000000E+00  0.00000000E+00
  0.00000000E+00  0.00000000E+00  0.00000000E+00
