Co8 O8 F16                              
   1.00000000000000     
     7.4966225071657302   -0.0003672981086815    0.0027989592859180
    -0.0049054772579173    7.6343627956543427    0.0107275872460450
     0.0035624449292392   -0.0109153921933094    7.6031669193022724
   Co   O    F 
     8     8    16
Direct
  0.0028544104817333  0.0000375559520382  0.0008309555984506
  0.9991885568448763  0.9982351807466034  0.5006596023079388
  0.0057128513027607  0.4986969841102528  0.9988567900698486
  0.9949974139800088  0.5050744899375859  0.4991237092754606
  0.5027378934543257  0.9994064264536339 -0.0003018946399859
  0.4998858242166860  0.9982175969526402  0.4999777865872338
  0.4992380692838729  0.4991396179742776  0.0000038094923500
  0.4940313236076578  0.4985957923507061  0.4997703720540054
  0.2479756028947475  0.9959529338009313  0.5001399820453186
  0.4936705612473785  0.4980855185158502  0.2484506193433531
  0.4937036551179154  0.4990187436606233  0.7514395706787976
  0.2535618926004450  0.9997468277852706  0.0005632714545818
  0.2577979917791695  0.4980640494744748  0.9995640451742694
  0.7525638940266627  0.9987942914582707  0.0005697818600090
  0.7508841775604450  0.9957608630000606  0.5002629079823525
  0.9963565549838929  0.7587322084620268  0.4999291242251415
  0.0033944822609177  0.0079767947388894  0.2468461739663037
  0.5001413623732249  0.9975358164805460  0.7524805053859589
  0.2445244709742730  0.5046731463478683  0.4997749693554695
  0.7491515879778881  0.5003022415962303 -0.0003606665796543
  0.7461045794319450  0.5030774212111877  0.4996745134756583
  0.9981657835443375  0.7407205625488192 -0.0003436946254317
  0.5122189155278543  0.2469349717686409  0.9997634101661755
  0.0037348138080397  0.0062546689785361  0.7546701797312350
  0.9997192884845746  0.4977877834069883  0.2548558571934867
  0.9996143296459691  0.4983464668192878  0.7437841621025661
  0.5000999218084906  0.9988640539445642  0.2472977520089854
  0.9957789926462346  0.2590605753419155  0.0000466607013474
  0.9972531020413333  0.2480087643080474  0.5010954573089988
  0.4971936372593659  0.2480043955440511  0.5011535122192042
  0.5102304546684554  0.7513861140663456  0.0003418538485151
  0.4975136041644966  0.7495071422628494  0.4990789202320481
 
  0.00000000E+00  0.00000000E+00  0.00000000E+00
  0.00000000E+00  0.00000000E+00  0.00000000E+00
  0.00000000E+00  0.00000000E+00  0.00000000E+00
  0.00000000E+00  0.00000000E+00  0.00000000E+00
  0.00000000E+00  0.00000000E+00  0.00000000E+00
  0.00000000E+00  0.00000000E+00  0.00000000E+00
  0.00000000E+00  0.00000000E+00  0.00000000E+00
  0.00000000E+00  0.00000000E+00  0.00000000E+00
  0.00000000E+00  0.00000000E+00  0.00000000E+00
  0.00000000E+00  0.00000000E+00  0.00000000E+00
  0.00000000E+00  0.00000000E+00  0.00000000E+00
  0.00000000E+00  0.00000000E+00  0.00000000E+00
  0.00000000E+00  0.00000000E+00  0.00000000E+00
  0.00000000E+00  0.00000000E+00  0.00000000E+00
  0.00000000E+00  0.00000000E+00  0.00000000E+00
  0.00000000E+00  0.00000000E+00  0.00000000E+00
  0.00000000E+00  0.00000000E+00  0.00000000E+00
  0.00000000E+00  0.00000000E+00  0.00000000E+00
  0.00000000E+00  0.00000000E+00  0.00000000E+00
  0.00000000E+00  0.00000000E+00  0.00000000E+00
  0.00000000E+00  0.00000000E+00  0.00000000E+00
  0.00000000E+00  0.00000000E+00  0.00000000E+00
  0.00000000E+00  0.00000000E+00  0.00000000E+00
  0.00000000E+00  0.00000000E+00  0.00000000E+00
  0.00000000E+00  0.00000000E+00  0.00000000E+00
  0.00000000E+00  0.00000000E+00  0.00000000E+00
  0.00000000E+00  0.00000000E+00  0.00000000E+00
  0.00000000E+00  0.00000000E+00  0.00000000E+00
  0.00000000E+00  0.00000000E+00  0.00000000E+00
  0.00000000E+00  0.00000000E+00  0.00000000E+00
  0.00000000E+00  0.00000000E+00  0.00000000E+00
  0.00000000E+00  0.00000000E+00  0.00000000E+00
