Sodium hexafluoromanganate(III)         
   1.00000000000000     
     5.3597325842515326    0.0000011027262726    0.0011983429757703
     0.0000012529870670    5.6755614311157370   -0.0000021816714868
     0.1458208096056321   -0.0000029698844135    7.9489122484563568
   Mn   Na   F 
     2     6    12
Direct
  0.0002232780662921  0.9998123760885798 -0.0000176192154556
  0.5002224336402984  0.5001876063096733  0.4999825939783955
  0.9993910167421151  0.0006396119533856  0.4999767434729162
  0.4993915151119998  0.4993604445078912  0.9999768419670670
  0.5164222763436070  0.9363983291012041  0.2511947629487436
  0.4835762016261836  0.0634752535654858  0.7488270993102554
  0.9835764879631071  0.4365246976918285  0.2488270736873076
  0.0164220711769924  0.5636023573998986  0.7511949043473639
  0.1240912286739039  0.0604472958450805  0.2328440539702119
  0.8761859294125358  0.9395538473250626  0.7672221506901699
  0.3761860877492652  0.5604461394220011  0.2672223708948372
  0.6240915633054690  0.4395525037249230  0.7328443316667219
  0.7177649196733287  0.1712957534955815  0.0552585563029093
  0.2824453346784729  0.8284901466253368  0.9449003148881050
  0.7824446378238532  0.6715098874590879  0.4449010509473393
  0.2177645233200488  0.3287040241707633  0.5552585530575118
  0.1716129940351826  0.2867862894607143  0.9252030629721792
  0.8282881424950465  0.7127001081646097  0.0745896661346145
  0.3282872901021789  0.7872998514781874  0.5745900991484701
  0.6716120460601102  0.2132134842106986  0.4252033748303493
 
  0.00000000E+00  0.00000000E+00  0.00000000E+00
  0.00000000E+00  0.00000000E+00  0.00000000E+00
  0.00000000E+00  0.00000000E+00  0.00000000E+00
  0.00000000E+00  0.00000000E+00  0.00000000E+00
  0.00000000E+00  0.00000000E+00  0.00000000E+00
  0.00000000E+00  0.00000000E+00  0.00000000E+00
  0.00000000E+00  0.00000000E+00  0.00000000E+00
  0.00000000E+00  0.00000000E+00  0.00000000E+00
  0.00000000E+00  0.00000000E+00  0.00000000E+00
  0.00000000E+00  0.00000000E+00  0.00000000E+00
  0.00000000E+00  0.00000000E+00  0.00000000E+00
  0.00000000E+00  0.00000000E+00  0.00000000E+00
  0.00000000E+00  0.00000000E+00  0.00000000E+00
  0.00000000E+00  0.00000000E+00  0.00000000E+00
  0.00000000E+00  0.00000000E+00  0.00000000E+00
  0.00000000E+00  0.00000000E+00  0.00000000E+00
  0.00000000E+00  0.00000000E+00  0.00000000E+00
  0.00000000E+00  0.00000000E+00  0.00000000E+00
  0.00000000E+00  0.00000000E+00  0.00000000E+00
  0.00000000E+00  0.00000000E+00  0.00000000E+00
