Ni2 O2 F4                               
   1.00000000000000     
     3.7652419547949272    0.0042185516230774   -0.0000408242085954
     0.0045703089351394    3.7679229009735589    0.0000323701267767
    -0.0006472314640271   -0.0000821343059035    7.3065238540314255
   Ni   O    F 
     2     2     4
Direct
  0.5000425076312557  0.4999856788994657  0.2547169073331746
  0.4999816295339968  0.4999300249597742  0.7546917857087532
  0.5000492019824219  0.5000271756102693  0.0050516464828595
  0.4999775620486472  0.5001632521557281  0.5050098983846579
  0.5000561086005036 -0.0000215287192807  0.2422430840230274
  0.5000274161193088  0.0000161651400933  0.7695132371150206
 -0.0000629131843018  0.4999905372307633  0.2693299591267340
 -0.0000715127318247  0.4999086947231793  0.7424434818257719
 
  0.00000000E+00  0.00000000E+00  0.00000000E+00
  0.00000000E+00  0.00000000E+00  0.00000000E+00
  0.00000000E+00  0.00000000E+00  0.00000000E+00
  0.00000000E+00  0.00000000E+00  0.00000000E+00
  0.00000000E+00  0.00000000E+00  0.00000000E+00
  0.00000000E+00  0.00000000E+00  0.00000000E+00
  0.00000000E+00  0.00000000E+00  0.00000000E+00
  0.00000000E+00  0.00000000E+00  0.00000000E+00
