Titanium(II) fluoride                   
   1.00000000000000     
     5.1838476448040041   -0.0000023376213011   -0.0000012747368326
    -0.0000011821420949    5.1838624477376740    0.0000001736908793
    -0.0000003690132182   -0.0000014169504985    5.1840312004337612
   Ti   F 
     4     8
Direct
  0.9999877442834020  0.0000000912548899  0.0000000095145225
  0.9999877335042768  0.4999999915958284  0.4999999933152992
  0.4999877475477916  0.0000000747458060  0.5000000174804669
  0.4999877378858955  0.4999999657603453  0.0000000067299410
  0.2500063069453518  0.2500000435826593  0.2500000179770581
  0.7500059409610813  0.7499999353581188  0.7499999813332607
  0.7500057698715068  0.7500001878930291  0.2499998594625765
  0.2500064869427163  0.2499997759175372  0.7500001493825721
  0.7500064482261735  0.2499998794976364  0.7499998238491230
  0.2500058157456593  0.7500000848349728  0.2500001654895883
  0.2500059108804606  0.7499997275823205  0.7500000104987024
  0.7500063572056703  0.2500002419768563  0.2499999649668894
 
  0.00000000E+00  0.00000000E+00  0.00000000E+00
  0.00000000E+00  0.00000000E+00  0.00000000E+00
  0.00000000E+00  0.00000000E+00  0.00000000E+00
  0.00000000E+00  0.00000000E+00  0.00000000E+00
  0.00000000E+00  0.00000000E+00  0.00000000E+00
  0.00000000E+00  0.00000000E+00  0.00000000E+00
  0.00000000E+00  0.00000000E+00  0.00000000E+00
  0.00000000E+00  0.00000000E+00  0.00000000E+00
  0.00000000E+00  0.00000000E+00  0.00000000E+00
  0.00000000E+00  0.00000000E+00  0.00000000E+00
  0.00000000E+00  0.00000000E+00  0.00000000E+00
  0.00000000E+00  0.00000000E+00  0.00000000E+00
