V4 O4 F8                                
   1.00000000000000     
     5.4228211723416777   -0.0628002634657691   -0.0158228739575063
    -2.7658367108644266    4.7906009491176329    0.0325502869972460
    -0.0280211609326665    0.0495836245290935    9.3630285932687567
   V    O    F 
     4     4     8
Direct
  0.3665974188027555  0.6713414178391199  0.6144040117707646
  0.6579323945548577  0.3552426930378276  0.3976301532310959
  0.6334089543810583  0.3043431525107841  0.1141974664302545
  0.3418802490657032  0.6972684975654350  0.8977547687369546
  0.4926709190172682  0.9871754561666243  0.9985944118159146
  0.5075072919231195  0.4945134162111962  0.4985602275107742
  0.3804587984871359  0.1983010994327497  0.2419146044627719
  0.6194427387855994  0.8179073932439757  0.7420458962315115
  0.9918339986754101  0.4879585822690410  0.0054780182660374
  0.4951652038910430  0.4866481991035877  0.9883493634529852
  0.5048590214821217  0.9914055103788290  0.4884747384363808
  0.0081740599789943  0.4962071855448486  0.5054536714879722
  0.8345521590098751  0.6375883809875950  0.2480323439337075
  0.1718393531787495  0.3713435746977393  0.7555733354278164
  0.8281805492113058  0.1995146890410497  0.2554441188194996
  0.1654968895550031  0.8032407519695901  0.7480928699855665
 
  0.00000000E+00  0.00000000E+00  0.00000000E+00
  0.00000000E+00  0.00000000E+00  0.00000000E+00
  0.00000000E+00  0.00000000E+00  0.00000000E+00
  0.00000000E+00  0.00000000E+00  0.00000000E+00
  0.00000000E+00  0.00000000E+00  0.00000000E+00
  0.00000000E+00  0.00000000E+00  0.00000000E+00
  0.00000000E+00  0.00000000E+00  0.00000000E+00
  0.00000000E+00  0.00000000E+00  0.00000000E+00
  0.00000000E+00  0.00000000E+00  0.00000000E+00
  0.00000000E+00  0.00000000E+00  0.00000000E+00
  0.00000000E+00  0.00000000E+00  0.00000000E+00
  0.00000000E+00  0.00000000E+00  0.00000000E+00
  0.00000000E+00  0.00000000E+00  0.00000000E+00
  0.00000000E+00  0.00000000E+00  0.00000000E+00
  0.00000000E+00  0.00000000E+00  0.00000000E+00
  0.00000000E+00  0.00000000E+00  0.00000000E+00
