Na1 Ti16 O16 F32
1.0
10.917357 0.135011 -0.000030
0.132234 10.948917 0.000044
-0.000024 0.000034 7.634399
Na Ti O F
1 16 16 32
direct
0.492402 0.497482 0.249937 Na
0.241229 0.005875 0.013231 Ti
0.237699 0.506838 0.011063 Ti
0.742600 0.006091 0.013291 Ti
0.743502 0.505794 0.012153 Ti
0.004947 0.242124 0.984982 Ti
0.003709 0.744752 0.985082 Ti
0.505124 0.240233 0.982953 Ti
0.505567 0.744789 0.983637 Ti
0.241308 0.005835 0.486614 Ti
0.237733 0.506845 0.488576 Ti
0.742590 0.006088 0.486662 Ti
0.743569 0.505736 0.487755 Ti
0.005051 0.242074 0.514852 Ti
0.003725 0.744733 0.514899 Ti
0.505134 0.240250 0.516812 Ti
0.505613 0.744733 0.516197 Ti
0.116116 0.116008 0.987423 O
0.114699 0.616326 0.987938 O
0.615171 0.115226 0.986848 O
0.612793 0.612901 0.994245 O
0.116188 0.116030 0.512591 O
0.114739 0.616336 0.511875 O
0.615173 0.115241 0.513004 O
0.612828 0.612905 0.505750 O
0.478926 0.249101 0.749882 O
0.485192 0.749049 0.749943 O
0.985131 0.251763 0.749957 O
0.981851 0.748616 0.749986 O
0.241955 0.497251 0.249859 O
0.236158 0.993173 0.249976 O
0.730912 0.490356 0.249985 O
0.738013 0.996712 0.249967 O
0.364566 0.137342 0.025608 F
0.365691 0.634667 0.020334 F
0.864066 0.136327 0.016166 F
0.863493 0.636788 0.023722 F
0.137407 0.363994 0.983260 F
0.136049 0.864787 0.976478 F
0.636295 0.364332 0.976002 F
0.637086 0.863276 0.983761 F
0.392357 0.391062 0.018693 F
0.387023 0.884957 0.012859 F
0.886266 0.387021 0.011731 F
0.886093 0.886247 0.012266 F
0.137576 0.363912 0.516403 F
0.135976 0.864857 0.523578 F
0.636412 0.364262 0.523778 F
0.636976 0.863354 0.516194 F
0.364539 0.137427 0.474113 F
0.365679 0.634745 0.479335 F
0.864165 0.136222 0.483819 F
0.863576 0.636688 0.476240 F
0.392571 0.391256 0.481146 F
0.387027 0.885012 0.487110 F
0.886362 0.387066 0.488336 F
0.885914 0.886057 0.487646 F
0.010335 0.255690 0.249987 F
0.013216 0.758201 0.249973 F
0.517466 0.265635 0.249900 F
0.509046 0.748864 0.249953 F
0.272947 0.002266 0.749986 F
0.270259 0.498225 0.749873 F
0.767893 0.998345 0.749968 F
0.768953 0.504781 0.749998 F
