Na8 Fe8 O16 F8                          
   1.00000000000000     
     7.9803189332709206    0.0073601397052178    0.0006114730909746
     0.0056777675567853    7.3148871352631177   -0.0002503210481850
     0.0005617902936400   -0.0002569761594747    7.3930533018834979
   Na   Fe   O    F 
     8     8    16     8
Direct
  0.2429993678043693  0.2525975170148007  0.2493529675241014
  0.2439461857942456  0.2541967591923292  0.7510217763329031
  0.2481802960977445  0.7496226204270808  0.2580205540997355
  0.2488444906951553  0.7498904592598465  0.7423916682318589
  0.7545794761632966  0.2574379879539711  0.2494164021508175
  0.7545245282417133  0.2574962690313754  0.7505309316616882
  0.7523814325152798  0.7435226290177099  0.2436252960885076
  0.7526860411187044  0.7431689093992581  0.7566150008587212
  0.0030891248313090  0.9997221816965776 -0.0000239158617608
 -0.0001057466158463  0.0009459049537645  0.5000359597387050
  0.0185709323187647  0.5038286367753919  0.9996115814592234
  0.9984900336063366  0.5003613247029164  0.4997072859941173
  0.4978446500860400  0.0095529113681086  0.0000949797278929
  0.5012579524778104  0.9979743443654943  0.5001268248909152
  0.4801319179340723  0.4913082858668082 -0.0000318149803195
  0.4985704521724821  0.5035152023317131  0.4998609316106735
  0.2554895376390409  0.5486716899985009  0.9996597613521557
  0.0454793167043582  0.2507347699460145  0.9999431846529796
  0.9485629471749756  0.2503342265215089  0.4998664948704974
  0.9567811065275369  0.7484429579494735  0.9999117949211034
  0.0485631662416492  0.7500505843585590  0.5000609428014144
  0.4399553524956342  0.2473061975236981  0.0000857630767881
  0.5501869343984239  0.2485859421580800  0.5000149103432292
  0.4463595476802076  0.7527522257333874  0.4999707267905899
  0.0032678844577013  0.0000024080260461  0.2508401841424230
  0.0035344232446672  0.0000859821182033  0.7491712965762443
  0.9983312847402439  0.4996778829270884  0.2503114298462785
  0.9978712511091550  0.4995508802696487  0.7492735126626975
  0.5029774815077591 -0.0000799619273264  0.2530185865590178
  0.5026266717012439 -0.0001476592614037  0.7471793950020584
  0.4990717045150086  0.4995845025390793  0.2515784205285735
  0.4993912767220079  0.4995468960560699  0.7482945988187191
  0.2559701260720230  0.9355754521635260  0.0003003318495622
  0.2493583183732244  0.0612264023836635  0.4999883296494990
  0.2484263213375922  0.4426366196790047  0.5000156936913347
  0.7486839462444353  0.0551806439477722 -0.0000718984639367
  0.7520178988143437  0.9365282874114796  0.5002623575497033
  0.7383371909662358  0.4497596318009631  0.0000880274071205
  0.7487548621768867  0.5580892332197446  0.4997989626375983
  0.5640103139141889  0.7507622611000716  0.0000807632065535
 
  0.00000000E+00  0.00000000E+00  0.00000000E+00
  0.00000000E+00  0.00000000E+00  0.00000000E+00
  0.00000000E+00  0.00000000E+00  0.00000000E+00
  0.00000000E+00  0.00000000E+00  0.00000000E+00
  0.00000000E+00  0.00000000E+00  0.00000000E+00
  0.00000000E+00  0.00000000E+00  0.00000000E+00
  0.00000000E+00  0.00000000E+00  0.00000000E+00
  0.00000000E+00  0.00000000E+00  0.00000000E+00
  0.00000000E+00  0.00000000E+00  0.00000000E+00
  0.00000000E+00  0.00000000E+00  0.00000000E+00
  0.00000000E+00  0.00000000E+00  0.00000000E+00
  0.00000000E+00  0.00000000E+00  0.00000000E+00
  0.00000000E+00  0.00000000E+00  0.00000000E+00
  0.00000000E+00  0.00000000E+00  0.00000000E+00
  0.00000000E+00  0.00000000E+00  0.00000000E+00
  0.00000000E+00  0.00000000E+00  0.00000000E+00
  0.00000000E+00  0.00000000E+00  0.00000000E+00
  0.00000000E+00  0.00000000E+00  0.00000000E+00
  0.00000000E+00  0.00000000E+00  0.00000000E+00
  0.00000000E+00  0.00000000E+00  0.00000000E+00
  0.00000000E+00  0.00000000E+00  0.00000000E+00
  0.00000000E+00  0.00000000E+00  0.00000000E+00
  0.00000000E+00  0.00000000E+00  0.00000000E+00
  0.00000000E+00  0.00000000E+00  0.00000000E+00
  0.00000000E+00  0.00000000E+00  0.00000000E+00
  0.00000000E+00  0.00000000E+00  0.00000000E+00
  0.00000000E+00  0.00000000E+00  0.00000000E+00
  0.00000000E+00  0.00000000E+00  0.00000000E+00
  0.00000000E+00  0.00000000E+00  0.00000000E+00
  0.00000000E+00  0.00000000E+00  0.00000000E+00
  0.00000000E+00  0.00000000E+00  0.00000000E+00
  0.00000000E+00  0.00000000E+00  0.00000000E+00
  0.00000000E+00  0.00000000E+00  0.00000000E+00
  0.00000000E+00  0.00000000E+00  0.00000000E+00
  0.00000000E+00  0.00000000E+00  0.00000000E+00
  0.00000000E+00  0.00000000E+00  0.00000000E+00
  0.00000000E+00  0.00000000E+00  0.00000000E+00
  0.00000000E+00  0.00000000E+00  0.00000000E+00
  0.00000000E+00  0.00000000E+00  0.00000000E+00
  0.00000000E+00  0.00000000E+00  0.00000000E+00
