Nickel fluoride                         
   1.00000000000000     
     4.6177127022511826    0.0000000119288797   -0.0000000404200554
     0.0000000116091645    4.6188931286547161   -0.0000000541577160
    -0.0000000271504985   -0.0000000346983749    3.0700830106576440
   Ni   F 
     2     4
Direct
  0.9999773505948610  0.0000988719028925  0.9999999667629353
  0.4999773100405420  0.4999011157356179  0.5000000131490907
  0.3036472062449178  0.3038825373469862  0.9999999296258864
  0.6963754542782041  0.6962361650217161  0.0000000789506274
  0.1963754692757647  0.8037638437223720  0.5000000033070293
  0.8036472095657032  0.1961174662704153  0.5000000082044238
 
  0.00000000E+00  0.00000000E+00  0.00000000E+00
  0.00000000E+00  0.00000000E+00  0.00000000E+00
  0.00000000E+00  0.00000000E+00  0.00000000E+00
  0.00000000E+00  0.00000000E+00  0.00000000E+00
  0.00000000E+00  0.00000000E+00  0.00000000E+00
  0.00000000E+00  0.00000000E+00  0.00000000E+00
