Co4 O4 F8                               
    1.000000000000000     
     4.9817466625208287   -0.0337525297680675    0.0470363969231743
     0.0112833102064964    5.2899010185077895   -0.0392679711636582
     0.1059775853043904   -0.0884016258719915    7.3848667635367393
   Co   O    F 
     4     4     8
Direct
  0.4875976285751747 -0.0062366400754942  0.0034638487977730
  0.9879674087561664  0.5010587816891826  0.0137084388022263
  0.4871774580465137 -0.0018947750343418  0.5150160542310497
  0.9781218109935931  0.5106283209850754  0.5064711129343055
  0.9039488701769486  0.5278249515319517  0.7502369378497510
  0.4285100828941953  0.9672554475177007  0.2485610421819720
  0.8035237941831197  0.8152953779610495  0.0528354636290693
  0.2022715938414114  0.2058669329943582  0.5430784725359447
  0.1145016883499516  0.4850721025961954  0.2496071893988581
  0.6177801373542776  0.0195164771374093  0.7492221896584910
  0.6709264419346976  0.3191064271671560  0.0460806875817493
  0.2983022415406767  0.6850077362228032  0.9364640777073002
  0.1833027856823973  0.1865102020782364  0.9469239983073362
  0.3181613117161469  0.6797319494235389  0.5521750703112813
  0.6930332029758314  0.2918013866611287  0.4404024329184961
  0.8248735429788988  0.8134553211440501  0.4457529831543901
 
  0.00000000E+00  0.00000000E+00  0.00000000E+00
  0.00000000E+00  0.00000000E+00  0.00000000E+00
  0.00000000E+00  0.00000000E+00  0.00000000E+00
  0.00000000E+00  0.00000000E+00  0.00000000E+00
  0.00000000E+00  0.00000000E+00  0.00000000E+00
  0.00000000E+00  0.00000000E+00  0.00000000E+00
  0.00000000E+00  0.00000000E+00  0.00000000E+00
  0.00000000E+00  0.00000000E+00  0.00000000E+00
  0.00000000E+00  0.00000000E+00  0.00000000E+00
  0.00000000E+00  0.00000000E+00  0.00000000E+00
  0.00000000E+00  0.00000000E+00  0.00000000E+00
  0.00000000E+00  0.00000000E+00  0.00000000E+00
  0.00000000E+00  0.00000000E+00  0.00000000E+00
  0.00000000E+00  0.00000000E+00  0.00000000E+00
  0.00000000E+00  0.00000000E+00  0.00000000E+00
  0.00000000E+00  0.00000000E+00  0.00000000E+00
