V4 O4 F8                                
   1.00000000000000     
     5.1331303982885563   -0.0277557017225888   -0.0208922620121949
    -0.0317479550075898    5.2883337668130759   -0.0236458667428846
    -0.0087069886948699   -0.0651459516086756    7.2950356745437306
   V    O    F 
     4     4     8
Direct
  0.5116882101039711  0.0028138628781001  0.9758194886702874
  0.9952922367796277  0.5040003671117330  0.9842532078839038
  0.4877117349255777  0.0002364293659649  0.4717617327577232
  0.9699635683136123  0.4836549276242980  0.5005459474145513
  0.9276459744108935  0.5191113583111081  0.7606946509550280
  0.5762491826597101  0.0143594774481221  0.7552875147417104
  0.4205747061576932  0.9879759245077153  0.2511260806475631
  0.7119514343726255  0.2951657156688884  0.4647869837196482
  0.0880798795170616  0.4868346748121020  0.2479975737809317
  0.6909094252413202  0.3121255852879521  0.0540746145654598
  0.3208744353489894  0.6855977923320463  0.9663800083184694
  0.1870009222547853  0.1895148830035869  0.9640045619321305
  0.8152582576806254  0.8120290904041142  0.0525945823093608
  0.2918070318231675  0.7000492339163279  0.5415048914964433
  0.8030241478180955  0.8010659642070498  0.4583170047643679
  0.2019688525922364  0.2054647131208838  0.5508511560424287
 
  0.00000000E+00  0.00000000E+00  0.00000000E+00
  0.00000000E+00  0.00000000E+00  0.00000000E+00
  0.00000000E+00  0.00000000E+00  0.00000000E+00
  0.00000000E+00  0.00000000E+00  0.00000000E+00
  0.00000000E+00  0.00000000E+00  0.00000000E+00
  0.00000000E+00  0.00000000E+00  0.00000000E+00
  0.00000000E+00  0.00000000E+00  0.00000000E+00
  0.00000000E+00  0.00000000E+00  0.00000000E+00
  0.00000000E+00  0.00000000E+00  0.00000000E+00
  0.00000000E+00  0.00000000E+00  0.00000000E+00
  0.00000000E+00  0.00000000E+00  0.00000000E+00
  0.00000000E+00  0.00000000E+00  0.00000000E+00
  0.00000000E+00  0.00000000E+00  0.00000000E+00
  0.00000000E+00  0.00000000E+00  0.00000000E+00
  0.00000000E+00  0.00000000E+00  0.00000000E+00
  0.00000000E+00  0.00000000E+00  0.00000000E+00
