Na4 Mn4 O8 F4                           
   1.00000000000000     
     5.2089384041465179    0.0000001621451401    0.0000002832757480
     0.0000003857049204    5.3433715532010080   -0.0024054821053825
     0.0000001862032817    0.0018180026692123    7.2115346979183146
   Na   Mn   O    F 
     4     4     8     4
Direct
  0.9953964557945916  0.0449298803093614  0.2538445537484975
  0.0048656193382401  0.9550954569040778  0.7537129770503511
  0.4953964357086532  0.4550701495073545  0.7461555464730893
  0.5048655840036691  0.5449045653673905  0.2462869147314546
  0.5008838094823628  0.9719048301647042  0.9977269156974872
  0.0008836161424564  0.5280950837051213  0.0022732106515684
  0.4990791033029530  0.0279466816095239  0.4978109611188957
  0.9990790054194117  0.4720534060636686  0.5021888723977976
  0.0772072858213678  0.4813005996533942  0.2510612227848609
  0.9226916064574258  0.5189424949224630  0.7510399794372915
  0.5772072202110321  0.0186995189289100  0.7489387476330752
  0.4226916101076842  0.9810574674787031  0.2489600892920327
  0.2986614276050502  0.7013824347207448  0.9539663208746709
  0.7986615761743951  0.7986174903193322  0.0460336436199768
  0.7016893454568697  0.2981200984835775  0.4538011058838917
  0.2016893940179054  0.2018797924089778  0.5461988190909974
  0.7092270192938294  0.2934889904570129  0.0385974460690730
  0.2092269177529511  0.2065111162487065  0.9614026103410386
  0.2902984831568121  0.7069627890956903  0.5387611207421266
  0.7902984847523243  0.7930371536512850  0.4612389423618089
 
  0.00000000E+00  0.00000000E+00  0.00000000E+00
  0.00000000E+00  0.00000000E+00  0.00000000E+00
  0.00000000E+00  0.00000000E+00  0.00000000E+00
  0.00000000E+00  0.00000000E+00  0.00000000E+00
  0.00000000E+00  0.00000000E+00  0.00000000E+00
  0.00000000E+00  0.00000000E+00  0.00000000E+00
  0.00000000E+00  0.00000000E+00  0.00000000E+00
  0.00000000E+00  0.00000000E+00  0.00000000E+00
  0.00000000E+00  0.00000000E+00  0.00000000E+00
  0.00000000E+00  0.00000000E+00  0.00000000E+00
  0.00000000E+00  0.00000000E+00  0.00000000E+00
  0.00000000E+00  0.00000000E+00  0.00000000E+00
  0.00000000E+00  0.00000000E+00  0.00000000E+00
  0.00000000E+00  0.00000000E+00  0.00000000E+00
  0.00000000E+00  0.00000000E+00  0.00000000E+00
  0.00000000E+00  0.00000000E+00  0.00000000E+00
  0.00000000E+00  0.00000000E+00  0.00000000E+00
  0.00000000E+00  0.00000000E+00  0.00000000E+00
  0.00000000E+00  0.00000000E+00  0.00000000E+00
  0.00000000E+00  0.00000000E+00  0.00000000E+00
