Disodium dichromate - beta              
   1.00000000000000     
     7.6299476301278828   -0.0614844911001922    0.0126748356344926
    -4.2977366139710629    9.3304267039053972    0.0010406130996111
    -3.0954348589874634   -1.2592106896703681    8.5804468074431348
   Cr   O    Na
     8    28     8
Direct
  0.8026090756550275  0.0099827813853182  0.1547762039099609
  0.1974095022036693  0.9900580093937918  0.8452188556889766
  0.2529360472776432  0.0824664543962896  0.4110191227636122
  0.7470766771184856  0.9175326233609766  0.5889829510430928
  0.8285463353759681  0.5314594891489008  0.6276043926531045
  0.1714524906380390  0.4685124509866441  0.3723916963489700
  0.2322622569877524  0.5548936624547878  0.9128310736155072
  0.7677430396199796  0.4451270631739490  0.0871673227249374
  0.6125721114796931  0.0275780084155670  0.1777370018175120
  0.3874394666029914  0.9724348194653700  0.8222787486357674
  0.7522732842090960  0.8412476431644436  0.1231146131664147
  0.2477793943852689  0.1587977201551141  0.8768974578899460
  0.8663813823205615  0.0939034073619709  0.0162521173754158
  0.1335924510023290  0.9061229267611921  0.9837218792004663
  0.3678217639304791  0.1642188691949968  0.5878593093607734
  0.6322251737101752  0.8357894319676333  0.4121440878782678
  0.3947769147803868  0.1573939939347113  0.3075713166683443
  0.6052410886264852  0.8425508492204017  0.6924241561957558
  0.2092538488172977  0.9134110043135379  0.4073381674406491
  0.7906610999211949  0.0865580673621622  0.5926631678451315
  0.0176526366192107  0.0947188493342139  0.3307484712092688
  0.9824009658478019  0.9053333875041858  0.6692314859930732
  0.6672421141921347  0.5588893884611963  0.6854382401081907
  0.3326957270841362  0.4409712822662257  0.3145629967948622
  0.7637661527012938  0.3604892675257432  0.5985206723903786
  0.2363447337599780  0.6395007479606036  0.4014689696566194
  0.8484861346095087  0.6046929770941887  0.4734247293084124
  0.1514539222508944  0.3953306165012833  0.5265761923200927
  0.3190898400496280  0.6509304016135218  0.0803115438325861
  0.6809002331485843  0.3490462767032341  0.9197132595914326
  0.4253889636641546  0.5709070850019557  0.8646631984655926
  0.5746671395290974  0.4291880023850254  0.1353242367386045
  0.0956268221895229  0.3861908758268910  0.9199224061582498
  0.9044663300475406  0.6138171489073585  0.0800364880222375
  0.0813457293386364  0.6207891445857854  0.7712195889421594
  0.9186512956356339  0.3792227806072219  0.2287983335400341
  0.3837434086064704  0.3556627494756768  0.7355044628610372
  0.6160142435752363  0.6442719631274016  0.2645253846312912
  0.7564630808269044  0.2243919008109003  0.3933724731084212
  0.2435299641250666  0.7756045454117455  0.6066304334617953
  0.2921043336874760  0.8244666003317462  0.2139665670106581
  0.7078953405589985  0.1755404803233063  0.7860215483670316
  0.7638595149507879  0.7413850576341616  0.8999914602946859
  0.2361580373387824  0.2586191989886544  0.1000333259706494
 
  0.00000000E+00  0.00000000E+00  0.00000000E+00
  0.00000000E+00  0.00000000E+00  0.00000000E+00
  0.00000000E+00  0.00000000E+00  0.00000000E+00
  0.00000000E+00  0.00000000E+00  0.00000000E+00
  0.00000000E+00  0.00000000E+00  0.00000000E+00
  0.00000000E+00  0.00000000E+00  0.00000000E+00
  0.00000000E+00  0.00000000E+00  0.00000000E+00
  0.00000000E+00  0.00000000E+00  0.00000000E+00
  0.00000000E+00  0.00000000E+00  0.00000000E+00
  0.00000000E+00  0.00000000E+00  0.00000000E+00
  0.00000000E+00  0.00000000E+00  0.00000000E+00
  0.00000000E+00  0.00000000E+00  0.00000000E+00
  0.00000000E+00  0.00000000E+00  0.00000000E+00
  0.00000000E+00  0.00000000E+00  0.00000000E+00
  0.00000000E+00  0.00000000E+00  0.00000000E+00
  0.00000000E+00  0.00000000E+00  0.00000000E+00
  0.00000000E+00  0.00000000E+00  0.00000000E+00
  0.00000000E+00  0.00000000E+00  0.00000000E+00
  0.00000000E+00  0.00000000E+00  0.00000000E+00
  0.00000000E+00  0.00000000E+00  0.00000000E+00
  0.00000000E+00  0.00000000E+00  0.00000000E+00
  0.00000000E+00  0.00000000E+00  0.00000000E+00
  0.00000000E+00  0.00000000E+00  0.00000000E+00
  0.00000000E+00  0.00000000E+00  0.00000000E+00
  0.00000000E+00  0.00000000E+00  0.00000000E+00
  0.00000000E+00  0.00000000E+00  0.00000000E+00
  0.00000000E+00  0.00000000E+00  0.00000000E+00
  0.00000000E+00  0.00000000E+00  0.00000000E+00
  0.00000000E+00  0.00000000E+00  0.00000000E+00
  0.00000000E+00  0.00000000E+00  0.00000000E+00
  0.00000000E+00  0.00000000E+00  0.00000000E+00
  0.00000000E+00  0.00000000E+00  0.00000000E+00
  0.00000000E+00  0.00000000E+00  0.00000000E+00
  0.00000000E+00  0.00000000E+00  0.00000000E+00
  0.00000000E+00  0.00000000E+00  0.00000000E+00
  0.00000000E+00  0.00000000E+00  0.00000000E+00
  0.00000000E+00  0.00000000E+00  0.00000000E+00
  0.00000000E+00  0.00000000E+00  0.00000000E+00
  0.00000000E+00  0.00000000E+00  0.00000000E+00
  0.00000000E+00  0.00000000E+00  0.00000000E+00
  0.00000000E+00  0.00000000E+00  0.00000000E+00
  0.00000000E+00  0.00000000E+00  0.00000000E+00
  0.00000000E+00  0.00000000E+00  0.00000000E+00
  0.00000000E+00  0.00000000E+00  0.00000000E+00
