Cr4 O4 F8                               
   1.00000000000000     
     4.9452442559333454   -0.0045200517346355   -0.0440643475123634
    -0.0032927710565856    5.1502418125224194   -0.0198444924177964
     0.0688694341387164   -0.0027886242384857    7.0874365103819086
   Cr   O    F 
     4     4     8
Direct
  0.5105315056337665  0.0185355895074541  0.0266979459076443
 -0.0011771244220800  0.4965370672574749  0.9938613147067317
  0.5000105997746689 -0.0021036743401811  0.4956878305457794
  0.9728621719392629  0.5318638653272003  0.5139604185506310
  0.6927848962172100  0.2912016197702922  0.0421684437391958
  0.8108434483901676  0.8005231059509080  0.4431883034716160
  0.8907893130047553  0.5145591971285888  0.7444364785486534
  0.3952314974457176  0.9586795953284518  0.2428328286961078
  0.3179002534788187  0.6975436860955683  0.9433010157277268
  0.1978697870469999  0.1912931639615292  0.9430056590550647
  0.8224989938126888  0.8121044981757607  0.0593493970181531
  0.3061559517748246  0.6922916382772035  0.5621501519352894
  0.6807726396472789  0.3126581534459810  0.4374436695940937
  0.1862423655540451  0.1990853977358515  0.5471932836036049
  0.1083500030475269  0.4723700001483823  0.2531442468949085
  0.6083336976543338  0.0128570962295342  0.7515790120047992
 
  0.00000000E+00  0.00000000E+00  0.00000000E+00
  0.00000000E+00  0.00000000E+00  0.00000000E+00
  0.00000000E+00  0.00000000E+00  0.00000000E+00
  0.00000000E+00  0.00000000E+00  0.00000000E+00
  0.00000000E+00  0.00000000E+00  0.00000000E+00
  0.00000000E+00  0.00000000E+00  0.00000000E+00
  0.00000000E+00  0.00000000E+00  0.00000000E+00
  0.00000000E+00  0.00000000E+00  0.00000000E+00
  0.00000000E+00  0.00000000E+00  0.00000000E+00
  0.00000000E+00  0.00000000E+00  0.00000000E+00
  0.00000000E+00  0.00000000E+00  0.00000000E+00
  0.00000000E+00  0.00000000E+00  0.00000000E+00
  0.00000000E+00  0.00000000E+00  0.00000000E+00
  0.00000000E+00  0.00000000E+00  0.00000000E+00
  0.00000000E+00  0.00000000E+00  0.00000000E+00
  0.00000000E+00  0.00000000E+00  0.00000000E+00
