Cr4 O4 F8                               
   1.00000000000000     
     4.9142181343131064    0.0610114774657788    0.0010484899155571
     0.0595165408623149    5.1788295530117914   -0.0019467040260296
    -0.0019191898783400    0.0031124491001159    7.2259497158710024
   Cr   O    F 
     4     4     8
Direct
  0.4574042581127679  0.0192192180166211  0.0262529793661083
  0.9956441649872392  0.5003481626852785  0.9957712915092241
  0.5426572130290146  0.9808603395658066  0.5261842208751619
  0.0044111186732322  0.4996940580184280  0.4957559070018783
  0.2006030556474153  0.2006284517145917  0.9405129779402255
  0.7994847831678411  0.7994860816054630  0.4404299010437941
  0.5972280962190620  0.0252487776115738  0.7437913317018578
  0.4025779862269064  0.9746346389678323  0.2437817448535994
  0.6769781104223084  0.3138797820547815  0.0622950272136345
  0.3039021721242178  0.7059934059509518  0.9446743471632502
  0.8024417012518914  0.8190639940284052  0.0413610099931036
  0.3232093773569854  0.6858658549540048  0.5622096343603944
  0.6959088532893436  0.2941190291798910  0.4446646019839149
  0.1974042531871143  0.1808712949803307  0.5413136209146633
  0.1222570362597151  0.4799965787464315  0.2455040955200517
  0.8778878200449591  0.5200903319195944  0.7454973085591237
 
  0.00000000E+00  0.00000000E+00  0.00000000E+00
  0.00000000E+00  0.00000000E+00  0.00000000E+00
  0.00000000E+00  0.00000000E+00  0.00000000E+00
  0.00000000E+00  0.00000000E+00  0.00000000E+00
  0.00000000E+00  0.00000000E+00  0.00000000E+00
  0.00000000E+00  0.00000000E+00  0.00000000E+00
  0.00000000E+00  0.00000000E+00  0.00000000E+00
  0.00000000E+00  0.00000000E+00  0.00000000E+00
  0.00000000E+00  0.00000000E+00  0.00000000E+00
  0.00000000E+00  0.00000000E+00  0.00000000E+00
  0.00000000E+00  0.00000000E+00  0.00000000E+00
  0.00000000E+00  0.00000000E+00  0.00000000E+00
  0.00000000E+00  0.00000000E+00  0.00000000E+00
  0.00000000E+00  0.00000000E+00  0.00000000E+00
  0.00000000E+00  0.00000000E+00  0.00000000E+00
  0.00000000E+00  0.00000000E+00  0.00000000E+00
