Tetrasodium dodecairon(III) oxide       
   1.00000000000000     
    10.3549806818304084   -0.0000000105063299    0.0000000019328924
    -0.0000000026627062   12.3684908222558843   -0.0000001612764175
     0.0000000063243735   -0.0000000432123158    3.0319303479344435
   Fe   Na   O 
    12     4    20
Direct
  0.2175469702051203  0.1149951495858730  0.4999999677909841
  0.7824072234189927  0.8851734034079328  0.5000000344264777
  0.2824072226577883  0.6148265965886850  0.0000000605353279
  0.7175469701380734  0.3850048496109153  0.9999999246554694
  0.2351730347382954  0.3616384672047914  0.9999999880839354
  0.7648842658186226  0.6385029886187752  0.0000000040591672
  0.2648842664292630  0.8614970103063087  0.5000000433805312
  0.7351730347437027  0.1383615300527836  0.4999999555694430
  0.0002877024379515  0.9996173777829753  0.0000000239527722
  0.5002877000529224  0.5003826219533920  0.5000000772531834
  0.4999390642212660  0.0000026225587249  0.9999999931126240
  0.9999390665924466  0.4999973761933560  0.4999999915996511
  0.9751099871389073  0.2605283019180291  0.4999998637610759
  0.0248693229967856  0.7394362363677089  0.5000001196597665
  0.5248693233174038  0.7605637620789238  0.0000000664959288
  0.4751099900607230  0.2394717002358462  0.9999999227619156
  0.0880930799613751  0.1434513495448826  0.0000000062891061
  0.9118394560156773  0.8562567714862936  0.9999999883556043
  0.4118394553191749  0.6437432311179236  0.5000000152912776
  0.5880930788757581  0.3565486529732809  0.4999999800894273
  0.0613102632593083  0.3990318929972148  0.9999999620031446
  0.9386440491495662  0.6009836829342134  0.0000000304161389
  0.4386440497727833  0.8990163177538761  0.5000000323553735
  0.5613102613203793  0.1009681074373532  0.4999999604432617
  0.3312745436535209  0.0744898919712398  0.9999999946079967
  0.6686511757487210  0.9254666498563893  0.9999999992333883
  0.1686511729128739  0.5745333528657142  0.5000000328340590
  0.8312745412347695  0.4255101096605998  0.4999999581395471
  0.2763656992256500  0.2750080757454114  0.4999999896459926
  0.7235006744138630  0.7250126282186642  0.5000000042373998
  0.2235006735522447  0.7749873721018687  0.0000000155315689
  0.7763656957560343  0.2249919225652732  0.9999999776331521
  0.3743625293768815  0.4627357168493020  0.9999999898738565
  0.6257409763991788  0.5374782920851473  0.0000000248723637
  0.1257409793015398  0.9625217093934992  0.4999999956682473
  0.8743625337824383  0.0372642849768425  0.5000000053808265
 
  0.00000000E+00  0.00000000E+00  0.00000000E+00
  0.00000000E+00  0.00000000E+00  0.00000000E+00
  0.00000000E+00  0.00000000E+00  0.00000000E+00
  0.00000000E+00  0.00000000E+00  0.00000000E+00
  0.00000000E+00  0.00000000E+00  0.00000000E+00
  0.00000000E+00  0.00000000E+00  0.00000000E+00
  0.00000000E+00  0.00000000E+00  0.00000000E+00
  0.00000000E+00  0.00000000E+00  0.00000000E+00
  0.00000000E+00  0.00000000E+00  0.00000000E+00
  0.00000000E+00  0.00000000E+00  0.00000000E+00
  0.00000000E+00  0.00000000E+00  0.00000000E+00
  0.00000000E+00  0.00000000E+00  0.00000000E+00
  0.00000000E+00  0.00000000E+00  0.00000000E+00
  0.00000000E+00  0.00000000E+00  0.00000000E+00
  0.00000000E+00  0.00000000E+00  0.00000000E+00
  0.00000000E+00  0.00000000E+00  0.00000000E+00
  0.00000000E+00  0.00000000E+00  0.00000000E+00
  0.00000000E+00  0.00000000E+00  0.00000000E+00
  0.00000000E+00  0.00000000E+00  0.00000000E+00
  0.00000000E+00  0.00000000E+00  0.00000000E+00
  0.00000000E+00  0.00000000E+00  0.00000000E+00
  0.00000000E+00  0.00000000E+00  0.00000000E+00
  0.00000000E+00  0.00000000E+00  0.00000000E+00
  0.00000000E+00  0.00000000E+00  0.00000000E+00
  0.00000000E+00  0.00000000E+00  0.00000000E+00
  0.00000000E+00  0.00000000E+00  0.00000000E+00
  0.00000000E+00  0.00000000E+00  0.00000000E+00
  0.00000000E+00  0.00000000E+00  0.00000000E+00
  0.00000000E+00  0.00000000E+00  0.00000000E+00
  0.00000000E+00  0.00000000E+00  0.00000000E+00
  0.00000000E+00  0.00000000E+00  0.00000000E+00
  0.00000000E+00  0.00000000E+00  0.00000000E+00
  0.00000000E+00  0.00000000E+00  0.00000000E+00
  0.00000000E+00  0.00000000E+00  0.00000000E+00
  0.00000000E+00  0.00000000E+00  0.00000000E+00
  0.00000000E+00  0.00000000E+00  0.00000000E+00
