Na2 Ni2 O4 F2                           
   1.00000000000000     
     3.8148341160580017    0.0000841119522395   -0.0027351796090885
     0.0000867657070337    3.8115951466723219   -0.0000358377708977
    -0.0102428431453237    0.0000391641101780    7.3921209278485920
   Na   Ni   O    F 
     2     2     4     2
Direct
  0.9974993632754112 -0.0000091376732496  0.0058975776383521
  0.9988457161254102  0.9999567386400227  0.5028239657411451
  0.5002817255409026  0.4999804167164666  0.2578619438664398
  0.5001183510688398  0.5000441127782456  0.7579208479763652
  0.4999390133494374  0.5000078207518452  0.0073651846391670
  0.5003527419907282  0.4999812148135597  0.5073555190815973
  0.5006138989616061  0.0000245894513937  0.7370959468614496
  0.0002390944477144  0.5000049996271820  0.2370658833435475
  0.5017350840603112 -0.0000078458986573  0.2649454127857964
  0.0003750111796386  0.5000170907931912  0.7646677180661390
 
  0.00000000E+00  0.00000000E+00  0.00000000E+00
  0.00000000E+00  0.00000000E+00  0.00000000E+00
  0.00000000E+00  0.00000000E+00  0.00000000E+00
  0.00000000E+00  0.00000000E+00  0.00000000E+00
  0.00000000E+00  0.00000000E+00  0.00000000E+00
  0.00000000E+00  0.00000000E+00  0.00000000E+00
  0.00000000E+00  0.00000000E+00  0.00000000E+00
  0.00000000E+00  0.00000000E+00  0.00000000E+00
  0.00000000E+00  0.00000000E+00  0.00000000E+00
  0.00000000E+00  0.00000000E+00  0.00000000E+00
