Na2 Fe2 O4 F2                           
   1.00000000000000     
    -2.7339773522263928   -4.4952150961953974    0.1045397875957368
    -5.4647447249787051   -0.0014491149113556    0.0017005240083231
    -2.7315246037950263   -1.3950578907873854   -4.2649229273034690
   Na   Fe   O    F 
     2     2     4     2
Direct
  0.2485374105334511  0.2621931044208742  0.2379188612536050
  0.7484141099393650  0.7525200373370122  0.7375961127580457
  0.9969962729633635  0.9829248946385860  0.9856324932622312
  0.4970099992323760  0.5337881506242758  0.4850255726627096
  0.2602758592233081  0.6849824677649641  0.2346482586796310
  0.6932771364208912  0.8167224558437428  0.2265408982626214
  0.1934676881134241  0.7634747140677128  0.7264133876848755
  0.7604743298594514  0.3197256584037992  0.7349348069225958
  0.3237272293641753  0.1880018854982536  0.7466696926398743
  0.8238199643502083  0.2416666314007791  0.2466199158738055
 
  0.00000000E+00  0.00000000E+00  0.00000000E+00
  0.00000000E+00  0.00000000E+00  0.00000000E+00
  0.00000000E+00  0.00000000E+00  0.00000000E+00
  0.00000000E+00  0.00000000E+00  0.00000000E+00
  0.00000000E+00  0.00000000E+00  0.00000000E+00
  0.00000000E+00  0.00000000E+00  0.00000000E+00
  0.00000000E+00  0.00000000E+00  0.00000000E+00
  0.00000000E+00  0.00000000E+00  0.00000000E+00
  0.00000000E+00  0.00000000E+00  0.00000000E+00
  0.00000000E+00  0.00000000E+00  0.00000000E+00
