Na8 Fe8 O16 F8                          
   1.00000000000000     
     7.9647402513917651   -0.0000013506438452    0.0000190448630176
    -0.0000006018237095    7.5213920896308295    0.0000010022866826
     0.0000175892735301    0.0000009330066140    7.3584636545463962
   Na   Fe   O    F 
     8     8    16     8
Direct
  0.2473700709575728  0.2499999186337576  0.2433620185858116
  0.2473688808232549  0.2499998885837174  0.7566413038390917
  0.2526360507148525  0.7499998841768722  0.2433513772122218
  0.2526348403720640  0.7499997940790214  0.7566456140905583
  0.7525255276189770  0.2499983313489808  0.2580717920675634
  0.7525250401745994  0.2499981609129386  0.7419285084256105
  0.7474734561646187  0.7499989037167892  0.2580752478093351
  0.7474730924998898  0.7499988101232014  0.7419244971455521
  0.9836848281680074  0.9886317965928830  0.0000024333169546
  0.0007437708413763  0.0027245121998089  0.5000022629119941
  0.9836801474411613  0.5113679898296526  0.0000028836646669
  0.0007489629333458  0.4972742004285404  0.5000021570000605
  0.5163184022330598  0.0113692878350445  0.9999966211486782
  0.4992471325771433  0.9972746259844025  0.4999972846436873
  0.5163141374133381  0.4886299464856570  0.9999975126168773
  0.4992526715955826  0.5027238898332823  0.4999983153712251
  0.7500223686385841  0.0000260019850459  0.9999998032412383
  0.7499753526949379  0.4999962192000917  0.9999999006154155
  0.9987763933599803  0.2500395720571360  0.5000026331198911
  0.9985413528387304  0.7500065925528920  0.0000026341940449
  0.9996531204240641  0.7499546931691575  0.5000015766631853
  0.5014365561737438  0.2500073114385500  0.9999980875789787
  0.5003293201786723  0.2499534851373575  0.4999978584974094
  0.5012474392237494  0.7500402583760557  0.4999980970700935
  0.0013604078053662  0.9995080960932499  0.2503467675382306
  0.0013611535805968  0.9995077790779054  0.7496568083310682
  0.0013675288053079  0.5004873522368901  0.2504031005394287
  0.0013696118799394  0.5004901238956948  0.7496009216788087
  0.4986298642509786  0.0004875396866620  0.2504027313874025
  0.4986304952999780  0.0004882726439414  0.7495931074911169
  0.4986376720337060  0.4995077122314713  0.2503453333924072
  0.4986381584998462  0.4995079518386024  0.7496511879031433
  0.2499924551441283  0.9999916025123857  0.9999998457067742
  0.2499676208619871  0.9999865225298319  0.4999997460118353
  0.2500169995237674  0.5000081503116947  0.0000005414819029
  0.2500284999214389  0.5000108905505348  0.4999998542521172
  0.7500237438105954  0.0000106522957651  0.4999998308667780
  0.7499738302686717  0.4999867535843480  0.5000004973799324
  0.0136707962864313  0.2500037182604876  0.0000016058143511
  0.4863522459659481  0.7500028075696850  0.9999976993945506
 
  0.00000000E+00  0.00000000E+00  0.00000000E+00
  0.00000000E+00  0.00000000E+00  0.00000000E+00
  0.00000000E+00  0.00000000E+00  0.00000000E+00
  0.00000000E+00  0.00000000E+00  0.00000000E+00
  0.00000000E+00  0.00000000E+00  0.00000000E+00
  0.00000000E+00  0.00000000E+00  0.00000000E+00
  0.00000000E+00  0.00000000E+00  0.00000000E+00
  0.00000000E+00  0.00000000E+00  0.00000000E+00
  0.00000000E+00  0.00000000E+00  0.00000000E+00
  0.00000000E+00  0.00000000E+00  0.00000000E+00
  0.00000000E+00  0.00000000E+00  0.00000000E+00
  0.00000000E+00  0.00000000E+00  0.00000000E+00
  0.00000000E+00  0.00000000E+00  0.00000000E+00
  0.00000000E+00  0.00000000E+00  0.00000000E+00
  0.00000000E+00  0.00000000E+00  0.00000000E+00
  0.00000000E+00  0.00000000E+00  0.00000000E+00
  0.00000000E+00  0.00000000E+00  0.00000000E+00
  0.00000000E+00  0.00000000E+00  0.00000000E+00
  0.00000000E+00  0.00000000E+00  0.00000000E+00
  0.00000000E+00  0.00000000E+00  0.00000000E+00
  0.00000000E+00  0.00000000E+00  0.00000000E+00
  0.00000000E+00  0.00000000E+00  0.00000000E+00
  0.00000000E+00  0.00000000E+00  0.00000000E+00
  0.00000000E+00  0.00000000E+00  0.00000000E+00
  0.00000000E+00  0.00000000E+00  0.00000000E+00
  0.00000000E+00  0.00000000E+00  0.00000000E+00
  0.00000000E+00  0.00000000E+00  0.00000000E+00
  0.00000000E+00  0.00000000E+00  0.00000000E+00
  0.00000000E+00  0.00000000E+00  0.00000000E+00
  0.00000000E+00  0.00000000E+00  0.00000000E+00
  0.00000000E+00  0.00000000E+00  0.00000000E+00
  0.00000000E+00  0.00000000E+00  0.00000000E+00
  0.00000000E+00  0.00000000E+00  0.00000000E+00
  0.00000000E+00  0.00000000E+00  0.00000000E+00
  0.00000000E+00  0.00000000E+00  0.00000000E+00
  0.00000000E+00  0.00000000E+00  0.00000000E+00
  0.00000000E+00  0.00000000E+00  0.00000000E+00
  0.00000000E+00  0.00000000E+00  0.00000000E+00
  0.00000000E+00  0.00000000E+00  0.00000000E+00
  0.00000000E+00  0.00000000E+00  0.00000000E+00
