Na4 Fe4 O8 F4                           
   1.00000000000000     
     5.1180523764284205    0.0000059523894987    0.0000080570085134
     0.0000057003286122    5.1522997089518761    0.0045585280542573
     0.0000149289891206   -0.0063779004124085    8.1131779184842188
   Na   Fe   O    F 
     4     4     8     4
Direct
  0.9774524027256283  0.0316131486979182  0.2499871818809151
  0.0226948786090865  0.9685246288520072  0.7500553420625927
  0.4774699073271447  0.4683861529565120  0.7500095006865067
  0.5226900918824620  0.5314882175509414  0.2499543193136869
  0.4998135901428579  0.9998625592767206  0.0000386733027502
  0.9998174909894596  0.5001375089566741 -0.0000392673482754
  0.4999069331313500  0.9998939572907332  0.4999495878737283
  0.9999104758962400  0.5001011934773868  0.5000501405550892
  0.7275284803026091  0.2718525518737704  0.0415673661256479
  0.2725197208266191  0.7280084481656559  0.9583430535537513
  0.2275272120564802  0.2281468569764738  0.9584332169871314
  0.7725205278609240  0.7719905617825333  0.0416531176169694
  0.2727278794675677  0.7277885393602068  0.5416824580893163
  0.7272964268607423  0.2721310070518917  0.4583975882854254
  0.7727292053563861  0.7722078780716738  0.4583179479843598
  0.2272949352317456  0.2278665076708702  0.5416017957815706
  0.0896481122017021  0.4851088208135032  0.2499962928240269
  0.9104052626425998  0.5149239220788260  0.7500096136277553
  0.5896381200417002  0.0148966735284765  0.7500022299530100
  0.4104083464466949  0.9850708655672392  0.2499898408440421
 
  0.00000000E+00  0.00000000E+00  0.00000000E+00
  0.00000000E+00  0.00000000E+00  0.00000000E+00
  0.00000000E+00  0.00000000E+00  0.00000000E+00
  0.00000000E+00  0.00000000E+00  0.00000000E+00
  0.00000000E+00  0.00000000E+00  0.00000000E+00
  0.00000000E+00  0.00000000E+00  0.00000000E+00
  0.00000000E+00  0.00000000E+00  0.00000000E+00
  0.00000000E+00  0.00000000E+00  0.00000000E+00
  0.00000000E+00  0.00000000E+00  0.00000000E+00
  0.00000000E+00  0.00000000E+00  0.00000000E+00
  0.00000000E+00  0.00000000E+00  0.00000000E+00
  0.00000000E+00  0.00000000E+00  0.00000000E+00
  0.00000000E+00  0.00000000E+00  0.00000000E+00
  0.00000000E+00  0.00000000E+00  0.00000000E+00
  0.00000000E+00  0.00000000E+00  0.00000000E+00
  0.00000000E+00  0.00000000E+00  0.00000000E+00
  0.00000000E+00  0.00000000E+00  0.00000000E+00
  0.00000000E+00  0.00000000E+00  0.00000000E+00
  0.00000000E+00  0.00000000E+00  0.00000000E+00
  0.00000000E+00  0.00000000E+00  0.00000000E+00
