Sodium tetraoxocobaltate                
   1.00000000000000     
    10.2118568650708834   -0.0000000171908426    0.0000011899923035
     0.0000000049966089    5.8953922281231419    0.0000001108845223
     0.0000021057662661    0.0000002066002956   17.7123479139910245
   Na   Co   O 
    40     8    32
Direct
  0.1738972545479029  0.1020179259449066  0.8283601080750955
  0.8261060325880720  0.8979642365444533  0.1716309302764145
  0.3261061075826390  0.8979645603106903  0.3283688969145615
  0.6738971923073933  0.1020175437106872  0.6716400850310578
  0.8261060692566176  0.6020355804016830  0.6716310375310783
  0.1738972276183759  0.3979822921034568  0.3283599732093379
  0.6738972232267315  0.3979822213631934  0.1716399497721923
  0.3261060800576558  0.6020356143916601  0.8283690100474743
  0.0640737297114455  0.0783653364240422  0.4349834736318385
  0.9359387794573024  0.9216316474965609  0.5650179835721829
  0.4359387868594240  0.9216316930124577  0.9349820521530958
  0.5640737293513780  0.0783653102374089  0.0650164964156161
  0.9359387459547577  0.5783681854800804  0.0650179424377555
  0.0640737173881334  0.4216346991208084  0.9349834962643016
  0.5640737572128955  0.4216345669496420  0.5650165339122921
  0.4359387634958836  0.5783683922520240  0.4349820281955488
  0.4214599238333108  0.1015758515114626  0.7516035453953478
  0.5784253019088368  0.8983703263587657  0.2484044592108390
  0.0784252190543171  0.8983706007848440  0.2515954573926322
  0.9214602540958552  0.1015755269609642  0.7483965962774874
  0.5784248950005946  0.6016291773074940  0.7484046514075473
  0.4214609265801670  0.3984246713514565  0.2516032689165186
  0.9214593474797965  0.3984240969169690  0.2483963680817638
  0.0784257433215600  0.6016300320912649  0.7515956965519734
  0.3402699820649460  0.0821103188767935  0.5019609862074645
  0.6597506789866614  0.9178879296509876  0.4980351380310069
  0.1597506708412695  0.9178879100371304  0.0019648507242351
  0.8402699999909231  0.0821103168481869  0.9980390297602852
  0.6597506748291266  0.5821120759869132  0.9980351543142021
  0.3402699862894849  0.4178896458693799  0.0019609656662212
  0.8402699722467943  0.4178896797368594  0.4980389993401673
  0.1597506583835155  0.5821120475296482  0.5019648619832964
  0.3003430914345273  0.0828606111713057  0.1398908849512992
  0.6996520850410093  0.9171301450018419  0.8600923811782764
  0.1996520714707160  0.9171301384243478  0.6399076909004648
  0.8003431214293428  0.0828606221678427  0.3601090408964751
  0.6996520765362604  0.5828698852692398  0.3600922528656412
  0.3003431152533409  0.4171393697779138  0.6398909482888584
  0.8003431146349769  0.4171394037609701  0.8601091308115514
  0.1996520914946984  0.5828698389610736  0.1399076113119264
  0.0398445211534764  0.1761611941925665  0.1230193454091832
  0.9601383733097890  0.8239246249757812  0.8769906175772917
  0.4601383871357072  0.8239245997761415  0.6230094114754010
  0.5398445256620974  0.1761612353482747  0.3769806562648839
  0.9601383469431113  0.6760752577698241  0.3769905389231170
  0.0398445389493958  0.3238388609917138  0.6230194177828494
  0.5398445123889886  0.3238387166452554  0.8769807272198520
  0.4601384005910916  0.6760754898484933  0.1230093193587720
  0.3622818232612559  0.2582647656805719  0.3753101085170556
  0.6377635261986185  0.7417797889012760  0.6246871272662560
  0.1377635730306039  0.7417798095657133  0.8753129430582121
  0.8622817580660609  0.2582647287095554  0.1246898306238009
  0.6377635335944944  0.7582201648165920  0.1246870733026313
  0.3622817977380564  0.2417352573384974  0.8753101797461653
  0.8622817807364953  0.2417352221970788  0.6246898860463048
  0.1377635651243097  0.7582202067993720  0.3753128720178793
  0.1291384253835588  0.2684254241826380  0.2111944040108256
  0.8708378156821013  0.7315485536937061  0.7888010024943242
  0.3708377205837081  0.7315485427454078  0.7111990714866252
  0.6291386264284355  0.2684254067464948  0.2888055350863468
  0.8708377268109118  0.7684514629418970  0.2888008992862652
  0.1291385738732984  0.2315746038852566  0.7111944931537408
  0.6291384791005470  0.2315745911563596  0.7888056338547003
  0.3708378113671884  0.7684514577362194  0.2111989716891784
  0.1360318473686277  0.1897537494488830  0.5470170697841752
  0.8640467685255686  0.8102957694988859  0.4529800484557924
  0.3640466935849744  0.8102958652523355  0.0470198911367561
  0.6360319143558613  0.1897536786517549  0.9529829800949017
  0.8640467214986529  0.6897041468568474  0.9529801046746869
  0.1360318899512123  0.3102462972070086  0.0470170328661084
  0.6360318608859146  0.3102462607250871  0.4529829245476833
  0.3640467255093682  0.6897042119082784  0.5470199322860410
  0.4576675470124059  0.1383352211074822  0.6201860836131559
  0.5423322468172458  0.8616537115777234  0.3798556806474096
  0.0423322928025129  0.8616537067504879  0.1201442078088206
  0.9576675126293281  0.1383351899060514  0.8798140253401030
  0.5423322793788046  0.6383462452412445  0.8798558115061610
  0.4576675352338739  0.3616648188231224  0.1201859553202311
  0.9576675337908327  0.3616647703991163  0.3798138962588382
  0.0423322667228589  0.6383463199036257  0.6201443381021576
 
  0.00000000E+00  0.00000000E+00  0.00000000E+00
  0.00000000E+00  0.00000000E+00  0.00000000E+00
  0.00000000E+00  0.00000000E+00  0.00000000E+00
  0.00000000E+00  0.00000000E+00  0.00000000E+00
  0.00000000E+00  0.00000000E+00  0.00000000E+00
  0.00000000E+00  0.00000000E+00  0.00000000E+00
  0.00000000E+00  0.00000000E+00  0.00000000E+00
  0.00000000E+00  0.00000000E+00  0.00000000E+00
  0.00000000E+00  0.00000000E+00  0.00000000E+00
  0.00000000E+00  0.00000000E+00  0.00000000E+00
  0.00000000E+00  0.00000000E+00  0.00000000E+00
  0.00000000E+00  0.00000000E+00  0.00000000E+00
  0.00000000E+00  0.00000000E+00  0.00000000E+00
  0.00000000E+00  0.00000000E+00  0.00000000E+00
  0.00000000E+00  0.00000000E+00  0.00000000E+00
  0.00000000E+00  0.00000000E+00  0.00000000E+00
  0.00000000E+00  0.00000000E+00  0.00000000E+00
  0.00000000E+00  0.00000000E+00  0.00000000E+00
  0.00000000E+00  0.00000000E+00  0.00000000E+00
  0.00000000E+00  0.00000000E+00  0.00000000E+00
  0.00000000E+00  0.00000000E+00  0.00000000E+00
  0.00000000E+00  0.00000000E+00  0.00000000E+00
  0.00000000E+00  0.00000000E+00  0.00000000E+00
  0.00000000E+00  0.00000000E+00  0.00000000E+00
  0.00000000E+00  0.00000000E+00  0.00000000E+00
  0.00000000E+00  0.00000000E+00  0.00000000E+00
  0.00000000E+00  0.00000000E+00  0.00000000E+00
  0.00000000E+00  0.00000000E+00  0.00000000E+00
  0.00000000E+00  0.00000000E+00  0.00000000E+00
  0.00000000E+00  0.00000000E+00  0.00000000E+00
  0.00000000E+00  0.00000000E+00  0.00000000E+00
  0.00000000E+00  0.00000000E+00  0.00000000E+00
  0.00000000E+00  0.00000000E+00  0.00000000E+00
  0.00000000E+00  0.00000000E+00  0.00000000E+00
  0.00000000E+00  0.00000000E+00  0.00000000E+00
  0.00000000E+00  0.00000000E+00  0.00000000E+00
  0.00000000E+00  0.00000000E+00  0.00000000E+00
  0.00000000E+00  0.00000000E+00  0.00000000E+00
  0.00000000E+00  0.00000000E+00  0.00000000E+00
  0.00000000E+00  0.00000000E+00  0.00000000E+00
  0.00000000E+00  0.00000000E+00  0.00000000E+00
  0.00000000E+00  0.00000000E+00  0.00000000E+00
  0.00000000E+00  0.00000000E+00  0.00000000E+00
  0.00000000E+00  0.00000000E+00  0.00000000E+00
  0.00000000E+00  0.00000000E+00  0.00000000E+00
  0.00000000E+00  0.00000000E+00  0.00000000E+00
  0.00000000E+00  0.00000000E+00  0.00000000E+00
  0.00000000E+00  0.00000000E+00  0.00000000E+00
  0.00000000E+00  0.00000000E+00  0.00000000E+00
  0.00000000E+00  0.00000000E+00  0.00000000E+00
  0.00000000E+00  0.00000000E+00  0.00000000E+00
  0.00000000E+00  0.00000000E+00  0.00000000E+00
  0.00000000E+00  0.00000000E+00  0.00000000E+00
  0.00000000E+00  0.00000000E+00  0.00000000E+00
  0.00000000E+00  0.00000000E+00  0.00000000E+00
  0.00000000E+00  0.00000000E+00  0.00000000E+00
  0.00000000E+00  0.00000000E+00  0.00000000E+00
  0.00000000E+00  0.00000000E+00  0.00000000E+00
  0.00000000E+00  0.00000000E+00  0.00000000E+00
  0.00000000E+00  0.00000000E+00  0.00000000E+00
  0.00000000E+00  0.00000000E+00  0.00000000E+00
  0.00000000E+00  0.00000000E+00  0.00000000E+00
  0.00000000E+00  0.00000000E+00  0.00000000E+00
  0.00000000E+00  0.00000000E+00  0.00000000E+00
  0.00000000E+00  0.00000000E+00  0.00000000E+00
  0.00000000E+00  0.00000000E+00  0.00000000E+00
  0.00000000E+00  0.00000000E+00  0.00000000E+00
  0.00000000E+00  0.00000000E+00  0.00000000E+00
  0.00000000E+00  0.00000000E+00  0.00000000E+00
  0.00000000E+00  0.00000000E+00  0.00000000E+00
  0.00000000E+00  0.00000000E+00  0.00000000E+00
  0.00000000E+00  0.00000000E+00  0.00000000E+00
  0.00000000E+00  0.00000000E+00  0.00000000E+00
  0.00000000E+00  0.00000000E+00  0.00000000E+00
  0.00000000E+00  0.00000000E+00  0.00000000E+00
  0.00000000E+00  0.00000000E+00  0.00000000E+00
  0.00000000E+00  0.00000000E+00  0.00000000E+00
  0.00000000E+00  0.00000000E+00  0.00000000E+00
  0.00000000E+00  0.00000000E+00  0.00000000E+00
  0.00000000E+00  0.00000000E+00  0.00000000E+00
