Na4 Co4 O8 F4                           
   1.00000000000000     
     5.2035436424242505   -0.0137389883876783   -0.0174860491532361
     0.0009509896429163    5.2894594866375551   -0.0653146500282909
    -0.0409072971787155   -0.1060437987703553    7.7685889490562889
   Na   Co   O    F 
     4     4     8     4
Direct
  0.9799666487319426  0.0264483722035942  0.2467237006276112
  0.0217974671998062  0.9702924566962836  0.7378442853237401
  0.4839983730318585  0.4666608139475269  0.7492184667009851
  0.5175882662017853  0.5420309037220291  0.2463812989158486
  0.4872977970646086  0.0031747509570124  0.0004045263551825
 -0.0022843547587162  0.4755453652867579  0.9878907708568263
  0.5124597818205018  0.0100955687374457  0.4993827235935674
  0.9932763247475795  0.4837484705429060  0.4889974976575840
  0.0704738945254170  0.5048299545939905  0.2500160798651183
  0.9377962747244231  0.5143447812910883  0.7499970075797290
  0.6936971004615039  0.2561347255045088  0.0456196992199527
  0.2920207461147818  0.7445082749813436  0.9530323324518819
  0.2099456552456134  0.2236234250844142  0.9735065955139438
  0.7198928240250673  0.2939745457010136  0.4664718606189711
  0.7678079155307782  0.8064740965542054  0.4654274005459643
  0.2446728941573932  0.2040337171317540  0.5310826113405576
  0.6001518997568721  0.0296068531531149  0.7540474147654832
  0.4018390186252532  0.9623263852752881  0.2521382760038819
  0.7815347023384343  0.7695732331838692  0.0496848183288871
  0.2860667704550958  0.7125733054518602  0.5521326337342765
 
  0.00000000E+00  0.00000000E+00  0.00000000E+00
  0.00000000E+00  0.00000000E+00  0.00000000E+00
  0.00000000E+00  0.00000000E+00  0.00000000E+00
  0.00000000E+00  0.00000000E+00  0.00000000E+00
  0.00000000E+00  0.00000000E+00  0.00000000E+00
  0.00000000E+00  0.00000000E+00  0.00000000E+00
  0.00000000E+00  0.00000000E+00  0.00000000E+00
  0.00000000E+00  0.00000000E+00  0.00000000E+00
  0.00000000E+00  0.00000000E+00  0.00000000E+00
  0.00000000E+00  0.00000000E+00  0.00000000E+00
  0.00000000E+00  0.00000000E+00  0.00000000E+00
  0.00000000E+00  0.00000000E+00  0.00000000E+00
  0.00000000E+00  0.00000000E+00  0.00000000E+00
  0.00000000E+00  0.00000000E+00  0.00000000E+00
  0.00000000E+00  0.00000000E+00  0.00000000E+00
  0.00000000E+00  0.00000000E+00  0.00000000E+00
  0.00000000E+00  0.00000000E+00  0.00000000E+00
  0.00000000E+00  0.00000000E+00  0.00000000E+00
  0.00000000E+00  0.00000000E+00  0.00000000E+00
  0.00000000E+00  0.00000000E+00  0.00000000E+00
