Na4 Cr4 O8 F4                           
   1.00000000000000     
     5.2282380245754148    0.0000872945596092   -0.0347473395758424
     0.0055415833439585    5.2972112228420949    0.0086872102752276
     0.0122992557071375   -0.0057310677257315    7.3959548814728455
   Na   Cr   O    F 
     4     4     8     4
Direct
  0.9797844813763160  0.0260188055863881  0.2582614813224022
  0.0137293100288547  0.9555321961311141  0.7474027938860310
  0.4966465057578864  0.4802511302850659  0.7424715460357086
  0.5136189947544115  0.5432608900857810  0.2418125637243901
  0.4895539320040379  0.0240447976796638 -0.0001645674709153
  0.0321800884547788  0.4936148420389891  0.9971022223582423
  0.5122960215212000  0.0243347640034104  0.4990398813685655
  0.9845759943104810  0.4875450766900531  0.4989593999857880
  0.0587239272015640  0.4921776583590826  0.2427022581887675
  0.9333540003558000  0.5086307171653653  0.7644766272486063
  0.7129532153537245  0.2621836386025925  0.0450133799879424
  0.3013265254612055  0.7134238590316041  0.9650586174915406
  0.2207886153929516  0.2111041751864191  0.9520926032407848
  0.7074593935531930  0.2784415008569592  0.4462192982569066
  0.7563828478736587  0.7782342750922266  0.4722444342238457
  0.2225094440673527  0.2082174045911651  0.5399308172633173
  0.5970052568251604  0.0267495562603391  0.7514142098339188
  0.4031452694806113  0.9805080045957233  0.2506092971897561
  0.7877918766832329  0.7863436551985528  0.0417769076078339
  0.2761742995435732  0.7193830525594905  0.5435762282565678
 
  0.00000000E+00  0.00000000E+00  0.00000000E+00
  0.00000000E+00  0.00000000E+00  0.00000000E+00
  0.00000000E+00  0.00000000E+00  0.00000000E+00
  0.00000000E+00  0.00000000E+00  0.00000000E+00
  0.00000000E+00  0.00000000E+00  0.00000000E+00
  0.00000000E+00  0.00000000E+00  0.00000000E+00
  0.00000000E+00  0.00000000E+00  0.00000000E+00
  0.00000000E+00  0.00000000E+00  0.00000000E+00
  0.00000000E+00  0.00000000E+00  0.00000000E+00
  0.00000000E+00  0.00000000E+00  0.00000000E+00
  0.00000000E+00  0.00000000E+00  0.00000000E+00
  0.00000000E+00  0.00000000E+00  0.00000000E+00
  0.00000000E+00  0.00000000E+00  0.00000000E+00
  0.00000000E+00  0.00000000E+00  0.00000000E+00
  0.00000000E+00  0.00000000E+00  0.00000000E+00
  0.00000000E+00  0.00000000E+00  0.00000000E+00
  0.00000000E+00  0.00000000E+00  0.00000000E+00
  0.00000000E+00  0.00000000E+00  0.00000000E+00
  0.00000000E+00  0.00000000E+00  0.00000000E+00
  0.00000000E+00  0.00000000E+00  0.00000000E+00
