Na4 Ti4 O8 F4                           
   1.00000000000000     
     5.3532795752124320   -0.0005439067009770    0.0149102715560269
    -0.0026606394284095    5.4457836215334821    0.0011049486205752
     0.0219369872295205   -0.0004247099614015    7.6427944396314427
   Na   Ti   O    F 
     4     4     8     4
Direct
  0.9827132975781901  0.0338280253155974  0.2460596978261577
  0.0167480339046903  0.9596379287917468  0.7557339544904238
  0.4937900877321508  0.4793676596249640  0.7470307158949258
  0.5109318317448842  0.5348670198319241  0.2583281880420316
  0.5108059236203811  0.0204035137896124  0.0027437112945787
  0.9852314685092862  0.4934765602194276  0.0013966053991470
  0.4819861746981265  0.0121371934168650  0.5026329621298927
  0.0104929461934355  0.4860989742876127  0.5010749567112005
  0.7088225148971381  0.2829205437650331  0.0454293006929421
  0.2224412006822035  0.2106241927817722  0.9610820825952165
  0.7730424548190465  0.7862069271243952  0.0368149994044066
  0.2942385925364635  0.7202460914707512  0.5354445726803817
  0.7138755140997257  0.2711854670572340  0.4614994996397634
  0.2175582915824115  0.2100649261702205  0.5459334836901516
  0.0726783765418205  0.4911025931794483  0.2484810290632099
  0.9300397145537002  0.5201825091978587  0.7484625321520767
  0.2909130813661143  0.7189000558613176  0.9519057022805414
  0.7829258428030975  0.7868775327830013  0.4515592122211651
  0.5975265892744518  0.0097289939595293  0.7492222955400623
  0.4032380628626757  0.9721432913716896  0.2491644982517247
 
  0.00000000E+00  0.00000000E+00  0.00000000E+00
  0.00000000E+00  0.00000000E+00  0.00000000E+00
  0.00000000E+00  0.00000000E+00  0.00000000E+00
  0.00000000E+00  0.00000000E+00  0.00000000E+00
  0.00000000E+00  0.00000000E+00  0.00000000E+00
  0.00000000E+00  0.00000000E+00  0.00000000E+00
  0.00000000E+00  0.00000000E+00  0.00000000E+00
  0.00000000E+00  0.00000000E+00  0.00000000E+00
  0.00000000E+00  0.00000000E+00  0.00000000E+00
  0.00000000E+00  0.00000000E+00  0.00000000E+00
  0.00000000E+00  0.00000000E+00  0.00000000E+00
  0.00000000E+00  0.00000000E+00  0.00000000E+00
  0.00000000E+00  0.00000000E+00  0.00000000E+00
  0.00000000E+00  0.00000000E+00  0.00000000E+00
  0.00000000E+00  0.00000000E+00  0.00000000E+00
  0.00000000E+00  0.00000000E+00  0.00000000E+00
  0.00000000E+00  0.00000000E+00  0.00000000E+00
  0.00000000E+00  0.00000000E+00  0.00000000E+00
  0.00000000E+00  0.00000000E+00  0.00000000E+00
  0.00000000E+00  0.00000000E+00  0.00000000E+00
