Sodium tetrafluoromanganate(III)        
   1.00000000000000     
     5.7229970141270430    0.0000000117541346   -0.0269377207685442
     0.0000000080630602    4.8918674618086397   -0.0000000361203351
    -1.8027125113666878   -0.0000000345736165    5.4175091395678940
   Na   Mn   F 
     2     2     8
Direct
  0.5000174603952914  0.4999807630625810  0.9999972155288361
  0.5000174545662404  0.0000191835651506  0.4999971806191112
  0.9999733166259333  0.4999907778554160  0.4999927170219536
  0.9999733833898290  0.0000091441321288  0.9999928884421792
  0.8747208148402805  0.7691640695674238  0.6692452964679561
  0.1252666691479547  0.2308423496977241  0.3307749914278091
  0.1252666607881920  0.2691576866448244  0.8307749809145903
  0.8747208377145199  0.7308359382341720  0.1692452363799504
  0.3062302481798440  0.6570041921251502  0.6129241914602730
  0.6937916127288091  0.3429971700864058  0.3870656265269048
  0.6937914341882205  0.1570028728903381  0.8870656200778058
  0.3062301074348923  0.8429958521386780  0.1129240551326305
 
  0.00000000E+00  0.00000000E+00  0.00000000E+00
  0.00000000E+00  0.00000000E+00  0.00000000E+00
  0.00000000E+00  0.00000000E+00  0.00000000E+00
  0.00000000E+00  0.00000000E+00  0.00000000E+00
  0.00000000E+00  0.00000000E+00  0.00000000E+00
  0.00000000E+00  0.00000000E+00  0.00000000E+00
  0.00000000E+00  0.00000000E+00  0.00000000E+00
  0.00000000E+00  0.00000000E+00  0.00000000E+00
  0.00000000E+00  0.00000000E+00  0.00000000E+00
  0.00000000E+00  0.00000000E+00  0.00000000E+00
  0.00000000E+00  0.00000000E+00  0.00000000E+00
  0.00000000E+00  0.00000000E+00  0.00000000E+00
