Na8 Ti8 O16 F8                          
   1.00000000000000     
     7.8429883637829505    0.0019121667741151    0.0007018820438713
     0.0047283531493669    7.5088872252878929   -0.0029750258063700
     0.0006982734412569   -0.0029129092211849    7.6523367019424962
   Na   Ti   O    F 
     8     8    16     8
Direct
  0.2296553571806973  0.2510071742832173  0.2452652244918669
  0.2308216917222950  0.2538601646109240  0.7554665365300658
  0.2437270318816640  0.7501485603497912  0.2578158560812817
  0.2439074543204179  0.7489454670776861  0.7419693500199624
  0.7629191818822811  0.2644941326965669  0.2550376983407517
  0.7604984205238162  0.2639550992179872  0.7448754696150431
  0.7559953101543524  0.7390788092748407  0.2411641360131239
  0.7574277515979131  0.7379266980611717  0.7611788255218579
  0.9972646671561486  0.9987942651183325  0.0000745992954128
  0.9994057561054807  0.9995271774470512  0.5002943318725662
  0.0144778415434097  0.5047603287750516  0.0000130639735680
  0.0013203624979012  0.5026083154331459  0.4999032732696833
  0.4945159620326525  0.0150200054548545  0.9999109538603254
  0.5029056326884521  0.0016168205943257  0.4999862803638443
  0.4807893668937785  0.4930363675361228  0.0000236333215992
  0.5011557488598279  0.5039078962551876  0.4997774871595984
  0.2533625415517100  0.5612744984202952  0.9999086009592369
  0.0487983945944148  0.2479896918207853  0.9989571543333883
  0.9492072293143884  0.2485966983788238  0.5007404664545743
  0.9406695251752538  0.7526127889081338  0.0014311937101755
  0.0579821744681940  0.7497415672267779  0.4992704298717650
  0.4297662089031692  0.2470050896998823  0.9996396236074110
  0.5555813203043072  0.2458598680398464  0.4994238830912699
  0.4435220166001369  0.7481149277750594  0.4999082296539418
  0.0044870720110672  0.0001323368527009  0.2504106215600065
  0.0003155808094456  0.9977664636883939  0.7496909199728363
  0.9961480272279933  0.4989076427565158  0.2520556137483609
  0.9964815098702349  0.5010637288716033  0.7478381025740271
  0.5000228491562956  0.9906341725656368  0.2458224895637299
  0.5039230573498538  0.9908316287760996  0.7538359246796055
  0.5115654019609557  0.5022659641677311  0.2486512601678879
  0.5109683947361816  0.5020263156111402  0.7509153571703374
  0.2517462012837724  0.9328646604413525  0.9980598745554311
  0.2524960576966885  0.0635192329534586  0.5020568498480017
  0.2525873317868772  0.4344211638863046  0.4996909669708656
  0.7450561327867844  0.0677514854492407  0.0018240055854550
  0.7505186976493974  0.9304915687186600  0.4976804851335108
  0.7471338586063971  0.4410588694108986  0.9994232474107185
  0.7511748526283195  0.5651920192830698  0.4999924077137157
  0.5696980264870579  0.7511903341113471  0.0000155719332033
 
  0.00000000E+00  0.00000000E+00  0.00000000E+00
  0.00000000E+00  0.00000000E+00  0.00000000E+00
  0.00000000E+00  0.00000000E+00  0.00000000E+00
  0.00000000E+00  0.00000000E+00  0.00000000E+00
  0.00000000E+00  0.00000000E+00  0.00000000E+00
  0.00000000E+00  0.00000000E+00  0.00000000E+00
  0.00000000E+00  0.00000000E+00  0.00000000E+00
  0.00000000E+00  0.00000000E+00  0.00000000E+00
  0.00000000E+00  0.00000000E+00  0.00000000E+00
  0.00000000E+00  0.00000000E+00  0.00000000E+00
  0.00000000E+00  0.00000000E+00  0.00000000E+00
  0.00000000E+00  0.00000000E+00  0.00000000E+00
  0.00000000E+00  0.00000000E+00  0.00000000E+00
  0.00000000E+00  0.00000000E+00  0.00000000E+00
  0.00000000E+00  0.00000000E+00  0.00000000E+00
  0.00000000E+00  0.00000000E+00  0.00000000E+00
  0.00000000E+00  0.00000000E+00  0.00000000E+00
  0.00000000E+00  0.00000000E+00  0.00000000E+00
  0.00000000E+00  0.00000000E+00  0.00000000E+00
  0.00000000E+00  0.00000000E+00  0.00000000E+00
  0.00000000E+00  0.00000000E+00  0.00000000E+00
  0.00000000E+00  0.00000000E+00  0.00000000E+00
  0.00000000E+00  0.00000000E+00  0.00000000E+00
  0.00000000E+00  0.00000000E+00  0.00000000E+00
  0.00000000E+00  0.00000000E+00  0.00000000E+00
  0.00000000E+00  0.00000000E+00  0.00000000E+00
  0.00000000E+00  0.00000000E+00  0.00000000E+00
  0.00000000E+00  0.00000000E+00  0.00000000E+00
  0.00000000E+00  0.00000000E+00  0.00000000E+00
  0.00000000E+00  0.00000000E+00  0.00000000E+00
  0.00000000E+00  0.00000000E+00  0.00000000E+00
  0.00000000E+00  0.00000000E+00  0.00000000E+00
  0.00000000E+00  0.00000000E+00  0.00000000E+00
  0.00000000E+00  0.00000000E+00  0.00000000E+00
  0.00000000E+00  0.00000000E+00  0.00000000E+00
  0.00000000E+00  0.00000000E+00  0.00000000E+00
  0.00000000E+00  0.00000000E+00  0.00000000E+00
  0.00000000E+00  0.00000000E+00  0.00000000E+00
  0.00000000E+00  0.00000000E+00  0.00000000E+00
  0.00000000E+00  0.00000000E+00  0.00000000E+00
