Na8 Fe8 O16 F8                          
   1.00000000000000     
     7.7545955363169350    0.0000000042190775   -0.0000000006567373
     0.0000000042728585    7.4162878374936057    0.0000000075062169
    -0.0000000009203950    0.0000000072156574    7.7545974545266736
   Na   Fe   O    F 
     8     8    16     8
Direct
  0.2500007594563840  0.2500019361962913  0.2499997252163837
  0.2500008633752415  0.2500018392281689  0.7500002682153948
  0.2500008142678638  0.7499980677154952  0.2499996831053011
  0.2500009189978840  0.7499981549539854  0.7500003070499801
  0.7499999584460042  0.2500018788296856  0.2499996668717586
  0.7499998534284913  0.2500017776647212  0.7500003303258538
  0.7499999054773454  0.7499981272470961  0.2499996229838857
  0.7499998071288019  0.7499982221364547  0.7500003701598175
  0.9999985288860671  0.9999999902463230  0.0000000019905997
  0.9999985776928568  0.9999999104471229  0.4999999976942675
  0.9999994772206406  0.5000000133864049  0.9999999770002788
  0.9999994681813575  0.5000000933058431  0.5000000236313227
  0.4999985339648845  0.0000000368265276  0.0000000278713372
  0.4999984865021148  0.0000000003530545  0.4999999720440016
  0.4999994449444145  0.4999999586631958  0.0000002842047309
  0.4999994552545459  0.4999999971989411  0.4999997024284824
  0.2499971182658030  0.9999999844835941  0.9999999991058388
  0.2499970672216705  0.0000000088934584  0.5000000014890205
  0.7499974016347295  0.9999999838342717  0.9999999990908037
  0.7499974532029086  0.0000000090998853  0.5000000017972042
  0.0000022538934417  0.2499981681393137  0.9999998634096912
  0.0000022213279109  0.2499979948539561  0.5000001348950107
  0.0000022547183676  0.7500018518300280  0.9999998626810296
  0.0000022208286339  0.7500020089554056  0.5000001347662035
  0.5000021029125747  0.2499980835564202  0.9999999878347481
  0.5000021425700965  0.2499979561965517  0.5000000271395280
  0.5000021030563886  0.7500019157062852  0.9999999881693213
  0.5000021429957613  0.7500020238062106  0.5000000294932718
  0.9999998738535822  0.4999999877255092  0.2500000470606025
  0.9999998746042422  0.4999999883376773  0.7499999534989215
  0.4999998760201407  0.5000000134497782  0.2500000273672782
  0.4999998701037853  0.5000000161774167  0.7499999648458271
  0.2499993156569431  0.5000000137327518  0.9999999425239565
  0.2499993306296844  0.4999999901443815  0.5000000635189750
  0.7499992974393450  0.5000000147690997  0.9999999434066424
  0.7499992840171856  0.4999999903524568  0.5000000626295318
  0.0000004919143137  0.0000000144884496  0.2500000027445850
  0.0000004924252153  0.0000000137324250  0.7499999990603499
  0.5000004785715859  0.9999999817811727  0.2499999791445262
  0.5000004789107919  0.9999999815541898  0.7500000235337296
 
  0.00000000E+00  0.00000000E+00  0.00000000E+00
  0.00000000E+00  0.00000000E+00  0.00000000E+00
  0.00000000E+00  0.00000000E+00  0.00000000E+00
  0.00000000E+00  0.00000000E+00  0.00000000E+00
  0.00000000E+00  0.00000000E+00  0.00000000E+00
  0.00000000E+00  0.00000000E+00  0.00000000E+00
  0.00000000E+00  0.00000000E+00  0.00000000E+00
  0.00000000E+00  0.00000000E+00  0.00000000E+00
  0.00000000E+00  0.00000000E+00  0.00000000E+00
  0.00000000E+00  0.00000000E+00  0.00000000E+00
  0.00000000E+00  0.00000000E+00  0.00000000E+00
  0.00000000E+00  0.00000000E+00  0.00000000E+00
  0.00000000E+00  0.00000000E+00  0.00000000E+00
  0.00000000E+00  0.00000000E+00  0.00000000E+00
  0.00000000E+00  0.00000000E+00  0.00000000E+00
  0.00000000E+00  0.00000000E+00  0.00000000E+00
  0.00000000E+00  0.00000000E+00  0.00000000E+00
  0.00000000E+00  0.00000000E+00  0.00000000E+00
  0.00000000E+00  0.00000000E+00  0.00000000E+00
  0.00000000E+00  0.00000000E+00  0.00000000E+00
  0.00000000E+00  0.00000000E+00  0.00000000E+00
  0.00000000E+00  0.00000000E+00  0.00000000E+00
  0.00000000E+00  0.00000000E+00  0.00000000E+00
  0.00000000E+00  0.00000000E+00  0.00000000E+00
  0.00000000E+00  0.00000000E+00  0.00000000E+00
  0.00000000E+00  0.00000000E+00  0.00000000E+00
  0.00000000E+00  0.00000000E+00  0.00000000E+00
  0.00000000E+00  0.00000000E+00  0.00000000E+00
  0.00000000E+00  0.00000000E+00  0.00000000E+00
  0.00000000E+00  0.00000000E+00  0.00000000E+00
  0.00000000E+00  0.00000000E+00  0.00000000E+00
  0.00000000E+00  0.00000000E+00  0.00000000E+00
  0.00000000E+00  0.00000000E+00  0.00000000E+00
  0.00000000E+00  0.00000000E+00  0.00000000E+00
  0.00000000E+00  0.00000000E+00  0.00000000E+00
  0.00000000E+00  0.00000000E+00  0.00000000E+00
  0.00000000E+00  0.00000000E+00  0.00000000E+00
  0.00000000E+00  0.00000000E+00  0.00000000E+00
  0.00000000E+00  0.00000000E+00  0.00000000E+00
  0.00000000E+00  0.00000000E+00  0.00000000E+00
