Fe4 O4 F8                               
   1.00000000000000     
     5.2248330747436631   -0.0259824813802382   -0.1347481803459886
    -0.0135448052774469    5.3819094673711474    0.1003935600992526
    -0.1848241048507295    0.2183155696055117    7.6896695002429283
   Fe   O    F 
     4     4     8
Direct
  0.5099682521371989  0.0010614868868117  0.9924951598798302
  0.0078170637228041  0.5027282791624685  0.0044358284529693
  0.4860294538223897  0.9955219689671608  0.5052704339280965
  0.9893091671102709  0.4905124532389991  0.4910106809909536
  0.1900620549804444  0.1924074203299497  0.9681715217467470
  0.7934412556201380  0.8025287062594231  0.4668977276521531
  0.9420831458500913  0.5291840063882418  0.7449210232195327
  0.4268982313735279  0.9927602674053730  0.2449801287944879
  0.7009796692032779  0.3046742326510028  0.0362133210958291
  0.3141609472725335  0.6961630080022658  0.9619447539304815
  0.8132284543069730  0.8000389021282928  0.0411077606704353
  0.2952632218523235  0.6890940119083311  0.5469846099498739
  0.6751828501836243  0.3035102260140121  0.4534148046217368
  0.1818781038103623  0.1860681732509661  0.5399059954346725
  0.0892932103383117  0.4862210018338189  0.2530140556534022
  0.5844049184157356  0.0275258555728755  0.7492321939788056
 
  0.00000000E+00  0.00000000E+00  0.00000000E+00
  0.00000000E+00  0.00000000E+00  0.00000000E+00
  0.00000000E+00  0.00000000E+00  0.00000000E+00
  0.00000000E+00  0.00000000E+00  0.00000000E+00
  0.00000000E+00  0.00000000E+00  0.00000000E+00
  0.00000000E+00  0.00000000E+00  0.00000000E+00
  0.00000000E+00  0.00000000E+00  0.00000000E+00
  0.00000000E+00  0.00000000E+00  0.00000000E+00
  0.00000000E+00  0.00000000E+00  0.00000000E+00
  0.00000000E+00  0.00000000E+00  0.00000000E+00
  0.00000000E+00  0.00000000E+00  0.00000000E+00
  0.00000000E+00  0.00000000E+00  0.00000000E+00
  0.00000000E+00  0.00000000E+00  0.00000000E+00
  0.00000000E+00  0.00000000E+00  0.00000000E+00
  0.00000000E+00  0.00000000E+00  0.00000000E+00
  0.00000000E+00  0.00000000E+00  0.00000000E+00
