Fe8 O8 F16                              
    1.000000000000000     
     7.7092382891765467   -0.0016813068154877    0.0074765439451273
    -0.0005586183629794    7.7403974406513649   -0.0389271011310764
     0.0073742992458511   -0.0075074458590555    7.7281096497937769
   Fe   O    F 
     8     8    16
Direct
  0.9981961742727660  0.9984295810325511  0.0002115510523222
  0.0012225377466378  0.0003607064970780  0.5001839923543585
  0.0003638813070259  0.4983816045609750  0.0007917311053901
  0.0152010057563651  0.5003311113088182  0.5005768826711300
  0.4988759013605271  0.0013327165644258  0.9997204259292665
  0.5020466421678578  0.0000744032294632  0.4999097295954936
  0.4989799517817276  0.5012647948040286  0.9992888341919048
  0.4853346162985588  0.5001203580542019  0.4993387515218881
  0.2511518074145690  0.0001629025650654  0.4998193571272507
  0.2502430749123537  0.5001905878086127  0.5000139112481915
  0.7496352015395116  0.4997766055402076  0.9999488626463263
  0.7503625278112273  0.5001389998203323  0.5001236839048107
  0.2489512887635238  0.9997316514091359  0.0000026225844220
  0.2496972833630515  0.4998899632130982  0.0000869920703560
  0.7489758560628617  0.9999453357227543  0.9998921671153252
  0.7511332609924619  0.0001307762151117  0.4999893548380854
  0.9776921510418969  0.9989241725707616  0.2500615437782556
  0.5217490720126505  0.0010435721381303  0.7501317945869909
  0.0120058464007583  0.7501493284612599  0.9974601461481849
  0.4868176366761272  0.2495235975933783  0.0026531978675920
  0.9775045907559199  0.0000687426999313  0.7502626578036592
  0.9897794196817096  0.5000050710266998  0.2496379498221138
  0.9903615234547564  0.4983845006969095  0.7512468569089567
  0.5223816993050762  0.0000078602031960  0.2495573567796540
  0.5099322834508538  0.5014968344059595  0.2487554990730372
  0.5103001565354290  0.4998967869021038  0.7503912522658334
  0.0126933043459016  0.2474934947041858  0.0028742568527625
  0.0117300264571997  0.2491517967731345  0.5013066876735414
  0.0115275835160324  0.7511436571210409  0.4985585914173478
  0.4895020734331736  0.2491179420230111  0.5014084259768447
  0.4863076709671862  0.7521479910838188  0.9972345793148628
  0.4893439504143099  0.7511825532506047  0.4985603537738413
 
  0.00000000E+00  0.00000000E+00  0.00000000E+00
  0.00000000E+00  0.00000000E+00  0.00000000E+00
  0.00000000E+00  0.00000000E+00  0.00000000E+00
  0.00000000E+00  0.00000000E+00  0.00000000E+00
  0.00000000E+00  0.00000000E+00  0.00000000E+00
  0.00000000E+00  0.00000000E+00  0.00000000E+00
  0.00000000E+00  0.00000000E+00  0.00000000E+00
  0.00000000E+00  0.00000000E+00  0.00000000E+00
  0.00000000E+00  0.00000000E+00  0.00000000E+00
  0.00000000E+00  0.00000000E+00  0.00000000E+00
  0.00000000E+00  0.00000000E+00  0.00000000E+00
  0.00000000E+00  0.00000000E+00  0.00000000E+00
  0.00000000E+00  0.00000000E+00  0.00000000E+00
  0.00000000E+00  0.00000000E+00  0.00000000E+00
  0.00000000E+00  0.00000000E+00  0.00000000E+00
  0.00000000E+00  0.00000000E+00  0.00000000E+00
  0.00000000E+00  0.00000000E+00  0.00000000E+00
  0.00000000E+00  0.00000000E+00  0.00000000E+00
  0.00000000E+00  0.00000000E+00  0.00000000E+00
  0.00000000E+00  0.00000000E+00  0.00000000E+00
  0.00000000E+00  0.00000000E+00  0.00000000E+00
  0.00000000E+00  0.00000000E+00  0.00000000E+00
  0.00000000E+00  0.00000000E+00  0.00000000E+00
  0.00000000E+00  0.00000000E+00  0.00000000E+00
  0.00000000E+00  0.00000000E+00  0.00000000E+00
  0.00000000E+00  0.00000000E+00  0.00000000E+00
  0.00000000E+00  0.00000000E+00  0.00000000E+00
  0.00000000E+00  0.00000000E+00  0.00000000E+00
  0.00000000E+00  0.00000000E+00  0.00000000E+00
  0.00000000E+00  0.00000000E+00  0.00000000E+00
  0.00000000E+00  0.00000000E+00  0.00000000E+00
  0.00000000E+00  0.00000000E+00  0.00000000E+00
