Co4 O4 F8                               
    1.000000000000000     
     5.0529624180474713   -0.0239878798101768    0.0074042573358333
    -0.0315773784435869    5.2089415729546467    0.0179998792272690
    -0.0199850798955097   -0.0171767689312493    7.3871087587544180
   Co   O    F 
     4     4     8
Direct
  0.4969217521502738  0.0019962524047605  0.9987688503191556
  0.0008955029096751  0.4990982356970436  0.0031693233136219
  0.4938855849677607  0.0088824690173116  0.5003633970056627
 -0.0011840091515793  0.5052035618118494  0.4959223577232605
  0.0986956532094939  0.4663928229315817  0.2503927710268634
  0.9307067236223480  0.5086711621963946  0.7501285105671358
  0.1786880524785427  0.1883406017702293  0.9625527276653014
  0.1753784670561560  0.1937959085609391  0.5367196416483008
  0.6103093400784954  0.0533862900354429  0.7498747135256827
  0.3848770027188044  0.9567731583110345  0.2498174696360271
  0.6788415145347317  0.3019280235398996  0.0621845599262387
  0.3266889387560455  0.6942007441462934  0.9418533982793106
  0.8147388535780670  0.8022542453500464  0.0481491949845078
  0.3234538212724185  0.7011847547155922  0.5588470902823259
  0.6744201055810063  0.3094067660693490  0.4389688090930545
  0.8126826962377535  0.8084850034422324  0.4522871850035499
 
  0.00000000E+00  0.00000000E+00  0.00000000E+00
  0.00000000E+00  0.00000000E+00  0.00000000E+00
  0.00000000E+00  0.00000000E+00  0.00000000E+00
  0.00000000E+00  0.00000000E+00  0.00000000E+00
  0.00000000E+00  0.00000000E+00  0.00000000E+00
  0.00000000E+00  0.00000000E+00  0.00000000E+00
  0.00000000E+00  0.00000000E+00  0.00000000E+00
  0.00000000E+00  0.00000000E+00  0.00000000E+00
  0.00000000E+00  0.00000000E+00  0.00000000E+00
  0.00000000E+00  0.00000000E+00  0.00000000E+00
  0.00000000E+00  0.00000000E+00  0.00000000E+00
  0.00000000E+00  0.00000000E+00  0.00000000E+00
  0.00000000E+00  0.00000000E+00  0.00000000E+00
  0.00000000E+00  0.00000000E+00  0.00000000E+00
  0.00000000E+00  0.00000000E+00  0.00000000E+00
  0.00000000E+00  0.00000000E+00  0.00000000E+00
