V4 O4 F8                                
   1.00000000000000     
     5.4973949219570812    0.0702026025519165   -0.0993798211371250
    -2.6886344805163418    4.6569108704449667    0.1993620050696764
    -0.1692113787188389    0.2942436539953404    9.3825795956353915
   V    O    F 
     4     4     8
Direct
  0.3042820402899991  0.6244125904265004  0.6144218864487273
  0.6954560079897738  0.3514051475747139  0.3975065485420939
  0.6957959713481265  0.3203154196219296  0.1147755652007330
  0.3042844105877275  0.6563996522453276  0.8969931593596993
  0.0095702573008157  0.5018347808115096  0.9941349884396339
  0.9907138990906337  0.4921007665867145  0.4940100484775222
  0.1822482394292594  0.3729330894716867  0.7492729855645630
  0.8172822117602923  0.1900427163779567  0.2495715801339549
  0.5101004267237397  0.0079481728750470  0.9947998926888885
  0.5100801267107355  0.5046133705456436  0.0049566987287448
  0.4894888578534257  0.9944933133283524  0.5052431969904776
  0.4906739543061652  0.4982615159448543  0.4947125904462316
  0.8166972084938510  0.6436713782275149  0.2407292372430715
  0.3838035217730952  0.1991221300013622  0.2543759860054282
  0.6161420771938272  0.8151019573253014  0.7540463975175815
  0.1833807891485179  0.8273439986355852  0.7404492382126562
 
  0.00000000E+00  0.00000000E+00  0.00000000E+00
  0.00000000E+00  0.00000000E+00  0.00000000E+00
  0.00000000E+00  0.00000000E+00  0.00000000E+00
  0.00000000E+00  0.00000000E+00  0.00000000E+00
  0.00000000E+00  0.00000000E+00  0.00000000E+00
  0.00000000E+00  0.00000000E+00  0.00000000E+00
  0.00000000E+00  0.00000000E+00  0.00000000E+00
  0.00000000E+00  0.00000000E+00  0.00000000E+00
  0.00000000E+00  0.00000000E+00  0.00000000E+00
  0.00000000E+00  0.00000000E+00  0.00000000E+00
  0.00000000E+00  0.00000000E+00  0.00000000E+00
  0.00000000E+00  0.00000000E+00  0.00000000E+00
  0.00000000E+00  0.00000000E+00  0.00000000E+00
  0.00000000E+00  0.00000000E+00  0.00000000E+00
  0.00000000E+00  0.00000000E+00  0.00000000E+00
  0.00000000E+00  0.00000000E+00  0.00000000E+00
