Na8 Ti8 O16 F8                          
   1.00000000000000     
     7.9466167106287582   -0.0000000059889198   -0.0000032120212068
    -0.0000000031482156    7.5917042893978417   -0.0000007971125152
    -0.0000031298214246   -0.0000007980986866    7.7491516230330104
   Na   Ti   O    F 
     8     8    16     8
Direct
  0.2500052078887833  0.2541418493396037  0.2645340529371438
  0.2499990426177874  0.2437982360223856  0.7371369356942665
  0.2500051506808632  0.7458558087031761  0.2645321245583929
  0.2499990461791768  0.7562020600191772  0.7371379070846231
  0.7500051247021489  0.2541440959401839  0.2354677085059720
  0.7499990500642042  0.2437978953234605  0.7628618219126366
  0.7500051851075824  0.7458582056825165  0.2354658052349023
  0.7499990461414896  0.7562018596676552  0.7628626700704828
  0.0156073220015216  0.0000001645918744  0.0117603847952381
  0.9843876738414110  0.9999998457253199  0.4882467344113763
  0.9999802490463452  0.4999998908612895  0.9984708874749586
  0.9999733302716436  0.5000001167385406  0.5015361685068811
  0.4843876602452397  0.0000001492968096  0.0117531919587890
  0.5156073155640684  0.9999998303074804  0.4882394190589210
  0.4999733516219109  0.4999998987316019  0.9984636870291936
  0.4999802458468992  0.5000001246674657  0.5015289289431735
  0.2500116563726493  0.0000000946843812  0.9908719812676665
  0.7500116533247407  0.9999999071908334  0.5091278931217573
  0.9886624546161897  0.2489003425401251  0.9949878241566452
  0.0113839657123194  0.2489048029937351  0.5050040474911697
  0.9886624680545637  0.7510996845593709  0.9949877016628434
  0.0113839781140399  0.7510951674573221  0.5050039367787420
  0.5113839907698008  0.2489048420467981  0.9949960968833267
  0.4886624694254351  0.2489003068615077  0.5050120225828323
  0.5113839770612003  0.7510951861394588  0.9949959852314194
  0.4886624589673687  0.7510996639449132  0.5050119022246236
  0.9999657554125605  0.0000000062017875  0.2499872122572881
  0.9999609655188735  0.4999999952088032  0.2499966538635974
  0.9999500135489825  0.4999999966342799  0.7500011997233358
  0.4999657600831284  0.9999999963751591  0.2500126996026921
  0.4999609551704225  0.5000000069434805  0.2500032402861763
  0.4999470557518393  0.4999999963061583  0.7500015833445062
  0.2500525706096752  0.9999999628638960  0.5156486194633416
  0.2499873175053864  0.4999999044465469  0.0014493840655305
  0.2499878906593480  0.5000000479131117  0.4974584575531367
  0.7500525599780516  0.0000000350354625  0.9843512850907246
  0.7499879014555475  0.4999999456483835  0.0025414517565920
  0.7499873071024368  0.5000000874285817  0.4985505203401033
  0.0000353980419376  0.9999999935623336  0.7499976254318810
  0.5000354749224130  0.9999999953950507  0.7500022476431170
 
  0.00000000E+00  0.00000000E+00  0.00000000E+00
  0.00000000E+00  0.00000000E+00  0.00000000E+00
  0.00000000E+00  0.00000000E+00  0.00000000E+00
  0.00000000E+00  0.00000000E+00  0.00000000E+00
  0.00000000E+00  0.00000000E+00  0.00000000E+00
  0.00000000E+00  0.00000000E+00  0.00000000E+00
  0.00000000E+00  0.00000000E+00  0.00000000E+00
  0.00000000E+00  0.00000000E+00  0.00000000E+00
  0.00000000E+00  0.00000000E+00  0.00000000E+00
  0.00000000E+00  0.00000000E+00  0.00000000E+00
  0.00000000E+00  0.00000000E+00  0.00000000E+00
  0.00000000E+00  0.00000000E+00  0.00000000E+00
  0.00000000E+00  0.00000000E+00  0.00000000E+00
  0.00000000E+00  0.00000000E+00  0.00000000E+00
  0.00000000E+00  0.00000000E+00  0.00000000E+00
  0.00000000E+00  0.00000000E+00  0.00000000E+00
  0.00000000E+00  0.00000000E+00  0.00000000E+00
  0.00000000E+00  0.00000000E+00  0.00000000E+00
  0.00000000E+00  0.00000000E+00  0.00000000E+00
  0.00000000E+00  0.00000000E+00  0.00000000E+00
  0.00000000E+00  0.00000000E+00  0.00000000E+00
  0.00000000E+00  0.00000000E+00  0.00000000E+00
  0.00000000E+00  0.00000000E+00  0.00000000E+00
  0.00000000E+00  0.00000000E+00  0.00000000E+00
  0.00000000E+00  0.00000000E+00  0.00000000E+00
  0.00000000E+00  0.00000000E+00  0.00000000E+00
  0.00000000E+00  0.00000000E+00  0.00000000E+00
  0.00000000E+00  0.00000000E+00  0.00000000E+00
  0.00000000E+00  0.00000000E+00  0.00000000E+00
  0.00000000E+00  0.00000000E+00  0.00000000E+00
  0.00000000E+00  0.00000000E+00  0.00000000E+00
  0.00000000E+00  0.00000000E+00  0.00000000E+00
  0.00000000E+00  0.00000000E+00  0.00000000E+00
  0.00000000E+00  0.00000000E+00  0.00000000E+00
  0.00000000E+00  0.00000000E+00  0.00000000E+00
  0.00000000E+00  0.00000000E+00  0.00000000E+00
  0.00000000E+00  0.00000000E+00  0.00000000E+00
  0.00000000E+00  0.00000000E+00  0.00000000E+00
  0.00000000E+00  0.00000000E+00  0.00000000E+00
  0.00000000E+00  0.00000000E+00  0.00000000E+00
