Ni2 O2 F4                               
   1.00000000000000     
    -2.3900471522487883   -4.1012952499239130    0.0075251041122766
    -4.7521766595173895   -0.0204348492797959    0.0157579603924140
    -2.3298586877838297   -1.3416513072436622   -4.2501432012669724
   Ni   O    F 
     2     2     4
Direct
  0.0024981910175963  0.9982362494480136  0.0151386288988066
  0.4984831840885547  0.5005896809331870  0.4949947056585429
  0.2691403876523277  0.5795229612778152  0.2513390370193518
  0.8961672581156852  0.2636859725511183  0.2597317343084605
  0.5915312037326429  0.8782533178951933  0.2544355207545161
  0.4116162241424493  0.1180445885502743  0.7362438307351192
  0.1031537207255398  0.7502579212681393  0.7335432035877271
  0.7274098305252185  0.4114093080762661  0.7545733390374689
 
  0.00000000E+00  0.00000000E+00  0.00000000E+00
  0.00000000E+00  0.00000000E+00  0.00000000E+00
  0.00000000E+00  0.00000000E+00  0.00000000E+00
  0.00000000E+00  0.00000000E+00  0.00000000E+00
  0.00000000E+00  0.00000000E+00  0.00000000E+00
  0.00000000E+00  0.00000000E+00  0.00000000E+00
  0.00000000E+00  0.00000000E+00  0.00000000E+00
  0.00000000E+00  0.00000000E+00  0.00000000E+00
