Na4 Cr4 O8 F4                           
   1.00000000000000     
     5.5956352870314205   -0.0168681375452276   -0.4554828855716317
    -2.8697703984424381    4.7806235074245036    0.4896156830141775
    -0.6020228774301166    0.5610873911762511    9.3172615364692426
   Na   Cr   O    F 
     4     4     8     4
Direct
  0.0777666575316642  0.0213317662806607  0.9031335334773751
  0.0455576397209563 -0.0204280262419946  0.4080304821521494
  0.2640134740494208  0.6161362442959378  0.2288556290930013
  0.6982489131030494  0.3959200477893245  0.7570983431400636
  0.3907114462002088  0.6971670057884678  0.6230875103961777
  0.7557470040078726  0.3439932499126865  0.4186127679009142
  0.5763732547053969  0.2929296637784976  0.1316333464107052
  0.4095964469732419  0.7423624786554501  0.9102365861271816
  0.5103144203292913  0.0410760365590929  0.9829484746683564
  0.3465685870492320  0.4430621729176549  0.0163289043631248
  0.5342459480161850  0.0944622679346898  0.5404313426846895
  0.0946443550732207  0.5753819508604540  0.4665225103168399
  0.6138456009574410  0.5006301832189497  0.2852456806207033
  0.6542702829676856  0.8150474111715640  0.7925447551311737
  0.7863173837801933  0.1789545707289097  0.2854728040722178
  0.1656757615509941  0.6978161069901546  0.7649294529546335
  0.9078672158949261  0.5755621199998678  0.0370339514091122
  0.6714153970042195  0.6768778002425179  0.5372660037292095
  0.2609038930992767  0.3125096594732385  0.6999039530336331
  0.2359163179855307 -0.0007927103561182  0.2106839683187303
 
  0.00000000E+00  0.00000000E+00  0.00000000E+00
  0.00000000E+00  0.00000000E+00  0.00000000E+00
  0.00000000E+00  0.00000000E+00  0.00000000E+00
  0.00000000E+00  0.00000000E+00  0.00000000E+00
  0.00000000E+00  0.00000000E+00  0.00000000E+00
  0.00000000E+00  0.00000000E+00  0.00000000E+00
  0.00000000E+00  0.00000000E+00  0.00000000E+00
  0.00000000E+00  0.00000000E+00  0.00000000E+00
  0.00000000E+00  0.00000000E+00  0.00000000E+00
  0.00000000E+00  0.00000000E+00  0.00000000E+00
  0.00000000E+00  0.00000000E+00  0.00000000E+00
  0.00000000E+00  0.00000000E+00  0.00000000E+00
  0.00000000E+00  0.00000000E+00  0.00000000E+00
  0.00000000E+00  0.00000000E+00  0.00000000E+00
  0.00000000E+00  0.00000000E+00  0.00000000E+00
  0.00000000E+00  0.00000000E+00  0.00000000E+00
  0.00000000E+00  0.00000000E+00  0.00000000E+00
  0.00000000E+00  0.00000000E+00  0.00000000E+00
  0.00000000E+00  0.00000000E+00  0.00000000E+00
  0.00000000E+00  0.00000000E+00  0.00000000E+00
