Mn4 O4 F8                               
   1.00000000000000     
     4.7466447973910508    0.0014318159722620   -0.0301132473799926
     0.0002249376531424    4.9712298728583377    0.0040581581447657
    -0.0965229437095013   -0.0068272609999790    7.4420587560242737
   Mn   O    F 
     4     4     8
Direct
  0.5018197161694561  0.0048037226403768  0.0017947104781032
  0.9951246558703757  0.4951178030504250  0.0004016317513589
  0.5057379389946687  0.9968919224284184  0.5010241655282717
  0.9979886647410688  0.5059869101848514  0.4981706446729955
  0.6496957844676406  0.3380856275322554  0.0515308539658255
  0.3394039762427757  0.6629326881080502  0.9461238081806079
  0.8503222308699030  0.8394775929668954  0.4483925022445120
  0.1603190177177054  0.1641838333727197  0.5536702930778793
  0.1177636098190891  0.4719621851677516  0.2658571376432902
  0.8816297369466934  0.5285226420160285  0.7320467362408353
  0.6185382448868293  0.0281193486838066  0.7680039930373295
  0.3821493322888257  0.9715967748002523  0.2340889519937252
  0.1661620031721972  0.1556409545876323  0.9305541937851103
  0.8300762037025368  0.8392935862663137  0.0687330053898890
  0.3335934664038979  0.6567999297493193  0.5687324978700737
  0.6696754177063440  0.3405844784449109  0.4308748741401858
 
  0.00000000E+00  0.00000000E+00  0.00000000E+00
  0.00000000E+00  0.00000000E+00  0.00000000E+00
  0.00000000E+00  0.00000000E+00  0.00000000E+00
  0.00000000E+00  0.00000000E+00  0.00000000E+00
  0.00000000E+00  0.00000000E+00  0.00000000E+00
  0.00000000E+00  0.00000000E+00  0.00000000E+00
  0.00000000E+00  0.00000000E+00  0.00000000E+00
  0.00000000E+00  0.00000000E+00  0.00000000E+00
  0.00000000E+00  0.00000000E+00  0.00000000E+00
  0.00000000E+00  0.00000000E+00  0.00000000E+00
  0.00000000E+00  0.00000000E+00  0.00000000E+00
  0.00000000E+00  0.00000000E+00  0.00000000E+00
  0.00000000E+00  0.00000000E+00  0.00000000E+00
  0.00000000E+00  0.00000000E+00  0.00000000E+00
  0.00000000E+00  0.00000000E+00  0.00000000E+00
  0.00000000E+00  0.00000000E+00  0.00000000E+00
