Na4 Fe4 O8 F4                           
   1.00000000000000     
     5.3955055688796216    0.1378298006531744    0.0013956534029950
     0.1388792091070774    5.4536910815387198   -0.0018605825887443
    -0.0023900593481694   -0.0025455076447930    7.2955265962377274
   Na   Fe   O    F 
     4     4     8     4
Direct
  0.9985904350388727  0.0094497416139884  0.2523823373673382
  0.0047220408588563  0.9626894834812627  0.7472221897858313
  0.5074246050058686  0.4738767814954725  0.7466191720957986
  0.4870663537594355  0.5378407843983690  0.2527225246496034
  0.5087649780298487  0.0001198283402712  0.0006340525212164
  0.9939314870039871  0.5081981022574340  0.0010055102817045
  0.4995930680186016  0.0266889343196224  0.4981662876605669
  0.9894233098401954  0.4661403472025893  0.4984595790028321
  0.2049062585506148  0.2149708764738302  0.9875568096441276
  0.7984306704440419  0.7959730562936876  0.0190154119892800
  0.7080176053922057  0.2869096411450187  0.4633901954974005
  0.2067468823426578  0.2031974655251037  0.5180098409848580
  0.0553092251228227  0.5033912724147626  0.2477263602802353
  0.9497970233852475  0.4912554658136072  0.7523623708188584
  0.5467769217716992  0.0318590597485159  0.7499507130711679
  0.4486333654296545  0.9744204210667002  0.2495761013088366
  0.6930635067872976  0.3056989635799999  0.0416736284330467
  0.3014086392747825  0.7065399490362143  0.9578336725152020
  0.2981410446271736  0.7087534213128698  0.5350791729856379
  0.7992525793161223  0.7920264044806731  0.4806140691064652
 
  0.00000000E+00  0.00000000E+00  0.00000000E+00
  0.00000000E+00  0.00000000E+00  0.00000000E+00
  0.00000000E+00  0.00000000E+00  0.00000000E+00
  0.00000000E+00  0.00000000E+00  0.00000000E+00
  0.00000000E+00  0.00000000E+00  0.00000000E+00
  0.00000000E+00  0.00000000E+00  0.00000000E+00
  0.00000000E+00  0.00000000E+00  0.00000000E+00
  0.00000000E+00  0.00000000E+00  0.00000000E+00
  0.00000000E+00  0.00000000E+00  0.00000000E+00
  0.00000000E+00  0.00000000E+00  0.00000000E+00
  0.00000000E+00  0.00000000E+00  0.00000000E+00
  0.00000000E+00  0.00000000E+00  0.00000000E+00
  0.00000000E+00  0.00000000E+00  0.00000000E+00
  0.00000000E+00  0.00000000E+00  0.00000000E+00
  0.00000000E+00  0.00000000E+00  0.00000000E+00
  0.00000000E+00  0.00000000E+00  0.00000000E+00
  0.00000000E+00  0.00000000E+00  0.00000000E+00
  0.00000000E+00  0.00000000E+00  0.00000000E+00
  0.00000000E+00  0.00000000E+00  0.00000000E+00
  0.00000000E+00  0.00000000E+00  0.00000000E+00
