Na4 Co4 O8 F4                           
   1.00000000000000     
     5.4753253857468893    0.2915458021235320   -0.0156363344479816
     0.2483976094645811    5.5103229954396289    0.0125500053853776
    -0.0002875065579402    0.0030233040105017    7.0607891019857387
   Na   Co   O    F 
     4     4     8     4
Direct
  0.0022104664114293  0.0147460168949275  0.2401388092329666
  0.0214536852426118  0.9381702356930915  0.7443596506538629
  0.4896777584622776  0.4647296252974420  0.7533932290963848
  0.4850212518362679  0.5515746131119669  0.2494877688775106
  0.5041608351209429  0.0034748363914248  0.0014165393953221
  0.9943931313129144  0.4910353483273004  0.9972366741259503
  0.5093644136005615  0.0180479483851300  0.5029098550182715
  0.9557361830897240  0.4441760241659434  0.5053874638863421
  0.0685061788986684  0.4814141866288187  0.2573873412234406
  0.9100352685003249  0.5325901315713820  0.7435730594667679
  0.5813813101739149  0.0194727504842027  0.7484008096376324
  0.4369863225024584 -0.0007894472710785  0.2558182109853673
  0.1955448398081651  0.2329409724654492  0.9529861427175476
  0.8052276174691902  0.7590794085879229  0.0420222349137479
  0.6956774833217368  0.2863760540472989  0.4606747474936331
  0.2035640432998694  0.2275263365503444  0.5434975493736903
  0.6997281263926386  0.2872333308324559  0.0440999599410961
  0.2987615436550157  0.7213535459182565  0.9648430512430279
  0.3274246625138774  0.7408682278240198  0.5414776865178956
  0.8151448783874040  0.7859798540937027  0.4508892161995411
 
  0.00000000E+00  0.00000000E+00  0.00000000E+00
  0.00000000E+00  0.00000000E+00  0.00000000E+00
  0.00000000E+00  0.00000000E+00  0.00000000E+00
  0.00000000E+00  0.00000000E+00  0.00000000E+00
  0.00000000E+00  0.00000000E+00  0.00000000E+00
  0.00000000E+00  0.00000000E+00  0.00000000E+00
  0.00000000E+00  0.00000000E+00  0.00000000E+00
  0.00000000E+00  0.00000000E+00  0.00000000E+00
  0.00000000E+00  0.00000000E+00  0.00000000E+00
  0.00000000E+00  0.00000000E+00  0.00000000E+00
  0.00000000E+00  0.00000000E+00  0.00000000E+00
  0.00000000E+00  0.00000000E+00  0.00000000E+00
  0.00000000E+00  0.00000000E+00  0.00000000E+00
  0.00000000E+00  0.00000000E+00  0.00000000E+00
  0.00000000E+00  0.00000000E+00  0.00000000E+00
  0.00000000E+00  0.00000000E+00  0.00000000E+00
  0.00000000E+00  0.00000000E+00  0.00000000E+00
  0.00000000E+00  0.00000000E+00  0.00000000E+00
  0.00000000E+00  0.00000000E+00  0.00000000E+00
  0.00000000E+00  0.00000000E+00  0.00000000E+00
