Mn2 O2 F4                               
   1.00000000000000     
    -2.9281351174748771   -4.6948878259948055    0.1603042927243790
    -5.5406520368827925   -0.2023409207474609    0.1531697622299399
    -2.6700963181843105   -1.5555443910563280   -4.4027419087422999
   Na   Mn   O    F 
     2     2     2     4
Direct
  0.2219121507873622  0.2858130306474359  0.2289058064962277
  0.7865809097678317  0.7249833987421139  0.7297090934930001
  0.0049395365820478  0.0032228017069912  0.9597042995616533
  0.5061963071623355  0.5042659779960876  0.5137985649277523
  0.1844010106364096  0.6957677987568582  0.7993062398246263
  0.8170650479150429  0.3232611995589687  0.6710424910294051
  0.2125755008189320  0.7014243068308638  0.2833794661217441
  0.6441156700324664  0.8655649719496867  0.2411099188499898
  0.3639088619702308  0.1445316528157632  0.7449141319987703
  0.8043050043273476  0.2971648609952371  0.1901299876968327
 
  0.00000000E+00  0.00000000E+00  0.00000000E+00
  0.00000000E+00  0.00000000E+00  0.00000000E+00
  0.00000000E+00  0.00000000E+00  0.00000000E+00
  0.00000000E+00  0.00000000E+00  0.00000000E+00
  0.00000000E+00  0.00000000E+00  0.00000000E+00
  0.00000000E+00  0.00000000E+00  0.00000000E+00
  0.00000000E+00  0.00000000E+00  0.00000000E+00
  0.00000000E+00  0.00000000E+00  0.00000000E+00
  0.00000000E+00  0.00000000E+00  0.00000000E+00
  0.00000000E+00  0.00000000E+00  0.00000000E+00
