Fe8 O8 F16                              
    1.000000000000000     
     7.7103078853487661   -0.0034661604888823    0.0216169715916179
     0.0034531493667258    7.6680550074127325   -0.0021044624687483
    -0.0054242019846752   -0.0013463599016140    7.6593823725718320
   Fe   O    F 
     8     8    16
Direct
  0.9997508120910439  0.0001098216398177  0.9997288967640117
  0.9999493282641083  0.0000883621965073  0.4996494280462827
  0.0002369100055546  0.4998463144778782  0.9862562809668702
  0.0000378347337673  0.4999971784900410  0.5152512259518147
  0.4996936426558563  0.0130135053224407  0.0003740591018300
  0.4999277348239275  0.9997873329903229  0.4994398658494461
  0.5000098768695835  0.4854042502672797  0.0002002454162309
  0.4999411649187238  0.5004309199192605  0.4996752184584565
  0.9985904937122925  0.9996375719904194  0.2489068627235227
  0.4994778746861641  0.2427529204532846  0.9989096469230034
  0.0015088795606957  0.9983439673917047  0.7497586379538816
  0.9998306841565352  0.4996152338440751  0.2585289269897117
  0.0006196782211276  0.5007806492751712  0.7424713947628163
  0.4986553105777887  0.2501998565971348  0.5092321330998502
  0.5003398836000486  0.7580732531532703  0.9982255723906945
  0.4989303264327489  0.7500332917868135  0.5076141911627019
  0.5012349356024330  0.9881927155425601  0.7509588563608247
  0.2495811492458273  0.0021139739352805  0.4822743336846642
  0.2484693721877917  0.4982514726352605  0.4874686998219460
  0.7507868878347779  0.4977403902136359  0.0089842085391396
  0.7514986713656882  0.4987212433874149  0.4910405237133944
  0.9997558709625736  0.7494308208943039  0.9862297337654553
  0.5001346378026241  0.9855356317220583  0.2498703998667935
  0.4993989937259471  0.5134110663565679  0.2493360661021882
  0.5016562683884587  0.5110640985904027  0.7516909967535454
  0.2500988620624938  0.0027419102344552  0.0118705756597777
  0.2494864918168176  0.4981533935169367  0.0084214760119181
  0.7495427391958955  0.0038242548917466  0.0111482075751823
  0.7503874401491544  0.0022780705415002  0.4871515687751966
  0.0003340774246325  0.2503103840500316  0.9839943698084141
  0.9998267541298773  0.2497292032168659  0.5133872153411758
  0.0003064127950267  0.7503869404755648  0.5119501816592660
 
  0.00000000E+00  0.00000000E+00  0.00000000E+00
  0.00000000E+00  0.00000000E+00  0.00000000E+00
  0.00000000E+00  0.00000000E+00  0.00000000E+00
  0.00000000E+00  0.00000000E+00  0.00000000E+00
  0.00000000E+00  0.00000000E+00  0.00000000E+00
  0.00000000E+00  0.00000000E+00  0.00000000E+00
  0.00000000E+00  0.00000000E+00  0.00000000E+00
  0.00000000E+00  0.00000000E+00  0.00000000E+00
  0.00000000E+00  0.00000000E+00  0.00000000E+00
  0.00000000E+00  0.00000000E+00  0.00000000E+00
  0.00000000E+00  0.00000000E+00  0.00000000E+00
  0.00000000E+00  0.00000000E+00  0.00000000E+00
  0.00000000E+00  0.00000000E+00  0.00000000E+00
  0.00000000E+00  0.00000000E+00  0.00000000E+00
  0.00000000E+00  0.00000000E+00  0.00000000E+00
  0.00000000E+00  0.00000000E+00  0.00000000E+00
  0.00000000E+00  0.00000000E+00  0.00000000E+00
  0.00000000E+00  0.00000000E+00  0.00000000E+00
  0.00000000E+00  0.00000000E+00  0.00000000E+00
  0.00000000E+00  0.00000000E+00  0.00000000E+00
  0.00000000E+00  0.00000000E+00  0.00000000E+00
  0.00000000E+00  0.00000000E+00  0.00000000E+00
  0.00000000E+00  0.00000000E+00  0.00000000E+00
  0.00000000E+00  0.00000000E+00  0.00000000E+00
  0.00000000E+00  0.00000000E+00  0.00000000E+00
  0.00000000E+00  0.00000000E+00  0.00000000E+00
  0.00000000E+00  0.00000000E+00  0.00000000E+00
  0.00000000E+00  0.00000000E+00  0.00000000E+00
  0.00000000E+00  0.00000000E+00  0.00000000E+00
  0.00000000E+00  0.00000000E+00  0.00000000E+00
  0.00000000E+00  0.00000000E+00  0.00000000E+00
  0.00000000E+00  0.00000000E+00  0.00000000E+00
