Na4 Ti4 O8 F4                           
   1.00000000000000     
     6.1183060080931595   -0.0106683107830053   -0.0791959564111495
    -0.0331029971182897    6.1168036258701211   -0.0767891543636619
    -0.1180511607641990   -0.1920218022109910    7.6510864964656955
   Na   Ti   O    F 
     8     4     8     4
Direct
  0.6270730735444290  0.6492198178135360  0.7032047223830301
  0.3470354536942957  0.3647043742909841  0.7812020229664618
  0.6656061367570564  0.6426599426838179  0.2349199990753672
  0.3613253814742785  0.3477948907932155  0.2520980653806380
  0.8698200991133769  0.1209795328200422  0.6817530077491371
  0.1461892092411531  0.8368461603402139  0.7909878400867159
  0.8531575374605677  0.1132152681554902  0.2891406639349345
  0.1513220564778807  0.8272612079280878  0.1798192251880932
  0.5167596528747775  0.0231411523602209  0.0018023058405227
  0.9669695455642041  0.3903203256321687  0.0009065222319294
  0.4589652143714000  0.0517922198624772  0.5002984066285112
  0.9904597921603344  0.4858808079671877  0.5005995228345719
  0.0203202032584785  0.4976045239400250  0.2472174666356714
  0.9753702376793566  0.4989724470049485  0.7631785720455780
  0.5246126527354562  0.0088013645287880  0.7481924052652389
  0.4844488095480739  0.9706275109884025  0.2554071815696277
  0.6653555237057492  0.3172950645751627  0.0414225896091205
  0.1926255917427995  0.1615152725378497  0.9931205681421080
  0.6718491096489040  0.3263946923208622  0.4883318668163610
  0.1708439183472311  0.2010122623288882  0.5089782139728319
  0.3767654890864849  0.6873857793931131  0.9700542097036842
  0.8214963241637147  0.8578416761829725  0.0343297869801245
  0.2853503207279756  0.6971163493789471  0.5372451367483395
  0.8221786666220122  0.8083773561726002  0.4957896982114083
 
  0.00000000E+00  0.00000000E+00  0.00000000E+00
  0.00000000E+00  0.00000000E+00  0.00000000E+00
  0.00000000E+00  0.00000000E+00  0.00000000E+00
  0.00000000E+00  0.00000000E+00  0.00000000E+00
  0.00000000E+00  0.00000000E+00  0.00000000E+00
  0.00000000E+00  0.00000000E+00  0.00000000E+00
  0.00000000E+00  0.00000000E+00  0.00000000E+00
  0.00000000E+00  0.00000000E+00  0.00000000E+00
  0.00000000E+00  0.00000000E+00  0.00000000E+00
  0.00000000E+00  0.00000000E+00  0.00000000E+00
  0.00000000E+00  0.00000000E+00  0.00000000E+00
  0.00000000E+00  0.00000000E+00  0.00000000E+00
  0.00000000E+00  0.00000000E+00  0.00000000E+00
  0.00000000E+00  0.00000000E+00  0.00000000E+00
  0.00000000E+00  0.00000000E+00  0.00000000E+00
  0.00000000E+00  0.00000000E+00  0.00000000E+00
  0.00000000E+00  0.00000000E+00  0.00000000E+00
  0.00000000E+00  0.00000000E+00  0.00000000E+00
  0.00000000E+00  0.00000000E+00  0.00000000E+00
  0.00000000E+00  0.00000000E+00  0.00000000E+00
  0.00000000E+00  0.00000000E+00  0.00000000E+00
  0.00000000E+00  0.00000000E+00  0.00000000E+00
  0.00000000E+00  0.00000000E+00  0.00000000E+00
  0.00000000E+00  0.00000000E+00  0.00000000E+00
