Sodium trimanganese decafluoride        
   1.00000000000000     
    13.1193278581954562   -0.0025005331563582   -0.0007684938271130
    -0.0029061729609863   15.6502231309134192   -0.0004068313582387
    -0.0014466664580397   -0.0001484547504536    7.3425465460301549
   Na   Mn   F 
     8    24    80
Direct
  0.9995069215236955  0.0000175270449636  0.9955441908574562
  0.2495081180209375  0.2499097440149788  0.2456298529164871
  0.9995052103894994  0.5000166536175727  0.4955484290144923
  0.2495098390267808  0.7499052963300433  0.7456388994362071
  0.4995068585652085  0.0000174849090482  0.4955443198295856
  0.7495081217503335  0.2499097372470132  0.7456298614259330
  0.4995051083823502  0.5000165938494620  0.9955486670814054
  0.7495098660721099  0.7499052121073012  0.2456390596266450
  0.0000207577564378  0.0000059985747506  0.5084504285905089
  0.2500172795105226  0.2499931144061774  0.7584258814602366
  0.0000209024413110  0.5000063209477063  0.0084511147056533
  0.2500174272831648  0.7499933129246745  0.2584258703880272
  0.5000207649729178  0.0000059927368666  0.0084504380757266
  0.7500172791122260  0.2499931118874346  0.2584258774212541
  0.5000209117494987  0.5000063174294126  0.5084511308623787
  0.7500174257854882  0.7499933093252311  0.7584258739952858
  0.9994268204744442  0.2501524110013751  0.0069126926007242
  0.0006118286074969  0.7498671540598272  0.0068904800035289
  0.2494518312441716  0.9998245922587151  0.2569269224851094
  0.2505886355384708  0.5001475757365673  0.2569110222437080
  0.9994266950957119  0.7501523220270161  0.5069125200065132
  0.0006124418866440  0.2498664837734084  0.5068899173386814
  0.2494519080863791  0.4998243518503927  0.7569245470792765
  0.2505889016210818  0.0001469259715570  0.7569124434276924
  0.4994268155278617  0.2501523978689196  0.5069127062477848
  0.5006118275970927  0.7498671399185148  0.5068904860701154
  0.7494518557541878  0.9998245863337002  0.7569268981593664
  0.7505886346528794  0.5001475717220738  0.7569110155187410
  0.4994266880477271  0.7501523026001357  0.0069125390751978
  0.5006124363279434  0.2498664631475692  0.0068899193736248
  0.7494519442393929  0.4998243400812071  0.2569245165048731
  0.7505888985754431  0.0001469144260248  0.2569124340284081
  0.9998950681293830  0.1358162339457287  0.0088963787552414
  0.0001303176593111  0.8642144749658073  0.0088374897859134
  0.2500619631111458  0.1141202063158971  0.2590278429045696
  0.2499587228020189  0.3858222889849426  0.2589380908896710
  0.9998953434863035  0.6358153256177387  0.5088957312103549
  0.0001298812337927  0.3642136319331793  0.5088385075295099
  0.2500685992677906  0.6141193930879738  0.7590224467628157
  0.2499645684803056  0.8858211546318232  0.7589439382522271
  0.4998950950288547  0.1358162012880121  0.5088963656655401
  0.5001303489669573  0.8642144416644215  0.5088375550738859
  0.7500620253288215  0.1141201971002252  0.7590278138735116
  0.7499586551576195  0.3858222848929842  0.7589380871439184
  0.4998953704904942  0.6358152781055886  0.0088957104201645
  0.5001299093491377  0.3642135843233767  0.0088385926950092
  0.7500686819555563  0.6141193654431113  0.2590224504385174
  0.7499645028429250  0.8858211329932456  0.2589438922353476
  0.2012410387881551  0.0012488680605591  0.0065789350329028
  0.7989599938534580  0.9987575449105108  0.0066076153283566
  0.4512221914790484  0.2488064987416113  0.2565414452997289
  0.0490007612682826  0.2512159355689380  0.2565676820410563
  0.2012404472211561  0.5012493026483035  0.5065768770290223
  0.7989600772280967  0.4987572665667964  0.5066063066041973
  0.4512215140523248  0.7488059355906925  0.7565402407961960
  0.0489993253534134  0.7512168389597101  0.7565696707368446
  0.7012410279346011  0.0012488733761056  0.5065788940985541
  0.2989599722030567  0.9987575610455817  0.5066075886833608
  0.9512221901841948  0.2488065235308705  0.7565414189951591
  0.5490007632965719  0.2512159229142102  0.7565676757872613
  0.7012404269874775  0.5012493159213257  0.0065768232769753
  0.2989600401352591  0.4987572912486880  0.0066062528904694
  0.9512215120361623  0.7488059553011789  0.2565402206760871
  0.5489993293117085  0.7512168165546564  0.2565696699778415
  0.8483462721825703  0.2490763473450167  0.4421537654076477
  0.1516437287903596  0.7509144961870440  0.4420967884146718
  0.0983344070955636  0.0009876795080259  0.6921985588655308
  0.4016752478560126  0.4990720792010961  0.6921803690392893
  0.8483453779260548  0.7490772089499480  0.9421544320530405
  0.1516447822109048  0.2509150504227514  0.9420983248295417
  0.0983338561331256  0.5009896777138511  0.1922016062228611
  0.4016764078852866  0.9990740190294309  0.1921827652818992
  0.3483462734354951  0.2490763554321682  0.9421537729280213
  0.6516437253449268  0.7509144877864661  0.9420967742093335
  0.5983343577427773  0.0009876879194671  0.1921986539532636
  0.9016752644043583  0.4990720630427329  0.1921804272089027
  0.3483453805297462  0.7490772220892310  0.4421544349560034
  0.6516447836347499  0.2509150480848920  0.4420983152749444
  0.5983337974365741  0.5009896868710295  0.6922017241794026
  0.9016764285966963  0.9990740065869009  0.6921828190680029
  0.0001240991987563  0.6323456553486553  0.0047117924348612
 -0.0000227317110649  0.3676832234347006  0.0049239850947847
  0.2502732219892914  0.6176784612063015  0.2547340388311215
  0.2498368570928997  0.8823115466676865  0.2548647357742954
  0.0001262602525798  0.1323451764976435  0.5047113593871589
 -0.0000243163607665  0.8676827192252058  0.5049222458608899
  0.2502703009232214  0.1176781489658393  0.7547376341118068
  0.2498312360583649  0.3823111320965300  0.7548671355212825
  0.5001240813831340  0.6323456426782889  0.5047117707686180
  0.4999772483279569  0.3676832132048710  0.5049240352203173
  0.7502732392645520  0.6176784579809572  0.7547339726924770
  0.7498368403316625  0.8823115463989619  0.7548646887915178
  0.5001262393867842  0.1323451558648684  0.0047113349917881
  0.4999756613014779  0.8676827021765607  0.0049222945526087
  0.7502703197411504  0.1176781421331844  0.2547375818968579
  0.7498312193320230  0.3823111272278307  0.2548670817717001
  0.3484439982724771  0.2515180768917116  0.5750786984570009
  0.6516501801561589  0.7485082711686862  0.5748500243248819
  0.5984654183406554  0.9985291134937470  0.8251644557141321
  0.9016244052803378  0.5014546911927293  0.8249424078215469
  0.3484445696544002  0.7515176428536043  0.0750782392927234
  0.6516498008190961  0.2485092238424282  0.0748504585633692
  0.5984672391344616  0.4985334934519975  0.3251684815079616
  0.9016241949357419  0.0014563829460414  0.3249428085586100
  0.8484440036522507  0.2515181091905737  0.0750786887921570
  0.1516501807697667  0.7485083013980319  0.0748500338184716
  0.0984653567446832  0.9985291160430858  0.3251643545207488
  0.4016244150234605  0.5014546887031727  0.3249423910596113
  0.8484445738488056  0.7515176742549627  0.5750782282049284
  0.1516498026991722  0.2485092543433581  0.5748504664485747
  0.0984671564704698  0.4985334992593365  0.8251683491871111
  0.4016242122380853  0.0014563873249315  0.8249427793929309
 
  0.00000000E+00  0.00000000E+00  0.00000000E+00
  0.00000000E+00  0.00000000E+00  0.00000000E+00
  0.00000000E+00  0.00000000E+00  0.00000000E+00
  0.00000000E+00  0.00000000E+00  0.00000000E+00
  0.00000000E+00  0.00000000E+00  0.00000000E+00
  0.00000000E+00  0.00000000E+00  0.00000000E+00
  0.00000000E+00  0.00000000E+00  0.00000000E+00
  0.00000000E+00  0.00000000E+00  0.00000000E+00
  0.00000000E+00  0.00000000E+00  0.00000000E+00
  0.00000000E+00  0.00000000E+00  0.00000000E+00
  0.00000000E+00  0.00000000E+00  0.00000000E+00
  0.00000000E+00  0.00000000E+00  0.00000000E+00
  0.00000000E+00  0.00000000E+00  0.00000000E+00
  0.00000000E+00  0.00000000E+00  0.00000000E+00
  0.00000000E+00  0.00000000E+00  0.00000000E+00
  0.00000000E+00  0.00000000E+00  0.00000000E+00
  0.00000000E+00  0.00000000E+00  0.00000000E+00
  0.00000000E+00  0.00000000E+00  0.00000000E+00
  0.00000000E+00  0.00000000E+00  0.00000000E+00
  0.00000000E+00  0.00000000E+00  0.00000000E+00
  0.00000000E+00  0.00000000E+00  0.00000000E+00
  0.00000000E+00  0.00000000E+00  0.00000000E+00
  0.00000000E+00  0.00000000E+00  0.00000000E+00
  0.00000000E+00  0.00000000E+00  0.00000000E+00
  0.00000000E+00  0.00000000E+00  0.00000000E+00
  0.00000000E+00  0.00000000E+00  0.00000000E+00
  0.00000000E+00  0.00000000E+00  0.00000000E+00
  0.00000000E+00  0.00000000E+00  0.00000000E+00
  0.00000000E+00  0.00000000E+00  0.00000000E+00
  0.00000000E+00  0.00000000E+00  0.00000000E+00
  0.00000000E+00  0.00000000E+00  0.00000000E+00
  0.00000000E+00  0.00000000E+00  0.00000000E+00
  0.00000000E+00  0.00000000E+00  0.00000000E+00
  0.00000000E+00  0.00000000E+00  0.00000000E+00
  0.00000000E+00  0.00000000E+00  0.00000000E+00
  0.00000000E+00  0.00000000E+00  0.00000000E+00
  0.00000000E+00  0.00000000E+00  0.00000000E+00
  0.00000000E+00  0.00000000E+00  0.00000000E+00
  0.00000000E+00  0.00000000E+00  0.00000000E+00
  0.00000000E+00  0.00000000E+00  0.00000000E+00
  0.00000000E+00  0.00000000E+00  0.00000000E+00
  0.00000000E+00  0.00000000E+00  0.00000000E+00
  0.00000000E+00  0.00000000E+00  0.00000000E+00
  0.00000000E+00  0.00000000E+00  0.00000000E+00
  0.00000000E+00  0.00000000E+00  0.00000000E+00
  0.00000000E+00  0.00000000E+00  0.00000000E+00
  0.00000000E+00  0.00000000E+00  0.00000000E+00
  0.00000000E+00  0.00000000E+00  0.00000000E+00
  0.00000000E+00  0.00000000E+00  0.00000000E+00
  0.00000000E+00  0.00000000E+00  0.00000000E+00
  0.00000000E+00  0.00000000E+00  0.00000000E+00
  0.00000000E+00  0.00000000E+00  0.00000000E+00
  0.00000000E+00  0.00000000E+00  0.00000000E+00
  0.00000000E+00  0.00000000E+00  0.00000000E+00
  0.00000000E+00  0.00000000E+00  0.00000000E+00
  0.00000000E+00  0.00000000E+00  0.00000000E+00
  0.00000000E+00  0.00000000E+00  0.00000000E+00
  0.00000000E+00  0.00000000E+00  0.00000000E+00
  0.00000000E+00  0.00000000E+00  0.00000000E+00
  0.00000000E+00  0.00000000E+00  0.00000000E+00
  0.00000000E+00  0.00000000E+00  0.00000000E+00
  0.00000000E+00  0.00000000E+00  0.00000000E+00
  0.00000000E+00  0.00000000E+00  0.00000000E+00
  0.00000000E+00  0.00000000E+00  0.00000000E+00
  0.00000000E+00  0.00000000E+00  0.00000000E+00
  0.00000000E+00  0.00000000E+00  0.00000000E+00
  0.00000000E+00  0.00000000E+00  0.00000000E+00
  0.00000000E+00  0.00000000E+00  0.00000000E+00
  0.00000000E+00  0.00000000E+00  0.00000000E+00
  0.00000000E+00  0.00000000E+00  0.00000000E+00
  0.00000000E+00  0.00000000E+00  0.00000000E+00
  0.00000000E+00  0.00000000E+00  0.00000000E+00
  0.00000000E+00  0.00000000E+00  0.00000000E+00
  0.00000000E+00  0.00000000E+00  0.00000000E+00
  0.00000000E+00  0.00000000E+00  0.00000000E+00
  0.00000000E+00  0.00000000E+00  0.00000000E+00
  0.00000000E+00  0.00000000E+00  0.00000000E+00
  0.00000000E+00  0.00000000E+00  0.00000000E+00
  0.00000000E+00  0.00000000E+00  0.00000000E+00
  0.00000000E+00  0.00000000E+00  0.00000000E+00
  0.00000000E+00  0.00000000E+00  0.00000000E+00
  0.00000000E+00  0.00000000E+00  0.00000000E+00
  0.00000000E+00  0.00000000E+00  0.00000000E+00
  0.00000000E+00  0.00000000E+00  0.00000000E+00
  0.00000000E+00  0.00000000E+00  0.00000000E+00
  0.00000000E+00  0.00000000E+00  0.00000000E+00
  0.00000000E+00  0.00000000E+00  0.00000000E+00
  0.00000000E+00  0.00000000E+00  0.00000000E+00
  0.00000000E+00  0.00000000E+00  0.00000000E+00
  0.00000000E+00  0.00000000E+00  0.00000000E+00
  0.00000000E+00  0.00000000E+00  0.00000000E+00
  0.00000000E+00  0.00000000E+00  0.00000000E+00
  0.00000000E+00  0.00000000E+00  0.00000000E+00
  0.00000000E+00  0.00000000E+00  0.00000000E+00
  0.00000000E+00  0.00000000E+00  0.00000000E+00
  0.00000000E+00  0.00000000E+00  0.00000000E+00
  0.00000000E+00  0.00000000E+00  0.00000000E+00
  0.00000000E+00  0.00000000E+00  0.00000000E+00
  0.00000000E+00  0.00000000E+00  0.00000000E+00
  0.00000000E+00  0.00000000E+00  0.00000000E+00
  0.00000000E+00  0.00000000E+00  0.00000000E+00
  0.00000000E+00  0.00000000E+00  0.00000000E+00
  0.00000000E+00  0.00000000E+00  0.00000000E+00
  0.00000000E+00  0.00000000E+00  0.00000000E+00
  0.00000000E+00  0.00000000E+00  0.00000000E+00
  0.00000000E+00  0.00000000E+00  0.00000000E+00
  0.00000000E+00  0.00000000E+00  0.00000000E+00
  0.00000000E+00  0.00000000E+00  0.00000000E+00
  0.00000000E+00  0.00000000E+00  0.00000000E+00
  0.00000000E+00  0.00000000E+00  0.00000000E+00
  0.00000000E+00  0.00000000E+00  0.00000000E+00
  0.00000000E+00  0.00000000E+00  0.00000000E+00
