Ti4 O4 F8                               
   1.00000000000000     
     5.2056391983866597    0.0021333476814319   -0.0025097201478079
     0.0040624957277625    5.3367465839457306    0.0070850321535645
    -0.0033918808298985    0.0093188413663000    7.6368725385021454
   Ti   O    F 
     4     4     8
Direct
  0.4941678790229460  0.0236767661710147  0.0002738950067069
  0.9954229838556614  0.4718711588380557  0.0002896034809865
  0.5258744143150196  0.0047306348550151  0.4953121558750979
  0.9756166078727873  0.5063973628498957  0.4947998774456650
  0.7097083817136109  0.2857743276342859  0.0412730400796377
  0.2088392187607369  0.2093943793618607  0.9575023109091561
  0.7091024814954281  0.2910902087647500  0.4647665495393269
  0.7930791651106190  0.7917528946607533  0.4595429004815159
  0.2904229605615924  0.7100831659236420  0.9695663345717307
  0.7888623579891743  0.7846995015762133  0.0370335454951558
  0.2911389136713609  0.7128581589955374  0.5379835201714300
  0.2115090184872273  0.2136378299119741  0.5396200893851244
  0.0887057641161206  0.4882741347733059  0.2502488558045428
  0.9274163290848989  0.5222664084574689  0.7502956332128221
  0.5776749634678424  0.9999936859351806  0.7507629207213213
  0.4124585604749669  0.9834993812910469  0.2507287678197798
 
  0.00000000E+00  0.00000000E+00  0.00000000E+00
  0.00000000E+00  0.00000000E+00  0.00000000E+00
  0.00000000E+00  0.00000000E+00  0.00000000E+00
  0.00000000E+00  0.00000000E+00  0.00000000E+00
  0.00000000E+00  0.00000000E+00  0.00000000E+00
  0.00000000E+00  0.00000000E+00  0.00000000E+00
  0.00000000E+00  0.00000000E+00  0.00000000E+00
  0.00000000E+00  0.00000000E+00  0.00000000E+00
  0.00000000E+00  0.00000000E+00  0.00000000E+00
  0.00000000E+00  0.00000000E+00  0.00000000E+00
  0.00000000E+00  0.00000000E+00  0.00000000E+00
  0.00000000E+00  0.00000000E+00  0.00000000E+00
  0.00000000E+00  0.00000000E+00  0.00000000E+00
  0.00000000E+00  0.00000000E+00  0.00000000E+00
  0.00000000E+00  0.00000000E+00  0.00000000E+00
  0.00000000E+00  0.00000000E+00  0.00000000E+00
