Mn8 O8 F16                              
   1.00000000000000     
     7.1773501610671717   -0.0000000792725598   -0.0000000326654401
    -0.0000000797345000    7.6940041836294988    0.0006119971680190
    -0.0000000284065708    0.0006115932056194    7.6996486446783123
   Mn   O    F 
     8     8    16
Direct
  0.9999780843599382  0.9999999984658388  0.9999999986267625
  0.9999803008316448  0.9999999999820659  0.5000000072468751
  0.9999793910631567  0.5000000088192067  0.9999999921053870
  0.9999890666842646  0.5000000001837961  0.4999999953157541
  0.4999897857837325  0.9999999989879456  0.9999999988596002
  0.4999892038373730  0.9999999969950863  0.4999999942183209
  0.4999970400880258  0.4999999983981596  0.0000000083714866
  0.4999776845720945  0.5000000014145272  0.5000000059020735
  0.2500064901748189  0.9999999971376852  0.4999999894581819
  0.2500089565866759  0.5000000081079463  0.4999999807154367
  0.7500060824821304  0.4999999996805542  0.9999999945474585
  0.7500063027475505  0.4999999916891369  0.5000000052481752
  0.2500074217613886  0.9999999989846415  0.0000000057519571
  0.2500101380215796  0.5000000017551471  0.0000000132583864
  0.7500072269384077  0.0000000030366678  0.0000000003820588
  0.7500094256566285  0.9999999955579852  0.5000000057837184
  0.0000180580067664  0.9999910165750805  0.2500437965209343
  0.4999872752106214  0.0000089838696624  0.7499565017947774
  0.9999673246441532  0.7500050269172505  0.0000157938560648
  0.5000418325528102  0.2499957889485955  0.9999842045271876
  0.0000180577852049  0.0000089925701019  0.7499562052310225
  0.9999753389977712  0.5000143056086728  0.2499862655711027
  0.9999753384325132  0.4999856866886248  0.7500137345609943
  0.4999872854802305  0.9999910155920944  0.2500434985036932
  0.5000296992490192  0.5000142728916828  0.2499871489624326
  0.5000296968643099  0.4999857272802757  0.7500128526477141
  0.9999673250262262  0.2499949753305373  0.9999842054415637
  0.9999979061823865  0.2499400785087005  0.5000065138630276
  0.9999979027374692  0.7500599213474288  0.4999934878147769
  0.5000112640889824  0.2499420028735244  0.5000065551423702
  0.5000418357229819  0.7500042083960565  0.0000157916185088
  0.5000112574291435  0.7500579974053068  0.4999934481521819
 
  0.00000000E+00  0.00000000E+00  0.00000000E+00
  0.00000000E+00  0.00000000E+00  0.00000000E+00
  0.00000000E+00  0.00000000E+00  0.00000000E+00
  0.00000000E+00  0.00000000E+00  0.00000000E+00
  0.00000000E+00  0.00000000E+00  0.00000000E+00
  0.00000000E+00  0.00000000E+00  0.00000000E+00
  0.00000000E+00  0.00000000E+00  0.00000000E+00
  0.00000000E+00  0.00000000E+00  0.00000000E+00
  0.00000000E+00  0.00000000E+00  0.00000000E+00
  0.00000000E+00  0.00000000E+00  0.00000000E+00
  0.00000000E+00  0.00000000E+00  0.00000000E+00
  0.00000000E+00  0.00000000E+00  0.00000000E+00
  0.00000000E+00  0.00000000E+00  0.00000000E+00
  0.00000000E+00  0.00000000E+00  0.00000000E+00
  0.00000000E+00  0.00000000E+00  0.00000000E+00
  0.00000000E+00  0.00000000E+00  0.00000000E+00
  0.00000000E+00  0.00000000E+00  0.00000000E+00
  0.00000000E+00  0.00000000E+00  0.00000000E+00
  0.00000000E+00  0.00000000E+00  0.00000000E+00
  0.00000000E+00  0.00000000E+00  0.00000000E+00
  0.00000000E+00  0.00000000E+00  0.00000000E+00
  0.00000000E+00  0.00000000E+00  0.00000000E+00
  0.00000000E+00  0.00000000E+00  0.00000000E+00
  0.00000000E+00  0.00000000E+00  0.00000000E+00
  0.00000000E+00  0.00000000E+00  0.00000000E+00
  0.00000000E+00  0.00000000E+00  0.00000000E+00
  0.00000000E+00  0.00000000E+00  0.00000000E+00
  0.00000000E+00  0.00000000E+00  0.00000000E+00
  0.00000000E+00  0.00000000E+00  0.00000000E+00
  0.00000000E+00  0.00000000E+00  0.00000000E+00
  0.00000000E+00  0.00000000E+00  0.00000000E+00
  0.00000000E+00  0.00000000E+00  0.00000000E+00
