Na8 V8 O16 F8                           
   1.00000000000000     
     7.7814091490971027    0.0000962902864577   -0.0000980294362804
     0.0001132772280722    7.5211014132106957   -0.0002807902249585
    -0.0000936434027299   -0.0000710281637530    7.5267359326602925
   Na   V    O    F 
     8     8    16     8
Direct
  0.2497881115204455  0.2455636536648236  0.2404808467218259
  0.2498588917604451  0.2456890837252748  0.7589132315128401
  0.2498542007332414  0.7543572475196316  0.2411888568349851
  0.2498736910547083  0.7544606294778585  0.7593950542202887
  0.7473553685455625  0.2499676343577469  0.2410060788985572
  0.7473722470444459  0.2500240690916545  0.7590839672516294
  0.7473564452272802  0.7500551009133961  0.2410016670341368
  0.7473410995956314  0.7500856203426410  0.7589378084769872
  0.0007913250132294  0.0001114516400427  0.0000439498033317
  0.9739684722817153  0.0001607462530549  0.5000734174774426
  0.9886451431828326  0.5001502211070206 -0.0000063485903618
  0.0023364299034315  0.5000821212645796  0.4999958844314551
  0.4987430328894193  0.0001535623153197 -0.0000007248962750
  0.5031643323464989  0.9995830848456146  0.5000066087480692
  0.5189492875962560  0.5002051565211776  0.9999225440112216
  0.5000891084054796  0.4987946856593020  0.4999430949665369
  0.2498255537225764  0.0000517144701848  0.0000042806236321
  0.7500820571699776  0.0000649095010260 -0.0000087496671708
  0.7522471442288418  0.0000371379649294  0.5000293471562215
  0.7498910311606292  0.5000928296676759 -0.0000162377756739
  0.0005375540367335  0.2571683414745883  0.4990031704115321
  0.0005292939355465  0.7428782804795198  0.5010341783776064
  0.4984146268430729  0.2511601516894387  0.9993722597711289
  0.4983727421647046  0.2389865650158352  0.5008219609861188
  0.4983911564342737  0.7488893075074140  0.0006047528944566
  0.4983884454616939  0.7606890786393656  0.4991814701763768
  0.0005049064331264  0.9991431674602427  0.2524848496565859
  0.0005256457908152  0.0010411339592560  0.7475268636621191
  0.0059622767980048  0.5012327222918114  0.2387582585677610
  0.0059605592642183  0.4989227950110341  0.7612490584963237
  0.5049826777385451  0.4992908298741270  0.2545872984684566
  0.5049815985580460  0.5005444114668567  0.7453784531528341
  0.2462383764454837  0.0000186319184003  0.5000025861443842
  0.2527225939068600  0.5000810202511309  0.9999914962655265
  0.2504936354240602  0.4999603448930882  0.5000010184846478
  0.7527374492558246  0.4999259521619234  0.4999932946315382
  0.0089189583894431  0.2512200371461165  0.0014997341031613
  0.0089184259810605  0.7490191077698243  0.9985108564951393
  0.4924633562350489  0.0011484687827141  0.2508117853318064
  0.4924227475207827  0.9989889919043364  0.7491920766827963
 
  0.00000000E+00  0.00000000E+00  0.00000000E+00
  0.00000000E+00  0.00000000E+00  0.00000000E+00
  0.00000000E+00  0.00000000E+00  0.00000000E+00
  0.00000000E+00  0.00000000E+00  0.00000000E+00
  0.00000000E+00  0.00000000E+00  0.00000000E+00
  0.00000000E+00  0.00000000E+00  0.00000000E+00
  0.00000000E+00  0.00000000E+00  0.00000000E+00
  0.00000000E+00  0.00000000E+00  0.00000000E+00
  0.00000000E+00  0.00000000E+00  0.00000000E+00
  0.00000000E+00  0.00000000E+00  0.00000000E+00
  0.00000000E+00  0.00000000E+00  0.00000000E+00
  0.00000000E+00  0.00000000E+00  0.00000000E+00
  0.00000000E+00  0.00000000E+00  0.00000000E+00
  0.00000000E+00  0.00000000E+00  0.00000000E+00
  0.00000000E+00  0.00000000E+00  0.00000000E+00
  0.00000000E+00  0.00000000E+00  0.00000000E+00
  0.00000000E+00  0.00000000E+00  0.00000000E+00
  0.00000000E+00  0.00000000E+00  0.00000000E+00
  0.00000000E+00  0.00000000E+00  0.00000000E+00
  0.00000000E+00  0.00000000E+00  0.00000000E+00
  0.00000000E+00  0.00000000E+00  0.00000000E+00
  0.00000000E+00  0.00000000E+00  0.00000000E+00
  0.00000000E+00  0.00000000E+00  0.00000000E+00
  0.00000000E+00  0.00000000E+00  0.00000000E+00
  0.00000000E+00  0.00000000E+00  0.00000000E+00
  0.00000000E+00  0.00000000E+00  0.00000000E+00
  0.00000000E+00  0.00000000E+00  0.00000000E+00
  0.00000000E+00  0.00000000E+00  0.00000000E+00
  0.00000000E+00  0.00000000E+00  0.00000000E+00
  0.00000000E+00  0.00000000E+00  0.00000000E+00
  0.00000000E+00  0.00000000E+00  0.00000000E+00
  0.00000000E+00  0.00000000E+00  0.00000000E+00
  0.00000000E+00  0.00000000E+00  0.00000000E+00
  0.00000000E+00  0.00000000E+00  0.00000000E+00
  0.00000000E+00  0.00000000E+00  0.00000000E+00
  0.00000000E+00  0.00000000E+00  0.00000000E+00
  0.00000000E+00  0.00000000E+00  0.00000000E+00
  0.00000000E+00  0.00000000E+00  0.00000000E+00
  0.00000000E+00  0.00000000E+00  0.00000000E+00
  0.00000000E+00  0.00000000E+00  0.00000000E+00
