Na4 V4 O8 F4                            
   1.00000000000000     
     5.3067999655469658    0.0280375428906722   -0.0003110818653887
     0.0371022262808299    5.3459305143868008    0.0116289052626579
    -0.0128662555319747   -0.0041268377442698    7.5108988962150205
   Na   V    O    F 
     4     4     8     4
Direct
  0.9955591878768721  0.0206151822422326  0.2457080213595232
  0.0078953864464389  0.9665439619852523  0.7485157960889094
  0.5079304826278246  0.4821794451906378  0.7629834492533238
  0.5075523553382471  0.5452334649731346  0.2400148161963759
  0.4968098679032140  0.0185924355156915  0.9851060834537656
  0.0269390351561177  0.4881640208458108  0.0000200227800709
  0.5030506867642276  0.0006520954493130  0.5123614928209597
 -0.0008738241959535  0.4984603915487391  0.5000869013598712
  0.0570098329402302  0.4958415067224481  0.2584889863637290
  0.9438553122015729  0.5121875071249860  0.7386576813523572
  0.5751621884284789  0.0135541256488168  0.7517265977433073
  0.7035143809020282  0.2658373982811465  0.0406840200081623
  0.2799529622098849  0.7274924715237392  0.9722037778211770
  0.2078755992858186  0.2198450446452882  0.9645639175772845
  0.7741074338953129  0.8021790727115909  0.4643963979211944
  0.2191189803122628  0.1962809028719042  0.5255584157006008
  0.4180220102659550  0.9743799932586880  0.2500779560782430
  0.7785316424226018  0.7725465806730578  0.0374931003870965
  0.3055251855928978  0.6953815032688747  0.5449345912281147
  0.6924612936259744  0.3040328955186408  0.4564179745059332
 
  0.00000000E+00  0.00000000E+00  0.00000000E+00
  0.00000000E+00  0.00000000E+00  0.00000000E+00
  0.00000000E+00  0.00000000E+00  0.00000000E+00
  0.00000000E+00  0.00000000E+00  0.00000000E+00
  0.00000000E+00  0.00000000E+00  0.00000000E+00
  0.00000000E+00  0.00000000E+00  0.00000000E+00
  0.00000000E+00  0.00000000E+00  0.00000000E+00
  0.00000000E+00  0.00000000E+00  0.00000000E+00
  0.00000000E+00  0.00000000E+00  0.00000000E+00
  0.00000000E+00  0.00000000E+00  0.00000000E+00
  0.00000000E+00  0.00000000E+00  0.00000000E+00
  0.00000000E+00  0.00000000E+00  0.00000000E+00
  0.00000000E+00  0.00000000E+00  0.00000000E+00
  0.00000000E+00  0.00000000E+00  0.00000000E+00
  0.00000000E+00  0.00000000E+00  0.00000000E+00
  0.00000000E+00  0.00000000E+00  0.00000000E+00
  0.00000000E+00  0.00000000E+00  0.00000000E+00
  0.00000000E+00  0.00000000E+00  0.00000000E+00
  0.00000000E+00  0.00000000E+00  0.00000000E+00
  0.00000000E+00  0.00000000E+00  0.00000000E+00
