Fe2 O2 F4                               
   1.00000000000000     
    -2.5593258007421729   -4.4485885744501239    0.0789190554280994
    -5.0783395749933984   -0.0301963680816765   -0.0333069691944933
    -2.5660633577630798   -1.3688320462970289   -4.3325535095857086
   Fe   O    F 
     2     2     4
Direct
  0.0023996713273746  0.0071274119468754  0.9848239688083069
  0.5091546652455605  0.4985898337152364  0.5053836594212697
  0.6496629231437865  0.8376788740088017  0.2819524074942734
  0.7204642623259332  0.3774844835984936  0.7450888070622881
  0.2755079399856584  0.6425462694498592  0.2409211228433747
  0.3601224827790546  0.1471216955395676  0.7416414027258256
  0.1182054172755826  0.7521259907647035  0.7525884168017072
  0.8644826379170567  0.2373254409764627  0.2476002148429544
 
  0.00000000E+00  0.00000000E+00  0.00000000E+00
  0.00000000E+00  0.00000000E+00  0.00000000E+00
  0.00000000E+00  0.00000000E+00  0.00000000E+00
  0.00000000E+00  0.00000000E+00  0.00000000E+00
  0.00000000E+00  0.00000000E+00  0.00000000E+00
  0.00000000E+00  0.00000000E+00  0.00000000E+00
  0.00000000E+00  0.00000000E+00  0.00000000E+00
  0.00000000E+00  0.00000000E+00  0.00000000E+00
