Na4 Mn4 O8 F4                           
   1.00000000000000     
     5.1513705963366814   -0.0908577172892235   -0.0225403307574772
    -0.0897548398521673    5.2262192776705154    0.0174939391939976
    -0.0305906789166881    0.0332189039043753    7.4609123449452879
   Na   Mn   O    F 
     4     4     8     4
Direct
  0.9871759939484548  0.0414838798534390  0.2554286625672862
  0.0166750038908718  0.9467879812375828  0.7529060560925500
  0.4889615934117860  0.4666093192002094  0.7498889053352981
  0.5132392264513906  0.5438584059234461  0.2482491613708473
  0.5144273680953590  0.9868970004005103  0.9842682466441443
  0.9853951946341051  0.5135238705632311  0.0146579032499412
  0.4837695690948441  0.0142445963947088  0.5122873278757765
  0.0127328638181211  0.4858330943531077  0.4864131780072231
  0.7049872127285999  0.2940122835538078  0.0382837247362138
  0.2910918047353854  0.7116236338350462  0.9574317383696308
  0.7971320735338895  0.7983181660517504  0.0438149915902394
  0.2879318745546625  0.7112240852323148  0.5393126636280022
  0.7054517007221680  0.2898547898662271  0.4564555980550481
  0.1972154722859315  0.2031391353847227  0.5443282036895136
  0.0872702560355404  0.4821874678872808  0.2489265434675533
  0.5896624153453313  0.0208306090840312  0.7471997967618592
  0.2070115382193359  0.2074392248985933  0.9594323311709307
  0.7894143524447611  0.7855370346994065  0.4596142650262992
  0.9208406156146223  0.5139336898317908  0.7512646061602410
  0.4196138704348610  0.9826617317488006  0.2498360962014089
 
  0.00000000E+00  0.00000000E+00  0.00000000E+00
  0.00000000E+00  0.00000000E+00  0.00000000E+00
  0.00000000E+00  0.00000000E+00  0.00000000E+00
  0.00000000E+00  0.00000000E+00  0.00000000E+00
  0.00000000E+00  0.00000000E+00  0.00000000E+00
  0.00000000E+00  0.00000000E+00  0.00000000E+00
  0.00000000E+00  0.00000000E+00  0.00000000E+00
  0.00000000E+00  0.00000000E+00  0.00000000E+00
  0.00000000E+00  0.00000000E+00  0.00000000E+00
  0.00000000E+00  0.00000000E+00  0.00000000E+00
  0.00000000E+00  0.00000000E+00  0.00000000E+00
  0.00000000E+00  0.00000000E+00  0.00000000E+00
  0.00000000E+00  0.00000000E+00  0.00000000E+00
  0.00000000E+00  0.00000000E+00  0.00000000E+00
  0.00000000E+00  0.00000000E+00  0.00000000E+00
  0.00000000E+00  0.00000000E+00  0.00000000E+00
  0.00000000E+00  0.00000000E+00  0.00000000E+00
  0.00000000E+00  0.00000000E+00  0.00000000E+00
  0.00000000E+00  0.00000000E+00  0.00000000E+00
  0.00000000E+00  0.00000000E+00  0.00000000E+00
