Ni8 O8 F16                              
   1.00000000000000     
     7.5141003363174095   -0.0058483454111832   -0.0024602026063622
    -0.0116921322154185    7.5468447513849535    0.0097351269231842
     0.0015550010458565    0.0114367249859846    7.4606251090372657
   Ni   O    F 
     8     8    16
Direct
  0.9999825922576685  0.0000353956245321  0.0005556093466650
  0.9997210715160701  0.0002030599081084  0.5004640350614618
  0.0006659136890021  0.5000620720362956  0.0000376811003135
  0.9992674298676902  0.5000938954084080  0.4999856998078483
  0.5000008696840752  0.9999524346043049  0.9997387854974598
  0.5014800661590343  0.0026861619570786  0.4995804413685805
  0.5002066857801747  0.4994228553522075  0.0000131863103035
  0.4998151780678809  0.5009160533570962  0.5001289339228298
  0.0003876644433059  0.5001961164809479  0.2505260613786631
 -0.0000518485721804  0.5003079383772239  0.7495569276018889
  0.4997825595129470  0.4988955499792965  0.2515141880147445
  0.5000381064517121  0.4992975702609490  0.7483244151117012
  0.2495228107490699  0.9999583152546178  0.0003477078671838
  0.7506791483522189  0.0001608709413697  0.9998038363461463
  0.7590742020983471  0.0014305735792067  0.5011745944263110
  0.4991273571801875  0.2427679753824906  0.4969658103946852
  0.0013223452644866  0.0002237629697598  0.2559478352667472
  0.4980527473188635  0.0007586914925263  0.7438422838564587
  0.2427268700907061  0.0038757195435376  0.4999571840199896
  0.2519322830340346  0.4956759867086071  0.5006517320098447
  0.7477529405355822  0.5012623207865050  0.0004348159112532
  0.7469315609917053  0.4959285531112369  0.4994569039933486
  0.0012194554565279  0.7503744279651564  0.0003976058160043
  0.4995239105597344  0.2468962880008645  0.9995583183562153
  0.0021377046061585  0.0006768446432315  0.7448445251198420
  0.4996000945737162  0.9984089613426835  0.2555449002801951
  0.2529265997160488  0.4992907764833204  0.9998522766352760
 -0.0000932730445908  0.2498982557865801  0.0000262522790788
  0.9928279327254887  0.2515297692077094  0.5004285400358838
  0.9953508527740255  0.7486337471478498  0.5000150094281436
  0.5022599438296461  0.7527776677299794 -0.0000721367112920
  0.5058282243306764  0.7574013885763261  0.5003960401462466
 
  0.00000000E+00  0.00000000E+00  0.00000000E+00
  0.00000000E+00  0.00000000E+00  0.00000000E+00
  0.00000000E+00  0.00000000E+00  0.00000000E+00
  0.00000000E+00  0.00000000E+00  0.00000000E+00
  0.00000000E+00  0.00000000E+00  0.00000000E+00
  0.00000000E+00  0.00000000E+00  0.00000000E+00
  0.00000000E+00  0.00000000E+00  0.00000000E+00
  0.00000000E+00  0.00000000E+00  0.00000000E+00
  0.00000000E+00  0.00000000E+00  0.00000000E+00
  0.00000000E+00  0.00000000E+00  0.00000000E+00
  0.00000000E+00  0.00000000E+00  0.00000000E+00
  0.00000000E+00  0.00000000E+00  0.00000000E+00
  0.00000000E+00  0.00000000E+00  0.00000000E+00
  0.00000000E+00  0.00000000E+00  0.00000000E+00
  0.00000000E+00  0.00000000E+00  0.00000000E+00
  0.00000000E+00  0.00000000E+00  0.00000000E+00
  0.00000000E+00  0.00000000E+00  0.00000000E+00
  0.00000000E+00  0.00000000E+00  0.00000000E+00
  0.00000000E+00  0.00000000E+00  0.00000000E+00
  0.00000000E+00  0.00000000E+00  0.00000000E+00
  0.00000000E+00  0.00000000E+00  0.00000000E+00
  0.00000000E+00  0.00000000E+00  0.00000000E+00
  0.00000000E+00  0.00000000E+00  0.00000000E+00
  0.00000000E+00  0.00000000E+00  0.00000000E+00
  0.00000000E+00  0.00000000E+00  0.00000000E+00
  0.00000000E+00  0.00000000E+00  0.00000000E+00
  0.00000000E+00  0.00000000E+00  0.00000000E+00
  0.00000000E+00  0.00000000E+00  0.00000000E+00
  0.00000000E+00  0.00000000E+00  0.00000000E+00
  0.00000000E+00  0.00000000E+00  0.00000000E+00
  0.00000000E+00  0.00000000E+00  0.00000000E+00
  0.00000000E+00  0.00000000E+00  0.00000000E+00
