Na15 Ti16 O16 F32                       
   1.00000000000000     
    11.1132181218945387    0.1371781402009302   -0.0272571706177734
     0.1684060656091229   11.2877698154738368   -0.0175438049302925
     0.0148510118066678    0.0151360817708652    7.8423370912834436
   Na   Ti   O    F 
    15    16    16    32
Direct
  0.4845782688655864  0.4911504719967128  0.9089104609668258
  0.9983461319193514  0.0147925395412922  0.2541940216631016
  0.9912772420332948  0.5158764873514390  0.2574744738517821
  0.4984560597578193  0.0103419121510293  0.2558181746472982
  0.0025319784050497  0.4818465150347061  0.7459348736635436
  0.0007922586666141  0.9864347251904293  0.7463437948866163
  0.4994422199856217  0.9881622671593293  0.7436536523344177
  0.2493493661032720  0.2289713755821356  0.7494758148136945
  0.2555559352233959  0.7192072109659688  0.7498356364842503
  0.7418695845313550  0.2297844235291206  0.7534171860954225
  0.7464107251202738  0.7242384821722280  0.7451190618850513
  0.2539203795903763  0.2722152844574209  0.2581494860638179
  0.2533366050426960  0.7614354899475207  0.2468919708288994
  0.7385531661236163  0.2721061625259590  0.2535717088658981
  0.7416742193170653  0.7627929231169207  0.2550724901793733
  0.2355395720047359  0.0018813884977620  0.0155619105168561
  0.2291421592957563  0.5023045393719121  0.0187264377352428
  0.7419677133211410  0.0058737183523450  0.0150056440864507
  0.7447550363951546  0.5094161116055606  0.0183146731871209
  0.0004999748651628  0.2392073025007365  0.9803034914361884
  0.0045883263207510  0.7438485365286296  0.9800698042193556
  0.4992219678177295  0.2320834499103397  0.9851975252747623
  0.5083882436495580  0.7477368930572557  0.9835427045207179
  0.2369437542063677  0.0029533205843629  0.4867729998815547
  0.2409164407219031  0.5047183021904241  0.4882076611402188
  0.7388620394387835  0.0066446926538048  0.4858274022491250
  0.7359595465406925  0.5056198425464437  0.4870842927618974
  0.0015759203673016  0.2401635837864696  0.5186374921956606
  0.0057507108691724  0.7408855711517885  0.5224956537858617
  0.5011642569551393  0.2431073861586314  0.5207388466709463
  0.5041954511161787  0.7398153916564765  0.5200552002268716
  0.1036415278194843  0.1040779790265599  0.9694182700264614
  0.1035737126186423  0.6082170574776561  0.9630132394522419
  0.6090348091373604  0.1042115932253536  0.9661140909727757
  0.6211875043502670  0.6207597265422509  0.9733943954024956
  0.1040553934963583  0.1047335979066904  0.5301975254774252
  0.1075008591118604  0.6063869167687066  0.5415820362928142
  0.6066595475282921  0.1071167210817186  0.5312840737676651
  0.6116899312011610  0.6122930044533264  0.5327245538725671
  0.4633033026478918  0.2509592166662469  0.7535714202789371
  0.4681152963679971  0.7637387409816816  0.7513645244552130
  0.9582785116405519  0.2528306618500381  0.7494647538875492
  0.9595760548045436  0.7617603695285594  0.7517323765350733
  0.2088829439010519  0.4935583832177757  0.2532292999626685
  0.2159088503293364  0.9818940345218454  0.2514737118690447
  0.7309770214954424  0.4890601241340998  0.2522062228693088
  0.7206479505287019  0.9862117829029079  0.2494754809874745
  0.3525321810275204  0.1377245113894023  0.0563878331349929
  0.3564791701763109  0.6426984636180211  0.0374684039788776
  0.8484934638351496  0.1539146589855775  0.0555853821231764
  0.8585542883047902  0.6523219714729068  0.0594461512487538
  0.1417180558951306  0.3531870513839691  0.9430747185415175
  0.1567260210756584  0.8472110696473496  0.9474101751852340
  0.6433800600914945  0.3566342533202618  0.9635333864836201
  0.6578328255672952  0.8552547876160048  0.9474853069589370
  0.3713251802569886  0.3709211551248334  0.0444945209540908
  0.3986249576866197  0.8986749672571898  0.0344823810422015
  0.9023164099322349  0.3997808987596975  0.0300078413563270
  0.9077216077935837  0.9054015605476370  0.0340503666109127
  0.1486478568343205  0.3510924868018074  0.5493854835673718
  0.1536927783126093  0.8500429253179645  0.5554367218185303
  0.6540272916556167  0.3479524703821756  0.5381677032065986
  0.6542791687391410  0.8526452506961975  0.5455434255315601
  0.3509632158702820  0.1453438602004306  0.4544330848034340
  0.3480231439034842  0.6535845235554277  0.4643553888861526
  0.8510445515172533  0.1505773690886961  0.4446382933235050
  0.8545518875687661  0.6497824403786905  0.4542638877514042
  0.3852233655095810  0.3847763306561106  0.4636960872996003
  0.4003442062161697  0.9011851218655694  0.4712699205389622
  0.9024691191398145  0.3995950991678107  0.4711143318004115
  0.9037595129021103  0.9014048872097702  0.4679227798042168
  0.0371862862839154  0.2512067585154222  0.2491913524663631
  0.0400707898638329  0.7523414133300074  0.2521550567750295
  0.5321188700664367  0.2398148921618972  0.2500949904754270
  0.5323010760853041  0.7666374679264041  0.2524098270879980
  0.2905784846453793  0.0158160899282751  0.7517647344457355
  0.2929815193658202  0.5070693870955238  0.7586874955398143
  0.7955022291019447  0.0187318638516123  0.7495721798665915
  0.7954018213449403  0.5128725945923304  0.7506171422032438
 
             NaN             NaN             NaN
             NaN             NaN             NaN
             NaN             NaN             NaN
             NaN             NaN             NaN
             NaN             NaN             NaN
             NaN             NaN             NaN
             NaN             NaN             NaN
             NaN             NaN             NaN
             NaN             NaN             NaN
             NaN             NaN             NaN
             NaN             NaN             NaN
             NaN             NaN             NaN
             NaN             NaN             NaN
             NaN             NaN             NaN
             NaN             NaN             NaN
             NaN             NaN             NaN
             NaN             NaN             NaN
             NaN             NaN             NaN
             NaN             NaN             NaN
             NaN             NaN             NaN
             NaN             NaN             NaN
             NaN             NaN             NaN
             NaN             NaN             NaN
             NaN             NaN             NaN
             NaN             NaN             NaN
             NaN             NaN             NaN
             NaN             NaN             NaN
             NaN             NaN             NaN
             NaN             NaN             NaN
             NaN             NaN             NaN
             NaN             NaN             NaN
             NaN             NaN             NaN
             NaN             NaN             NaN
             NaN             NaN             NaN
             NaN             NaN             NaN
             NaN             NaN             NaN
             NaN             NaN             NaN
             NaN             NaN             NaN
             NaN             NaN             NaN
             NaN             NaN             NaN
             NaN             NaN             NaN
             NaN             NaN             NaN
             NaN             NaN             NaN
             NaN             NaN             NaN
             NaN             NaN             NaN
             NaN             NaN             NaN
             NaN             NaN             NaN
             NaN             NaN             NaN
             NaN             NaN             NaN
             NaN             NaN             NaN
             NaN             NaN             NaN
             NaN             NaN             NaN
             NaN             NaN             NaN
             NaN             NaN             NaN
             NaN             NaN             NaN
             NaN             NaN             NaN
             NaN             NaN             NaN
             NaN             NaN             NaN
             NaN             NaN             NaN
             NaN             NaN             NaN
             NaN             NaN             NaN
             NaN             NaN             NaN
             NaN             NaN             NaN
             NaN             NaN             NaN
             NaN             NaN             NaN
             NaN             NaN             NaN
             NaN             NaN             NaN
             NaN             NaN             NaN
             NaN             NaN             NaN
             NaN             NaN             NaN
             NaN             NaN             NaN
             NaN             NaN             NaN
             NaN             NaN             NaN
             NaN             NaN             NaN
             NaN             NaN             NaN
             NaN             NaN             NaN
             NaN             NaN             NaN
             NaN             NaN             NaN
             NaN             NaN             NaN
