Na15 Ti16 O16 F32
1.0
  11.1132181218945387    0.1371781402009302   -0.0272571706177734
   0.1684060656091229   11.2877698154738368   -0.0175438049302925
   0.0148510118066678    0.0151360817708652    7.8423370912834436
Na Ti O F
15 16 16 32
direct
   0.4985491165876678    0.4918644335174880   -0.0834313232104713 Na
   0.9974671769847421    0.0146011669974256    0.2501809229620424 Na
   0.9960771487512865    0.5134898759219971    0.2492814477869965 Na
   0.4975743878755846    0.0124794829900937    0.2498129739478845 Na
   0.0015197431039492    0.4834230069966750    0.7507582062909655 Na
   1.0003763433650095    0.9844679068182435    0.7503120367870788 Na
   0.4995748202759541    0.9862543677048363    0.7498787171488999 Na
   0.2503629903514538    0.2277212186458931    0.7502519803195723 Na
   0.2522314377350494    0.7226419907118877    0.7499020409752641 Na
   0.7464927313535800    0.2261441103249471    0.7493525329924883 Na
   0.7469032771050983    0.7231787069755043    0.7503886209022134 Na
   0.2546762636982249    0.2750260574936146    0.2504882645791772 Na
   0.2491194720621863    0.7658218008377595    0.2496320382926459 Na
   0.7423632148896711    0.2693056829178321    0.2487955754648609 Na
   0.7439938351714120    0.7668161510606873    0.2483700463876657 Na
   0.2372504050683569    0.0037206904290975    0.0145313638415646 Ti
   0.2391540138668293    0.5048393442457432    0.0145581101814405 Ti
   0.7377848695594000    0.0046214724513501    0.0145641056912584 Ti
   0.7363270294009805    0.5046926843830796    0.0139218201260758 Ti
   0.0026953330464718    0.2403187610290327    0.9807302376744093 Ti
   0.0032596827358238    0.7401766954885228    0.9799003559684351 Ti
   0.5017640010682149    0.2408365422394017    0.9811665786950272 Ti
   0.5031657162301725    0.7389478145336770    0.9797602626955553 Ti
   0.2373343031302206    0.0036294974211618    0.4864943546948224 Ti
   0.2388421841322901    0.5051731264619922    0.4860310671986472 Ti
   0.7379344396917286    0.0050782265451293    0.4861502430721767 Ti
   0.7375906155971406    0.5045843896906741    0.4842432769245043 Ti
   0.0029890243726269    0.2403295744900690    0.5190491990221493 Ti
   0.0030617916074423    0.7402528295115692    0.5201712581787532 Ti
   0.5020781200203283    0.2414928873067535    0.5184678369860096 Ti
   0.5043284913526651    0.7387511777619225    0.5174670793468548 Ti
   0.1039445948224361    0.1041397437814455    0.9679695963504504 O
   0.1048503934502123    0.6052443640015770    0.9655304768850098 O
   0.6052042252608579    0.1046880333359315    0.9682770827252178 O
   0.6074053709716409    0.6076998299693079    0.9653763090775591 O
   0.1041076954744176    0.1041314466938550    0.5326120256199895 O
   0.1042225577359381    0.6048678583180470    0.5350212958079271 O
   0.6058767124584918    0.1056978129144229    0.5322690965950585 O
   0.6069276306726642    0.6088794136607976    0.5346848995154776 O
   0.4638983709704054    0.2539507940901879    0.7499683467481798 O
   0.4652055079887947    0.7617771203635799    0.7521582609062255 O
   0.9613153446538988    0.2569771472898295    0.7497800958761451 O
   0.9605041806529449    0.7596839081835008    0.7501068249407306 O
   0.2156627234661114    0.4917391023344781    0.2502400759714736 O
   0.2178199265988076    0.9845608199207905    0.2505431961563325 O
   0.7246404430951046    0.4870717679268246    0.2496946839151011 O
   0.7185671505567637    0.9867845275505588    0.2504448095026790 O
   0.3495862810251116    0.1484755067175868    0.0492009403425213 F
   0.3485168813526772    0.6528316600782841    0.0413290989270879 F
   0.8499912586826502    0.1505730249310668    0.0513617415676016 F
   0.8507046813796014    0.6505942552543305    0.0483357863745359 F
   0.1515114258425388    0.3500064969049185    0.9523528816003117 F
   0.1538445117631779    0.8486648547635047    0.9503810591747448 F
   0.6534516499530177    0.3476459474489642    0.9570984149183099 F
   0.6546519343243249    0.8485535111452492    0.9555240839897464 F
   0.3920306578025981    0.3913101816013654    0.0331074939245659 F
   0.4010070945409583    0.9005893920334066    0.0325805674096858 F
   0.9021724929815572    0.4002367598723666    0.0318139001714877 F
   0.9029028713060692    0.9009782644359878    0.0347193663761607 F
   0.1522896911398200    0.3495663438595641    0.5472143157326504 F
   0.1540143920047928    0.8484934014531224    0.5504319600394476 F
   0.6524689010816894    0.3494452707207937    0.5428197585889802 F
   0.6534851149105292    0.8504192786259480    0.5476284977028955 F
   0.3502031287320123    0.1480879726448536    0.4514578785653144 F
   0.3475482606335215    0.6537515014514427    0.4607140955389141 F
   0.8498597391164042    0.1511017655027834    0.4486313514038451 F
   0.8501537381942079    0.6511336956296222    0.4514415618904155 F
   0.3923407398091658    0.3919014997262745    0.4669409480013852 F
   0.4023428723842546    0.8997805271779502    0.4688301940630325 F
   0.9021571701195350    0.4003252030172552    0.4678369342643328 F
   0.9030298484621628    0.9013736064323725    0.4662179906732555 F
   0.0363720194140073    0.2505795516016228    0.2498788135444617 F
   0.0354327023725113    0.7497680822800631    0.2500450474058330 F
   0.5328435160209493    0.2438782233128236    0.2497727234091295 F
   0.5324181232683682    0.7581324624596300    0.2480960669396267 F
   0.2917645162585322    0.0149738788184470    0.7502066869395460 F
   0.2895438283344789    0.5128538130250809    0.7501201692600840 F
   0.7931469332438855    0.0151267497319642    0.7503040412707914 F
   0.7933892145238322    0.5123679531021599    0.7495483214707627 F
