Na4 Cr4 O8 F4                           
   1.00000000000000     
     5.3049578888859079    0.1060019546093686    0.0292866362994401
     0.1333470275035190    5.4258076785795009    0.0112008181769838
    -0.0161056630842276   -0.0330213447773090    7.1930325535459909
   Na   Cr   O    F 
     4     4     8     4
Direct
  0.0028529051135868  0.0054155157932605  0.2447022369906644
  0.0037212249904284  0.9526091016036201  0.7545910199013495
  0.5021790311221425  0.4688908114947422  0.7510533833201599
  0.4967485309023309  0.5530722478050996  0.2511361160517100
  0.5025779169627035  0.0041337227177113  0.9986125769936253
  0.0014234165297438  0.5001907628354546 -0.0001449454019748
  0.4946923232008419  0.0189345720407677  0.5005004391456533
  0.9794903216549998  0.4443052873747432  0.4978435140553017
  0.0622623881099738  0.5018422442513928  0.2683980074236948
  0.9471476090132847  0.5198684085900019  0.7320351987646635
  0.5723490422122324  0.0340426700728182  0.7466477868833522
  0.4366683792405103  0.9819639775959611  0.2528086434419162
  0.2108323342440183  0.2119731032885614  0.9723354145871496
  0.7865719299938366  0.7887396925256518  0.0256913407232453
  0.6994713663948573  0.2996895416643988  0.4599474154194861
  0.1876883801965659  0.1920748790979771  0.5335144764149166
  0.7076187431093992  0.2974888681282115  0.0401750166775734
  0.2938420435410053  0.7100587489025689  0.9628039538998219
  0.3164808924035662  0.7129089322427646  0.5420062358731367
  0.7953812210639656  0.8017969119742853  0.4653421688345545
 
  0.00000000E+00  0.00000000E+00  0.00000000E+00
  0.00000000E+00  0.00000000E+00  0.00000000E+00
  0.00000000E+00  0.00000000E+00  0.00000000E+00
  0.00000000E+00  0.00000000E+00  0.00000000E+00
  0.00000000E+00  0.00000000E+00  0.00000000E+00
  0.00000000E+00  0.00000000E+00  0.00000000E+00
  0.00000000E+00  0.00000000E+00  0.00000000E+00
  0.00000000E+00  0.00000000E+00  0.00000000E+00
  0.00000000E+00  0.00000000E+00  0.00000000E+00
  0.00000000E+00  0.00000000E+00  0.00000000E+00
  0.00000000E+00  0.00000000E+00  0.00000000E+00
  0.00000000E+00  0.00000000E+00  0.00000000E+00
  0.00000000E+00  0.00000000E+00  0.00000000E+00
  0.00000000E+00  0.00000000E+00  0.00000000E+00
  0.00000000E+00  0.00000000E+00  0.00000000E+00
  0.00000000E+00  0.00000000E+00  0.00000000E+00
  0.00000000E+00  0.00000000E+00  0.00000000E+00
  0.00000000E+00  0.00000000E+00  0.00000000E+00
  0.00000000E+00  0.00000000E+00  0.00000000E+00
  0.00000000E+00  0.00000000E+00  0.00000000E+00
