Na4 Mn4 O8 F4                           
   1.00000000000000     
     5.4716440212644883    0.2732603331542948   -0.0124971433743470
     0.2818752813070966    5.4605521244343649    0.1155145412334302
    -0.0428952377913538   -0.1164700373260298    7.2741473565988422
   Na   Mn   O    F 
     4     4     8     4
Direct
  0.0080787514712644  0.0070438010711632  0.2515774058072278
  0.0031821756225038  0.0022583523540333  0.7451361227669362
  0.5221652611835017  0.4709274903150965  0.7523941353127332
  0.4733021041283844  0.5264138012560713  0.2562631546552986
  0.4890722252939841  0.0089870695345046  0.0019494926002942
  0.0031608303170049  0.4978709823294712  0.9975718726195223
  0.4966165366645029  0.0037221321550412  0.5029472922263252
  0.0078265688772205  0.4898871199735277  0.4976610497639030
  0.0490146578443165  0.5511484980127395  0.2507850083402752
  0.9348230025868066  0.4841361668509646  0.7440596201956051
  0.5608506757671310  0.0427227699344538  0.7546795503176970
  0.4760263454343697  0.9413137002885203  0.2500399189289770
  0.1940976183129523  0.1940572269637763  0.9936142242319703
  0.7932198786586450  0.8020546494934254  0.0038317094146369
  0.7997290399127582  0.7876782253719150  0.4995146347211337
  0.1933659894761580  0.1943412243092783  0.5039639568345508
  0.6656786282759165  0.2843422365159863  0.0459857543960629
  0.3195751555401973  0.7270500604196172  0.9527859875732695
  0.2817594718358605  0.6688848247607118  0.5446532905893244
  0.7284550827965213  0.3151596680897022  0.4505858187042628
 
  0.00000000E+00  0.00000000E+00  0.00000000E+00
  0.00000000E+00  0.00000000E+00  0.00000000E+00
  0.00000000E+00  0.00000000E+00  0.00000000E+00
  0.00000000E+00  0.00000000E+00  0.00000000E+00
  0.00000000E+00  0.00000000E+00  0.00000000E+00
  0.00000000E+00  0.00000000E+00  0.00000000E+00
  0.00000000E+00  0.00000000E+00  0.00000000E+00
  0.00000000E+00  0.00000000E+00  0.00000000E+00
  0.00000000E+00  0.00000000E+00  0.00000000E+00
  0.00000000E+00  0.00000000E+00  0.00000000E+00
  0.00000000E+00  0.00000000E+00  0.00000000E+00
  0.00000000E+00  0.00000000E+00  0.00000000E+00
  0.00000000E+00  0.00000000E+00  0.00000000E+00
  0.00000000E+00  0.00000000E+00  0.00000000E+00
  0.00000000E+00  0.00000000E+00  0.00000000E+00
  0.00000000E+00  0.00000000E+00  0.00000000E+00
  0.00000000E+00  0.00000000E+00  0.00000000E+00
  0.00000000E+00  0.00000000E+00  0.00000000E+00
  0.00000000E+00  0.00000000E+00  0.00000000E+00
  0.00000000E+00  0.00000000E+00  0.00000000E+00
