Na4 Ti4 O8 F4                           
   1.00000000000000     
     5.3183095370880276    0.0000002596822040   -0.0252914995352510
     0.0000002624593377    5.4141556309972545   -0.0000000244982451
    -0.0387605896524284   -0.0000000308110484    7.7566244378552485
   Na   Ti   O    F 
     4     4     8     4
Direct
  0.9866319531925196  0.0339581055098043  0.2582696251734931
  0.0160707779842552  0.9636384073428891  0.7450321076549111
  0.4866317196479537  0.4660419314676545  0.7582690216035300
  0.5160706558059442  0.5363613983061204  0.2450318579806978
  0.5206967910046008  0.9924002031083102  0.9872959970215884
  0.9949921075618339  0.5163947725500225  0.0179779598612244
  0.4949922826146627  0.9836052279712096  0.5179780013484179
  0.0206969450604752  0.5075998056538080  0.4872959253250251
  0.7120301018184121  0.2856598994067460  0.0356501166601663
  0.2792640385590192  0.7210746792868264  0.9605103390198236
  0.7847921727066719  0.7865583052611652  0.0475145546304947
  0.2847922473771218  0.7134417546101394  0.5475145509357361
  0.7792641150880011  0.7789253168442911  0.4605104021412668
  0.2120301419552111  0.2143401064261388  0.5356501664216902
  0.0840211592001299  0.4794712087973698  0.2496078965819961
  0.5840210120849665  0.0205288141658703  0.7496079370039741
  0.2082474423949573  0.2157908170857084  0.9497113118234061
  0.7082474764243339  0.2842091288594110  0.4497112689327368
  0.9132533848755844  0.5107636644484234  0.7484304549472609
  0.4132534746433525  0.9892364528980985  0.2484305049325535
 
  0.00000000E+00  0.00000000E+00  0.00000000E+00
  0.00000000E+00  0.00000000E+00  0.00000000E+00
  0.00000000E+00  0.00000000E+00  0.00000000E+00
  0.00000000E+00  0.00000000E+00  0.00000000E+00
  0.00000000E+00  0.00000000E+00  0.00000000E+00
  0.00000000E+00  0.00000000E+00  0.00000000E+00
  0.00000000E+00  0.00000000E+00  0.00000000E+00
  0.00000000E+00  0.00000000E+00  0.00000000E+00
  0.00000000E+00  0.00000000E+00  0.00000000E+00
  0.00000000E+00  0.00000000E+00  0.00000000E+00
  0.00000000E+00  0.00000000E+00  0.00000000E+00
  0.00000000E+00  0.00000000E+00  0.00000000E+00
  0.00000000E+00  0.00000000E+00  0.00000000E+00
  0.00000000E+00  0.00000000E+00  0.00000000E+00
  0.00000000E+00  0.00000000E+00  0.00000000E+00
  0.00000000E+00  0.00000000E+00  0.00000000E+00
  0.00000000E+00  0.00000000E+00  0.00000000E+00
  0.00000000E+00  0.00000000E+00  0.00000000E+00
  0.00000000E+00  0.00000000E+00  0.00000000E+00
  0.00000000E+00  0.00000000E+00  0.00000000E+00
