                                        
   1.00000000000000     
    12.3323757176193016   -0.0000004324482993   -0.0003560264304983
    -0.0000017576917959    7.3291348878355667   -0.0000217017367427
     0.0002335195388888   -0.0000346342297260   11.9355444236017370
   Na   Mn   F 
    20    12    56
Direct
  0.4207899911849182  0.8309928833710885  0.7575025740710117
  0.5791851102109078  0.1689347993221091  0.2575305512786059
  0.9207916951783019  0.6690059988545727  0.7575037908168198
  0.0791842890442354  0.3310657059471680  0.2575308985267171
  0.2288916323266150  0.7316429550828971  0.9932021806048041
  0.7711738919919853  0.2684086853659409  0.4932386351674651
  0.7288901232537057  0.7683561100689928  0.9932020315259891
  0.2711798422862728  0.2315937604782832  0.4932368852200781
  0.0776589789185351  0.8036101410256506  0.2536821094580120
  0.9223153089547651  0.1963138558504838  0.7536653919300491
  0.5776588213275105  0.6963884798004614  0.2536819826317682
  0.4223151756398735  0.3036861826306065  0.7536662835366883
  0.2345695600468289  0.7162928639189730  0.4998746098053743
  0.7653384801057967  0.2836649703889833  0.9998139310905856
  0.7345662487722038  0.7837112800553570  0.4998803391631768
  0.2653350353756707  0.2163409627760160  0.9998167910903817
  0.0206193533505044  0.0278496468372964  0.0354267716858985
  0.9795947055186431  0.9716523240225570  0.5351468617274620
  0.5206120599169282  0.4721307461252380  0.0354188726247955
  0.4795958761613193  0.5283458501342935  0.5351469354292391
  0.3365047962913295  0.4991190762698707  0.2447833814008007
  0.6634941205010989  0.5007762556950510  0.7448012402338264
  0.8365050895861970  0.0008789161228648  0.2447833888359554
  0.1634932482863078  0.9992262546552482  0.7448021093956783
  0.5002004035086358  0.9969840447061529  0.5009253363431725
  0.4997979798734207  0.0030621126752521  0.0009156362125395
  0.0002009363354034  0.5030184984317003  0.5009269196839625
  0.9997980568345781  0.4969356073204310  0.0009141092750014
  0.3126298567770647  0.9988929625750416  0.2466214335670074
  0.6873461812523303  0.0010880237772142  0.7466166989906000
  0.8126299271189552  0.5011052945476777  0.2466224985053387
  0.1873445099036104  0.4989120787127135  0.7466150269567891
  0.9196189266620962  0.4142292203951428  0.3610511790245710
  0.0802225980132718  0.5858236926771099  0.8608790012877847
  0.4196179881488149  0.0857643277682527  0.3610487025323579
  0.5802189850715891  0.9141820459879426  0.8608744985598520
  0.1948562268099678  0.5832923269238748  0.2512787023987144
  0.8052007725036532  0.4165921287647976  0.7513018510572280
  0.6948571347848755  0.9167068495073636  0.2512794750191745
  0.3052000816738669  0.0834092225985330  0.7513033002322089
  0.6172597832810283  0.1293030669251110  0.4469507592803836
  0.3826513093407868  0.8709840404980369  0.9469644605801903
  0.1172628278559600  0.3707104075028269  0.4469487767582478
  0.8826476482866425  0.6290066524164359  0.9469626442417436
  0.1064660601725649  0.2676794212369629  0.7446497230214391
  0.8934972305700128  0.7323793902113849  0.2445985438478999
  0.6064640413909359  0.2323232856150668  0.7446503904751864
  0.3934947788193455  0.7676170527780712  0.2446022056389054
  0.2963674180731033  0.4573672816537737  0.6292367763074154
  0.7036118232852147  0.5425105506892294  0.1292198003318106
  0.7963661285255057  0.0426398815178644  0.6292334737714569
  0.2036107775933615  0.9574843006139275  0.1292197897173963
  0.0555766671823577  0.7162807884161708  0.4364515380587193
  0.9444591159690319  0.2835883552467777  0.9365248527694732
  0.5555795658265694  0.7837252865913698  0.4364497240143024
  0.4444566897904352  0.2164053340533911  0.9365255433538380
  0.4456695509570423  0.2057951807113128  0.5698503958390830
  0.5543167284840465  0.7941164615958698  0.0698104305787268
  0.9456815161214323  0.2941998970314827  0.5698531960151740
  0.0543167504682103  0.7058845277841996  0.0698083283407058
  0.2791563204137617  0.4305559936644201  0.8581783376403607
  0.7207768553380021  0.5696695431334504  0.3580903452147837
  0.7791561900915411  0.0694436792283923  0.8581787281631890
  0.2207714832263719  0.9303336735678656  0.3580877609407267
  0.2449666585719683  0.7495575114738955  0.7583508273940396
  0.7549474590942609  0.2505361397197277  0.2583173837526331
  0.7449692503947389  0.7504457060322309  0.7583482269583328
  0.2549467770878806  0.2494633162367847  0.2583147086186628
  0.5157440134686837  0.5682631468398895  0.7315033896629188
  0.4842761485045486  0.4316383061227711  0.2315754490241702
  0.0157439843756322  0.9317378972033694  0.7315021372915993
  0.9842772419520074  0.0683597171526173  0.2315767163391982
  0.8916549557480025  0.6512542363335001  0.5615710699512917
  0.1084282877520195  0.3489071605547664  0.0615185399639984
  0.3916588910426597  0.8487433075283590  0.5615734039170519
  0.6084289007642951  0.1510964591793993  0.0615164322307677
  0.3324798930692623  0.4965930724186407  0.0880885012282704
  0.6675780407361671  0.5033041889933045  0.5880947119290454
  0.8324794019593327  0.0034043361810490  0.0880891631289700
  0.1675769701452126  0.9967015444736376  0.5880956171096585
  0.1525652908780017  0.0014496257409320  0.9016933746740889
  0.8474691458479313  0.9987034045397891  0.4016800513506027
  0.6525648214790323  0.4985552801454745  0.9016916881342709
  0.3474692208736911  0.5013029941542015  0.4016816964715915
  0.5923815767180400  0.9123736650447185  0.6396709151982876
  0.4076933610601472  0.0876031539788258  0.1397567900645882
  0.0923837610098985  0.5876263395329175  0.6396729730259167
  0.9076947069007417  0.4123883255665959  0.1397562407814306
 
  0.00000000E+00  0.00000000E+00  0.00000000E+00
  0.00000000E+00  0.00000000E+00  0.00000000E+00
  0.00000000E+00  0.00000000E+00  0.00000000E+00
  0.00000000E+00  0.00000000E+00  0.00000000E+00
  0.00000000E+00  0.00000000E+00  0.00000000E+00
  0.00000000E+00  0.00000000E+00  0.00000000E+00
  0.00000000E+00  0.00000000E+00  0.00000000E+00
  0.00000000E+00  0.00000000E+00  0.00000000E+00
  0.00000000E+00  0.00000000E+00  0.00000000E+00
  0.00000000E+00  0.00000000E+00  0.00000000E+00
  0.00000000E+00  0.00000000E+00  0.00000000E+00
  0.00000000E+00  0.00000000E+00  0.00000000E+00
  0.00000000E+00  0.00000000E+00  0.00000000E+00
  0.00000000E+00  0.00000000E+00  0.00000000E+00
  0.00000000E+00  0.00000000E+00  0.00000000E+00
  0.00000000E+00  0.00000000E+00  0.00000000E+00
  0.00000000E+00  0.00000000E+00  0.00000000E+00
  0.00000000E+00  0.00000000E+00  0.00000000E+00
  0.00000000E+00  0.00000000E+00  0.00000000E+00
  0.00000000E+00  0.00000000E+00  0.00000000E+00
  0.00000000E+00  0.00000000E+00  0.00000000E+00
  0.00000000E+00  0.00000000E+00  0.00000000E+00
  0.00000000E+00  0.00000000E+00  0.00000000E+00
  0.00000000E+00  0.00000000E+00  0.00000000E+00
  0.00000000E+00  0.00000000E+00  0.00000000E+00
  0.00000000E+00  0.00000000E+00  0.00000000E+00
  0.00000000E+00  0.00000000E+00  0.00000000E+00
  0.00000000E+00  0.00000000E+00  0.00000000E+00
  0.00000000E+00  0.00000000E+00  0.00000000E+00
  0.00000000E+00  0.00000000E+00  0.00000000E+00
  0.00000000E+00  0.00000000E+00  0.00000000E+00
  0.00000000E+00  0.00000000E+00  0.00000000E+00
  0.00000000E+00  0.00000000E+00  0.00000000E+00
  0.00000000E+00  0.00000000E+00  0.00000000E+00
  0.00000000E+00  0.00000000E+00  0.00000000E+00
  0.00000000E+00  0.00000000E+00  0.00000000E+00
  0.00000000E+00  0.00000000E+00  0.00000000E+00
  0.00000000E+00  0.00000000E+00  0.00000000E+00
  0.00000000E+00  0.00000000E+00  0.00000000E+00
  0.00000000E+00  0.00000000E+00  0.00000000E+00
  0.00000000E+00  0.00000000E+00  0.00000000E+00
  0.00000000E+00  0.00000000E+00  0.00000000E+00
  0.00000000E+00  0.00000000E+00  0.00000000E+00
  0.00000000E+00  0.00000000E+00  0.00000000E+00
  0.00000000E+00  0.00000000E+00  0.00000000E+00
  0.00000000E+00  0.00000000E+00  0.00000000E+00
  0.00000000E+00  0.00000000E+00  0.00000000E+00
  0.00000000E+00  0.00000000E+00  0.00000000E+00
  0.00000000E+00  0.00000000E+00  0.00000000E+00
  0.00000000E+00  0.00000000E+00  0.00000000E+00
  0.00000000E+00  0.00000000E+00  0.00000000E+00
  0.00000000E+00  0.00000000E+00  0.00000000E+00
  0.00000000E+00  0.00000000E+00  0.00000000E+00
  0.00000000E+00  0.00000000E+00  0.00000000E+00
  0.00000000E+00  0.00000000E+00  0.00000000E+00
  0.00000000E+00  0.00000000E+00  0.00000000E+00
  0.00000000E+00  0.00000000E+00  0.00000000E+00
  0.00000000E+00  0.00000000E+00  0.00000000E+00
  0.00000000E+00  0.00000000E+00  0.00000000E+00
  0.00000000E+00  0.00000000E+00  0.00000000E+00
  0.00000000E+00  0.00000000E+00  0.00000000E+00
  0.00000000E+00  0.00000000E+00  0.00000000E+00
  0.00000000E+00  0.00000000E+00  0.00000000E+00
  0.00000000E+00  0.00000000E+00  0.00000000E+00
  0.00000000E+00  0.00000000E+00  0.00000000E+00
  0.00000000E+00  0.00000000E+00  0.00000000E+00
  0.00000000E+00  0.00000000E+00  0.00000000E+00
  0.00000000E+00  0.00000000E+00  0.00000000E+00
  0.00000000E+00  0.00000000E+00  0.00000000E+00
  0.00000000E+00  0.00000000E+00  0.00000000E+00
  0.00000000E+00  0.00000000E+00  0.00000000E+00
  0.00000000E+00  0.00000000E+00  0.00000000E+00
  0.00000000E+00  0.00000000E+00  0.00000000E+00
  0.00000000E+00  0.00000000E+00  0.00000000E+00
  0.00000000E+00  0.00000000E+00  0.00000000E+00
  0.00000000E+00  0.00000000E+00  0.00000000E+00
  0.00000000E+00  0.00000000E+00  0.00000000E+00
  0.00000000E+00  0.00000000E+00  0.00000000E+00
  0.00000000E+00  0.00000000E+00  0.00000000E+00
  0.00000000E+00  0.00000000E+00  0.00000000E+00
  0.00000000E+00  0.00000000E+00  0.00000000E+00
  0.00000000E+00  0.00000000E+00  0.00000000E+00
  0.00000000E+00  0.00000000E+00  0.00000000E+00
  0.00000000E+00  0.00000000E+00  0.00000000E+00
  0.00000000E+00  0.00000000E+00  0.00000000E+00
  0.00000000E+00  0.00000000E+00  0.00000000E+00
  0.00000000E+00  0.00000000E+00  0.00000000E+00
  0.00000000E+00  0.00000000E+00  0.00000000E+00
