Na4 Co4 O8 F4                           
   1.00000000000000     
     5.3242630413959189   -0.2779700877915756    0.0250985654270518
    -0.2898867136023661    5.4619504847824665   -0.0277123561122397
    -0.0723193539592244    0.0114006845664239    7.3844470424264612
   Na   Co   O    F 
     4     4     8     4
Direct
 -0.0014655099657512  0.0581891390976005  0.2534280984553248
 -0.0006112646976898  0.9639827319649933  0.7428682046075799
  0.4777957433197655  0.4555895356258755  0.7529195694444134
  0.5107871716866441  0.5324301782762834  0.2619221821742428
  0.5068151214685874  0.9946072453279484  0.0009698693568134
  0.9834780944027602  0.5095632429968820  0.9815270477383209
  0.5076301815954629  0.9996248947197272  0.5131393715490773
  0.0019352134396400  0.5007896032970252  0.5018720913080904
  0.9298518308695793  0.5232394182129352  0.7478842232889847
  0.5684166729556684  0.0153019922362645  0.7492132583804623
  0.4358193914949074  0.0006850343358586  0.2531001794230752
  0.6907493472147209  0.2712667285347907  0.0397292183103091
  0.3086028132598345  0.7235888376313497  0.9721787514802508
  0.7926320294089932  0.7670832855468450  0.0445546364715433
  0.2782554509468717  0.6973984595658398  0.5244385090636795
  0.7330229614127729  0.3019213651873939  0.4660697544217634
  0.0849583464811285  0.4717323415589683  0.2429406936286906
  0.1825076018670968  0.2101200138276162  0.9592539190237981
  0.7982751082948786  0.7995420596714805  0.4536762015236738
  0.2105436945441155  0.2033438923843151  0.5383142203498990
 
  0.00000000E+00  0.00000000E+00  0.00000000E+00
  0.00000000E+00  0.00000000E+00  0.00000000E+00
  0.00000000E+00  0.00000000E+00  0.00000000E+00
  0.00000000E+00  0.00000000E+00  0.00000000E+00
  0.00000000E+00  0.00000000E+00  0.00000000E+00
  0.00000000E+00  0.00000000E+00  0.00000000E+00
  0.00000000E+00  0.00000000E+00  0.00000000E+00
  0.00000000E+00  0.00000000E+00  0.00000000E+00
  0.00000000E+00  0.00000000E+00  0.00000000E+00
  0.00000000E+00  0.00000000E+00  0.00000000E+00
  0.00000000E+00  0.00000000E+00  0.00000000E+00
  0.00000000E+00  0.00000000E+00  0.00000000E+00
  0.00000000E+00  0.00000000E+00  0.00000000E+00
  0.00000000E+00  0.00000000E+00  0.00000000E+00
  0.00000000E+00  0.00000000E+00  0.00000000E+00
  0.00000000E+00  0.00000000E+00  0.00000000E+00
  0.00000000E+00  0.00000000E+00  0.00000000E+00
  0.00000000E+00  0.00000000E+00  0.00000000E+00
  0.00000000E+00  0.00000000E+00  0.00000000E+00
  0.00000000E+00  0.00000000E+00  0.00000000E+00
