Cr4 O4 F8                               
   1.00000000000000     
     4.8768035995771912   -0.1643718700618973    0.1015154546294916
    -2.3107180563145584    4.3728444766409345   -0.1807894500715004
    -0.0992386884031347    0.0064778361621241    9.2704536425441031
   Cr   O    F 
     4     4     8
Direct
  0.3447811493807594  0.6834260253911768  0.6109858851662419
  0.6706553832302761  0.2987230181932236  0.3887267162377582
  0.6686799329154364  0.3091322058958952  0.1088571559766605
  0.3511177784787893  0.6706670005334905  0.8895881401202227
  0.6117455559511908  0.9850873561439975  0.0046320565925633
  0.6060326444410252  0.0010413583065499  0.4905404771531465
  0.1000973830355272  0.4153750766474240  0.7527122408867710
  0.9288868561498659  0.3179197016844864  0.2557652196107784
 -0.0024742388454446  0.6238367668497355  0.0019481293788218
  0.3650058157453877  0.3610042550737177  0.9945048607869680
  0.9831126926240951  0.6259689509533053  0.5045178555164893
  0.3637768375253490  0.3745604342935871  0.4940103874871757
  0.6525660134384370  0.5975667872247481  0.2523972326094914
  0.3548571848993485  0.0451418258959727  0.2471677832569008
  0.6638557918908919  0.7241568166012645  0.7469990648630717
  0.3373032191390586  0.9663924203114250  0.7566467943569388
 
  0.00000000E+00  0.00000000E+00  0.00000000E+00
  0.00000000E+00  0.00000000E+00  0.00000000E+00
  0.00000000E+00  0.00000000E+00  0.00000000E+00
  0.00000000E+00  0.00000000E+00  0.00000000E+00
  0.00000000E+00  0.00000000E+00  0.00000000E+00
  0.00000000E+00  0.00000000E+00  0.00000000E+00
  0.00000000E+00  0.00000000E+00  0.00000000E+00
  0.00000000E+00  0.00000000E+00  0.00000000E+00
  0.00000000E+00  0.00000000E+00  0.00000000E+00
  0.00000000E+00  0.00000000E+00  0.00000000E+00
  0.00000000E+00  0.00000000E+00  0.00000000E+00
  0.00000000E+00  0.00000000E+00  0.00000000E+00
  0.00000000E+00  0.00000000E+00  0.00000000E+00
  0.00000000E+00  0.00000000E+00  0.00000000E+00
  0.00000000E+00  0.00000000E+00  0.00000000E+00
  0.00000000E+00  0.00000000E+00  0.00000000E+00
