Na4 Mn4 O8 F4                           
   1.00000000000000     
     5.3227759579249536    0.1313975050889344    0.0078454352325341
     0.1320068621032181    5.4184119468590008   -0.0221398777227510
     0.0076326983563711   -0.0445254428445524    7.1954193309757386
   Na   Mn   O    F 
     4     4     8     4
Direct
  0.9972356161974905  0.0251094439054618  0.2560909921651576
  0.0042840893906134  0.9462915048069462  0.7536674828914656
  0.5020417578199078  0.4675741006292223  0.7447282619524064
  0.4990786818239938  0.5574634372868738  0.2516523011883927
  0.5120571023955245  0.9989965215741230  0.0015340322031673
  0.9938355744392454  0.5059587296582113  0.9983340009930611
  0.5052341135358194  0.0361273516850074  0.4964026462720432
  0.9985914911043848  0.4637435442821913  0.5006186427182752
  0.0805606998961500  0.4729839246465672  0.2517420454710503
  0.9213095020423525  0.5213520828656013  0.7444708185044593
  0.5793989770621725  0.0233635899368483  0.7463243266190567
  0.4203940829612456  0.9810866589388005  0.2510641340555594
  0.2133975501971726  0.2107794852294070  0.9642038258696169
  0.7952825298206116  0.8038006279248059  0.0407094908532147
  0.7053937274667182  0.2929150226146875  0.4504412308798110
  0.2041412124595034  0.1982164960618336  0.5508301016627067
  0.6848808279351873  0.2856241009731664  0.0459146282203859
  0.3194476261231468  0.7219493102025034  0.9558521966666461
  0.2790531483922284  0.6986380177327167  0.5373497805067797
  0.7843816889365388  0.7880260490450602  0.4580690603067518
 
  0.00000000E+00  0.00000000E+00  0.00000000E+00
  0.00000000E+00  0.00000000E+00  0.00000000E+00
  0.00000000E+00  0.00000000E+00  0.00000000E+00
  0.00000000E+00  0.00000000E+00  0.00000000E+00
  0.00000000E+00  0.00000000E+00  0.00000000E+00
  0.00000000E+00  0.00000000E+00  0.00000000E+00
  0.00000000E+00  0.00000000E+00  0.00000000E+00
  0.00000000E+00  0.00000000E+00  0.00000000E+00
  0.00000000E+00  0.00000000E+00  0.00000000E+00
  0.00000000E+00  0.00000000E+00  0.00000000E+00
  0.00000000E+00  0.00000000E+00  0.00000000E+00
  0.00000000E+00  0.00000000E+00  0.00000000E+00
  0.00000000E+00  0.00000000E+00  0.00000000E+00
  0.00000000E+00  0.00000000E+00  0.00000000E+00
  0.00000000E+00  0.00000000E+00  0.00000000E+00
  0.00000000E+00  0.00000000E+00  0.00000000E+00
  0.00000000E+00  0.00000000E+00  0.00000000E+00
  0.00000000E+00  0.00000000E+00  0.00000000E+00
  0.00000000E+00  0.00000000E+00  0.00000000E+00
  0.00000000E+00  0.00000000E+00  0.00000000E+00
