V4 O4 F8                                
   1.00000000000000     
     5.1262128690502813    0.0003485315274058   -0.0000986545934667
    -0.0006126973431179    5.2793676306784674    0.0022174956046850
     0.0002256457199082   -0.0035341561766058    7.2873440004012977
   V    O    F 
     4     4     8
Direct
  0.4841302493957972  0.9975811515664534  0.0335928295972550
  0.9841694550209954  0.5024642590844403  0.9664299235933078
  0.5158706004718797  0.0024091588794597  0.5335871326777321
  0.0158242648536877  0.4975418584668673  0.4664350972569082
  0.0779721847719973  0.4810789987902833  0.2452722566262094
  0.9220599068881000  0.5189931827744126  0.7452706178997477
  0.5781435801564707  0.0189270783542778  0.7547003862628344
  0.4218473120725757  0.9810139634944209  0.2547113569417899
  0.6819351270738029  0.3115662525325310  0.0442615170080473
  0.3104316499111739  0.6902657449985233  0.9564768086570310
  0.1819594500184411  0.1884990739516545  0.9557202711371053
  0.8103771873179266  0.8097600802785865  0.0435386002910334
  0.3180750536485722  0.6883884170558729  0.5442778103252068
  0.6895587351723318  0.3097657538018204  0.4565068117047723
  0.8180345711566271  0.8115370285259562  0.4557008487387676
  0.1896106720696135  0.1902079974444327  0.5435177312822592
 
  0.00000000E+00  0.00000000E+00  0.00000000E+00
  0.00000000E+00  0.00000000E+00  0.00000000E+00
  0.00000000E+00  0.00000000E+00  0.00000000E+00
  0.00000000E+00  0.00000000E+00  0.00000000E+00
  0.00000000E+00  0.00000000E+00  0.00000000E+00
  0.00000000E+00  0.00000000E+00  0.00000000E+00
  0.00000000E+00  0.00000000E+00  0.00000000E+00
  0.00000000E+00  0.00000000E+00  0.00000000E+00
  0.00000000E+00  0.00000000E+00  0.00000000E+00
  0.00000000E+00  0.00000000E+00  0.00000000E+00
  0.00000000E+00  0.00000000E+00  0.00000000E+00
  0.00000000E+00  0.00000000E+00  0.00000000E+00
  0.00000000E+00  0.00000000E+00  0.00000000E+00
  0.00000000E+00  0.00000000E+00  0.00000000E+00
  0.00000000E+00  0.00000000E+00  0.00000000E+00
  0.00000000E+00  0.00000000E+00  0.00000000E+00
