Fe8 O8 F16                              
    1.000000000000000     
     7.7337598259378506   -0.0062787481712569    0.0103785084705894
    -0.0027976598266628    7.7120255799493469    0.0125787705069194
     0.0191686128726892    0.0104879626851881    7.7296234015722582
   Fe   O    F 
     8     8    16
Direct
  0.0016559801661415  0.9999124919303810  0.0006041234733871
  0.9997437913474982  0.0016607535722315  0.5006855340302252
  0.9989909930493184  0.4995998948525582  0.9982816980623284
  0.9995539183864608  0.4953363091909750  0.4985315842915412
  0.5014928883594081  0.0044841547257448  0.9999808096875071
  0.4997942981486148  0.0120565365006726  0.4999264153614291
  0.4986890307885830  0.4991303275008150  0.9997847555953996
  0.4995390082287798  0.4863459569330715  0.5000457919095709
  0.9998464346981564  0.4920831270260706  0.2481856515573853
  0.0001731375595497  0.4919871379804945  0.7498633276075992
  0.2508670047152037  0.0095965160365452  0.0005786591769521
  0.7512235723651060  0.0097273912392879  0.0003601885402205
  0.9994592534045950  0.7475402117693335  0.5003119849963795
  0.4997938203925543  0.2496053743193372  0.5002607679758455
  0.5006106548840634  0.7528987817502468  0.9995626744584172
  0.4997874732801577  0.7492898442463130  0.5000811021258826
  0.0004410024879604  0.0071220264049572  0.2505024869680739
  0.4996608803873954  0.9832653535126639  0.7494582177141353
  0.2472606623043063  0.9939542074545784  0.4997892081016104
  0.2495113506563769  0.5039252064328252  0.4994517499292286
  0.7487370139844813  0.4934307565242477  0.0005215501559590
  0.7499839136924962  0.5041880998096104  0.5006897983113348
  0.0002167874761838  0.7495598904779968  0.9997453282096913
  0.5000093483633634  0.2526969590804669  0.0008611104855305
  0.0011226459406970  0.0058481927699887  0.7503385351147500
  0.5004658859251521  0.9842220484938480  0.2509995610862461
  0.4994294698296429  0.5177711788524988  0.2481478970455697
  0.5000175593260963  0.5174912229385740  0.7517417968316522
  0.2499671177946041  0.4930297821748155  0.9992706984762592
  0.7525244237537976  0.9940325108825903  0.5007717266163496
  0.9996029506465831  0.2500702497365879  0.0005888241912899
  0.9998277276566725  0.2481375048796650  0.5000764419122561
 
  0.00000000E+00  0.00000000E+00  0.00000000E+00
  0.00000000E+00  0.00000000E+00  0.00000000E+00
  0.00000000E+00  0.00000000E+00  0.00000000E+00
  0.00000000E+00  0.00000000E+00  0.00000000E+00
  0.00000000E+00  0.00000000E+00  0.00000000E+00
  0.00000000E+00  0.00000000E+00  0.00000000E+00
  0.00000000E+00  0.00000000E+00  0.00000000E+00
  0.00000000E+00  0.00000000E+00  0.00000000E+00
  0.00000000E+00  0.00000000E+00  0.00000000E+00
  0.00000000E+00  0.00000000E+00  0.00000000E+00
  0.00000000E+00  0.00000000E+00  0.00000000E+00
  0.00000000E+00  0.00000000E+00  0.00000000E+00
  0.00000000E+00  0.00000000E+00  0.00000000E+00
  0.00000000E+00  0.00000000E+00  0.00000000E+00
  0.00000000E+00  0.00000000E+00  0.00000000E+00
  0.00000000E+00  0.00000000E+00  0.00000000E+00
  0.00000000E+00  0.00000000E+00  0.00000000E+00
  0.00000000E+00  0.00000000E+00  0.00000000E+00
  0.00000000E+00  0.00000000E+00  0.00000000E+00
  0.00000000E+00  0.00000000E+00  0.00000000E+00
  0.00000000E+00  0.00000000E+00  0.00000000E+00
  0.00000000E+00  0.00000000E+00  0.00000000E+00
  0.00000000E+00  0.00000000E+00  0.00000000E+00
  0.00000000E+00  0.00000000E+00  0.00000000E+00
  0.00000000E+00  0.00000000E+00  0.00000000E+00
  0.00000000E+00  0.00000000E+00  0.00000000E+00
  0.00000000E+00  0.00000000E+00  0.00000000E+00
  0.00000000E+00  0.00000000E+00  0.00000000E+00
  0.00000000E+00  0.00000000E+00  0.00000000E+00
  0.00000000E+00  0.00000000E+00  0.00000000E+00
  0.00000000E+00  0.00000000E+00  0.00000000E+00
  0.00000000E+00  0.00000000E+00  0.00000000E+00
