Na8 Ti8 O16 F8                          
   1.00000000000000     
     7.6923869414002697    0.0031742231907298   -0.0013215463140150
     0.0014943216959005    7.6102087169848565    0.0044399565239683
    -0.0001726077349621    0.0052849453287381    7.6896356231859277
   Na   Ti   O    F 
     8     8    16     8
Direct
  0.2463681223804279  0.2258152426820479  0.2406619203041835
  0.2484776603987686  0.2532010965577721  0.7780757159199870
  0.2815193329849622  0.7625858464152196  0.2412704097986176
  0.2532667219276435  0.7461363131185288  0.7636069138158548
  0.7550299947104270  0.2463014894276921  0.2483756111807817
  0.7707633018668121  0.2382348601680475  0.7562601444776289
  0.7505964216053845  0.7525196736631445  0.2582015770520895
  0.7495160450444736  0.7674524967842217  0.7552300315749984
  0.0032492166391413  0.9961699078189543 -0.0000300180531141
  0.0098712547827053 -0.0008981569649872  0.4960001157910938
  0.9948494219791022  0.5006706494528238  0.0112497604258645
  0.0010563050429562  0.5007691943714747  0.5091173344243979
  0.5025243079086683  0.0013466565024906  0.9854408155212503
  0.5029060872108574  0.0167977936680694  0.5125015603989093
  0.5015208935502892  0.5007839707997105  0.0117521420526338
  0.4928190459444748  0.4840210579608196  0.5046100543929517
  0.2455150830961290  0.9784200646529210  0.0354235786973146
  0.2492082889080535  0.9626222635342202  0.4626982902836571
  0.7500814834609699  0.0219751871945071  0.9676279947115075
  0.7466626886962278  0.0341323397421397  0.5270558503722614
  0.0175368881015797  0.2505336071466004  0.0229730147722786
  0.0278357897194256  0.2494491985963864  0.4666722357214362
  0.9787510633816044  0.7488075383783889  0.9663436211660842
  0.9643250487146744  0.7501804704278192  0.5264015519787744
  0.4780011701423829  0.2544366580457587  0.0318200581420430
  0.4625485853130478  0.2529872370353118  0.4531188727529173
  0.5154377030268964  0.7467740577960510  0.9688980832377194
  0.9500312992314726  0.5199785573214557  0.2470063665021883
  0.0409426303041388  0.4765949371689431  0.7455290327827224
  0.4576598320487447  0.0293819382599670  0.7460955327828447
  0.5400399721219818  0.5325278219049493  0.2524056466990308
  0.4521518734121174  0.4795934796080492  0.7405654720098573
  0.2477729441201139  0.5313917854630061  0.0500312175967304
  0.2501269711007013  0.5520810551587267  0.4503932550316181
  0.7471190055998085  0.4695394664697377  0.9429977903447571
  0.7449978921070776  0.4564702278379587  0.5458990891970043
  0.5391644802700279  0.7482259062811831  0.5297185853963898
  0.9500677514914162  0.9690831388539565  0.2485306836891692
  0.0440310321066167  0.0331000573317055  0.7476930655707953
  0.5356563895476758  0.9598049133642265  0.2517770214827568
 
  0.00000000E+00  0.00000000E+00  0.00000000E+00
  0.00000000E+00  0.00000000E+00  0.00000000E+00
  0.00000000E+00  0.00000000E+00  0.00000000E+00
  0.00000000E+00  0.00000000E+00  0.00000000E+00
  0.00000000E+00  0.00000000E+00  0.00000000E+00
  0.00000000E+00  0.00000000E+00  0.00000000E+00
  0.00000000E+00  0.00000000E+00  0.00000000E+00
  0.00000000E+00  0.00000000E+00  0.00000000E+00
  0.00000000E+00  0.00000000E+00  0.00000000E+00
  0.00000000E+00  0.00000000E+00  0.00000000E+00
  0.00000000E+00  0.00000000E+00  0.00000000E+00
  0.00000000E+00  0.00000000E+00  0.00000000E+00
  0.00000000E+00  0.00000000E+00  0.00000000E+00
  0.00000000E+00  0.00000000E+00  0.00000000E+00
  0.00000000E+00  0.00000000E+00  0.00000000E+00
  0.00000000E+00  0.00000000E+00  0.00000000E+00
  0.00000000E+00  0.00000000E+00  0.00000000E+00
  0.00000000E+00  0.00000000E+00  0.00000000E+00
  0.00000000E+00  0.00000000E+00  0.00000000E+00
  0.00000000E+00  0.00000000E+00  0.00000000E+00
  0.00000000E+00  0.00000000E+00  0.00000000E+00
  0.00000000E+00  0.00000000E+00  0.00000000E+00
  0.00000000E+00  0.00000000E+00  0.00000000E+00
  0.00000000E+00  0.00000000E+00  0.00000000E+00
  0.00000000E+00  0.00000000E+00  0.00000000E+00
  0.00000000E+00  0.00000000E+00  0.00000000E+00
  0.00000000E+00  0.00000000E+00  0.00000000E+00
  0.00000000E+00  0.00000000E+00  0.00000000E+00
  0.00000000E+00  0.00000000E+00  0.00000000E+00
  0.00000000E+00  0.00000000E+00  0.00000000E+00
  0.00000000E+00  0.00000000E+00  0.00000000E+00
  0.00000000E+00  0.00000000E+00  0.00000000E+00
  0.00000000E+00  0.00000000E+00  0.00000000E+00
  0.00000000E+00  0.00000000E+00  0.00000000E+00
  0.00000000E+00  0.00000000E+00  0.00000000E+00
  0.00000000E+00  0.00000000E+00  0.00000000E+00
  0.00000000E+00  0.00000000E+00  0.00000000E+00
  0.00000000E+00  0.00000000E+00  0.00000000E+00
  0.00000000E+00  0.00000000E+00  0.00000000E+00
  0.00000000E+00  0.00000000E+00  0.00000000E+00
