Sodium trivanadate                      
   1.00000000000000     
    12.1321349754916135    0.0002937283674780    0.1927339390371325
    -0.0004759614066783    3.5842373089870407    0.0009334955252078
    -0.5100800953151590   -0.0007110817554402    6.8842347747022323
   V    Na   O 
     6     2    16
Direct
  0.0739375204448748  0.2501853551133243  0.1777362568857111
  0.9260115060474728  0.7502291020470515  0.8223286601704516
  0.8171535077927167  0.2499048248737107  0.1411694206289953
  0.1828233338023929  0.7500356807736244  0.8587835987732948
  0.5756893351313539  0.2501499983194179  0.8825760391492882
  0.4243225972784558  0.7502430783508305  0.1174264584328796
  0.3501179263184913  0.2499702640636085  0.5116870335252425
  0.6504172796546625  0.7436732652144460  0.4884347854669945
  0.9360942188005823  0.2503832539461642  0.9043837454088386
  0.0637990898804627  0.7503276217147387  0.0957453304427303
  0.1661435784347038  0.2505361730864908  0.9334493240260648
  0.8337366559280200  0.7503551903722849  0.0665472395625932
  0.4441608029255585  0.2503280744516008  0.0392154057414252
  0.5558251528675860  0.7503052753800292  0.9608171424604025
  0.9440547039133740  0.2506980602814208  0.2901341000670432
  0.0558492598136302  0.7508172013942622  0.7099635841629502
  0.1662315598622578  0.2506023552898297  0.3543841547439563
  0.8338053659101919  0.7505848171603073  0.6456046177741854
  0.7213306863533963  0.2485241801019497  0.2983853820752739
  0.2785691387089554  0.7505205630795773  0.7014447471803663
  0.7142546099785128  0.2507582851677886  0.9047708935207065
  0.2857401722394480  0.7505698658967708  0.0950101851193976
  0.5434648781504353  0.2499909458059630  0.6479161825761585
  0.4564671947624526  0.7503065681147942  0.3520856751050581
 
  0.00000000E+00  0.00000000E+00  0.00000000E+00
  0.00000000E+00  0.00000000E+00  0.00000000E+00
  0.00000000E+00  0.00000000E+00  0.00000000E+00
  0.00000000E+00  0.00000000E+00  0.00000000E+00
  0.00000000E+00  0.00000000E+00  0.00000000E+00
  0.00000000E+00  0.00000000E+00  0.00000000E+00
  0.00000000E+00  0.00000000E+00  0.00000000E+00
  0.00000000E+00  0.00000000E+00  0.00000000E+00
  0.00000000E+00  0.00000000E+00  0.00000000E+00
  0.00000000E+00  0.00000000E+00  0.00000000E+00
  0.00000000E+00  0.00000000E+00  0.00000000E+00
  0.00000000E+00  0.00000000E+00  0.00000000E+00
  0.00000000E+00  0.00000000E+00  0.00000000E+00
  0.00000000E+00  0.00000000E+00  0.00000000E+00
  0.00000000E+00  0.00000000E+00  0.00000000E+00
  0.00000000E+00  0.00000000E+00  0.00000000E+00
  0.00000000E+00  0.00000000E+00  0.00000000E+00
  0.00000000E+00  0.00000000E+00  0.00000000E+00
  0.00000000E+00  0.00000000E+00  0.00000000E+00
  0.00000000E+00  0.00000000E+00  0.00000000E+00
  0.00000000E+00  0.00000000E+00  0.00000000E+00
  0.00000000E+00  0.00000000E+00  0.00000000E+00
  0.00000000E+00  0.00000000E+00  0.00000000E+00
  0.00000000E+00  0.00000000E+00  0.00000000E+00
