Tetrasodium ferrate(II)                 
   1.00000000000000     
    10.8767533660234470    0.0000009081552894    0.0436191981707849
     0.0000004784331690    5.7616158417991761   -0.0000000504446650
    -3.2814876231106909   -0.0000003308802637    7.4296725116946547
   Na   Fe   O 
    16     4    12
Direct
  0.7089665302672397  0.1630805163898899  0.6325295572461982
  0.7089665791404047  0.8369195390372040  0.1325295535161538
  0.2089665209342468  0.6630804910275935  0.6325295273304298
  0.2089665553596291  0.3369195257232137  0.1325295283193786
  0.3067444386681900  0.7900867875520904  0.3473144367931601
  0.3067443544371994  0.2099135254524118  0.8473144441124160
  0.8067444700837222  0.2900869539410000  0.3473145367380300
  0.8067443850289607  0.7099134537015892  0.8473144228828370
  0.1122706698727149  0.1652394945501135  0.4481595866037446
  0.1122707869690715  0.8347604179499569  0.9481592566777908
  0.6122706635779310  0.6652395126067100  0.4481596596337745
  0.6122707724423492  0.3347604388342884  0.9481593218474520
  0.8815866065122945  0.8460369675635024  0.5309526176678504
  0.8815866757874090  0.1539629018010398  0.0309527667557664
  0.3815866204458471  0.3460368590906644  0.5309527012085048
  0.3815866674366164  0.6539628660365104  0.0309527161983254
  0.9798742319640372  0.6469201530283316  0.2459927026413131
  0.9798741943129506  0.3530797927140474  0.7459927038106272
  0.4798742241171034  0.1469201691564813  0.2459927111171243
  0.4798741889952727  0.8530797981843831  0.7459927005358700
  0.3156662910722014  0.9975458951082222  0.1063526678153831
  0.3156662146394204  0.0024540986754345  0.6063527151018455
  0.8156662750570550  0.4975458287598585  0.1063527679999304
  0.8156662300588053  0.5024541059724723  0.6063527216402359
  0.6503369645403603  0.9888909676265287  0.8447754668167009
  0.6503369753796953  0.0111090300592455  0.3447754742575366
  0.1503369545948415  0.4888910202683794  0.8447754657013791
  0.1503369814949087  0.5111089822998156  0.3447754501221621
  0.4365542206183562  0.4484603505171997  0.2950229979142274
  0.4365541608589756  0.5515395928924716  0.7950228620455317
  0.9365542357115623  0.9484603707194799  0.2950229061839567
  0.9365541736206170  0.0515396077598821  0.7950229007643524
 
  0.00000000E+00  0.00000000E+00  0.00000000E+00
  0.00000000E+00  0.00000000E+00  0.00000000E+00
  0.00000000E+00  0.00000000E+00  0.00000000E+00
  0.00000000E+00  0.00000000E+00  0.00000000E+00
  0.00000000E+00  0.00000000E+00  0.00000000E+00
  0.00000000E+00  0.00000000E+00  0.00000000E+00
  0.00000000E+00  0.00000000E+00  0.00000000E+00
  0.00000000E+00  0.00000000E+00  0.00000000E+00
  0.00000000E+00  0.00000000E+00  0.00000000E+00
  0.00000000E+00  0.00000000E+00  0.00000000E+00
  0.00000000E+00  0.00000000E+00  0.00000000E+00
  0.00000000E+00  0.00000000E+00  0.00000000E+00
  0.00000000E+00  0.00000000E+00  0.00000000E+00
  0.00000000E+00  0.00000000E+00  0.00000000E+00
  0.00000000E+00  0.00000000E+00  0.00000000E+00
  0.00000000E+00  0.00000000E+00  0.00000000E+00
  0.00000000E+00  0.00000000E+00  0.00000000E+00
  0.00000000E+00  0.00000000E+00  0.00000000E+00
  0.00000000E+00  0.00000000E+00  0.00000000E+00
  0.00000000E+00  0.00000000E+00  0.00000000E+00
  0.00000000E+00  0.00000000E+00  0.00000000E+00
  0.00000000E+00  0.00000000E+00  0.00000000E+00
  0.00000000E+00  0.00000000E+00  0.00000000E+00
  0.00000000E+00  0.00000000E+00  0.00000000E+00
  0.00000000E+00  0.00000000E+00  0.00000000E+00
  0.00000000E+00  0.00000000E+00  0.00000000E+00
  0.00000000E+00  0.00000000E+00  0.00000000E+00
  0.00000000E+00  0.00000000E+00  0.00000000E+00
  0.00000000E+00  0.00000000E+00  0.00000000E+00
  0.00000000E+00  0.00000000E+00  0.00000000E+00
  0.00000000E+00  0.00000000E+00  0.00000000E+00
  0.00000000E+00  0.00000000E+00  0.00000000E+00
