Na8 Co8 O16 F8                          
   1.00000000000000     
     7.7740314057161370   -0.0005038133870597   -0.0000385221893216
     0.0007956226479465    7.7736551865939036   -0.0016747755977215
    -0.0015273335710221   -0.0014838997866110    7.2699318895276228
   Na   Co   O    F 
     8     8    16     8
Direct
  0.2496864006678479  0.2502310144207984  0.2498365147864021
  0.2503937074933529  0.2500434526432669  0.7506964813035796
  0.2497028404464852  0.7500119365368721  0.2500915278725055
  0.2505197132282278  0.7500519649347087  0.7506571412194564
  0.7506685535407518  0.2499602579803338  0.2488283221930689
  0.7505961532390893  0.2498748911369499  0.7490621916313106
  0.7501192908707879  0.7497332248106438  0.2488863430833798
  0.7495868953773037  0.7500672397408664  0.7509814540314628
  0.9999664299934841  0.9999601917729677  0.9978248453884017
 -0.0001052904948417 -0.0000333813280823  0.4978517310865725
  0.0024968540995450  0.4999928496448321  0.9997403225539306
  0.0000067169254290  0.5024712382491384  0.5002207867516557
  0.4975047724026402 -0.0000223083189410  0.0002807036849070
  0.4999841469676817  0.0025320582115847  0.4997798145688465
  0.5000140394204360  0.4999413247201019  0.0022557371233061
  0.5001368008042972  0.5000171931931821  0.5022526789187319
  0.2301739099552442  0.9997451544461473  0.9992726219923189
  0.2696848510303828  0.4997702850612191 -0.0001530181162643
  0.7699260470716096  0.9996993557071435  0.9993010056963928
  0.7299359105036060  0.4998168031450238 -0.0001156221218711
 -0.0000684198171925  0.2297840141706337  0.4992095538704501
  0.0000280018337704  0.7694704973438212  0.4994552728601862
  0.5001642863663841  0.2695049148283248  0.4999355690025729
  0.5001261032133745  0.7298207241117597  0.4997317240153734
  0.9996286854721727  0.9996132110251018  0.2481054034935852
  0.9997197234284407  0.0000210127668690  0.7481174821883025
  0.0003682371796517  0.5002336066765147  0.2501347444733112
  0.0003779101642728  0.4998548410544964  0.7501638813472306
  0.4998728936298410  0.0001894190121887  0.2500880044695407
  0.4997251672978255  0.9999139148867382  0.7501454740774633
  0.5002823709260504  0.4998283846548890  0.2519297740156193
  0.5004172913729439  0.5000306175513550  0.7518886887199033
  0.2534271738712212  0.9996182727091751  0.4989730941413766
  0.2465741659667623  0.4995088432239913  0.5017972287220182
  0.7464036062961559  0.9995769278184964  0.4991516323585026
  0.7536369156399729  0.4994804059865833  0.5018082451785709
  0.9996426427686190  0.2534621325382327 -0.0004412412948106
  0.9996569475999104  0.7463750851288301  0.9990569708169128
  0.4994798833006796  0.2463818764285617  0.0015023067374936
  0.4995376699457897  0.7534665513746798  0.0016946071583173
 
  0.00000000E+00  0.00000000E+00  0.00000000E+00
  0.00000000E+00  0.00000000E+00  0.00000000E+00
  0.00000000E+00  0.00000000E+00  0.00000000E+00
  0.00000000E+00  0.00000000E+00  0.00000000E+00
  0.00000000E+00  0.00000000E+00  0.00000000E+00
  0.00000000E+00  0.00000000E+00  0.00000000E+00
  0.00000000E+00  0.00000000E+00  0.00000000E+00
  0.00000000E+00  0.00000000E+00  0.00000000E+00
  0.00000000E+00  0.00000000E+00  0.00000000E+00
  0.00000000E+00  0.00000000E+00  0.00000000E+00
  0.00000000E+00  0.00000000E+00  0.00000000E+00
  0.00000000E+00  0.00000000E+00  0.00000000E+00
  0.00000000E+00  0.00000000E+00  0.00000000E+00
  0.00000000E+00  0.00000000E+00  0.00000000E+00
  0.00000000E+00  0.00000000E+00  0.00000000E+00
  0.00000000E+00  0.00000000E+00  0.00000000E+00
  0.00000000E+00  0.00000000E+00  0.00000000E+00
  0.00000000E+00  0.00000000E+00  0.00000000E+00
  0.00000000E+00  0.00000000E+00  0.00000000E+00
  0.00000000E+00  0.00000000E+00  0.00000000E+00
  0.00000000E+00  0.00000000E+00  0.00000000E+00
  0.00000000E+00  0.00000000E+00  0.00000000E+00
  0.00000000E+00  0.00000000E+00  0.00000000E+00
  0.00000000E+00  0.00000000E+00  0.00000000E+00
  0.00000000E+00  0.00000000E+00  0.00000000E+00
  0.00000000E+00  0.00000000E+00  0.00000000E+00
  0.00000000E+00  0.00000000E+00  0.00000000E+00
  0.00000000E+00  0.00000000E+00  0.00000000E+00
  0.00000000E+00  0.00000000E+00  0.00000000E+00
  0.00000000E+00  0.00000000E+00  0.00000000E+00
  0.00000000E+00  0.00000000E+00  0.00000000E+00
  0.00000000E+00  0.00000000E+00  0.00000000E+00
  0.00000000E+00  0.00000000E+00  0.00000000E+00
  0.00000000E+00  0.00000000E+00  0.00000000E+00
  0.00000000E+00  0.00000000E+00  0.00000000E+00
  0.00000000E+00  0.00000000E+00  0.00000000E+00
  0.00000000E+00  0.00000000E+00  0.00000000E+00
  0.00000000E+00  0.00000000E+00  0.00000000E+00
  0.00000000E+00  0.00000000E+00  0.00000000E+00
  0.00000000E+00  0.00000000E+00  0.00000000E+00
