Co4 O4 F8                               
   1.00000000000000     
     4.9718223373748991   -0.0606587031129862   -0.0563074671133076
    -0.0620535863626891    5.2544817321339226    0.0811144633149635
     0.1025509778783368   -0.1069485436166871    7.2222280487860138
   Co   O    F 
     4     4     8
Direct
  0.4759920981965204  0.0079835509511805  0.9954571633043556
  0.9840544019421534  0.5193474491564269  0.0046353501071207
  0.5044013064810968 -0.0025315250864281  0.5001866923305344
  0.0034399476388874  0.4994697262537808  0.5027800019511075
  0.1951011996833020  0.2007545170424861  0.9530959927069511
  0.8167833457344799  0.8163465291675951  0.0395868288434098
  0.3115415531398612  0.6971414534307129  0.5486281727529251
  0.6951746315361960  0.2971398334123369  0.4549565934375452
  0.6872547764912890  0.3120846063007182  0.0706260650686467
  0.3103944366352872  0.6789346157561457  0.9291461973803953
  0.8187412734573771  0.8001041183568370  0.4345511717703794
  0.1904023180210036  0.1952730063375884  0.5636167675601954
  0.1257107699560417  0.4746581534642375  0.2512630688475335
  0.8657526825299940  0.5252052975228187  0.7491035703257352
  0.6272035945129535  0.0220384610399654  0.7554668404728936
  0.3880516640435510  0.9560502068935910  0.2468995231402711
 
  0.00000000E+00  0.00000000E+00  0.00000000E+00
  0.00000000E+00  0.00000000E+00  0.00000000E+00
  0.00000000E+00  0.00000000E+00  0.00000000E+00
  0.00000000E+00  0.00000000E+00  0.00000000E+00
  0.00000000E+00  0.00000000E+00  0.00000000E+00
  0.00000000E+00  0.00000000E+00  0.00000000E+00
  0.00000000E+00  0.00000000E+00  0.00000000E+00
  0.00000000E+00  0.00000000E+00  0.00000000E+00
  0.00000000E+00  0.00000000E+00  0.00000000E+00
  0.00000000E+00  0.00000000E+00  0.00000000E+00
  0.00000000E+00  0.00000000E+00  0.00000000E+00
  0.00000000E+00  0.00000000E+00  0.00000000E+00
  0.00000000E+00  0.00000000E+00  0.00000000E+00
  0.00000000E+00  0.00000000E+00  0.00000000E+00
  0.00000000E+00  0.00000000E+00  0.00000000E+00
  0.00000000E+00  0.00000000E+00  0.00000000E+00
