Co4 O4 F8                               
   1.00000000000000     
     5.0621962682542838   -0.0027999581333558   -0.0005028257753354
    -0.0252152466464632    5.2001671597527128   -0.0032258117135725
    -0.0008768066447128   -0.0039489357558445    7.3584623170873007
   Co   O    F 
     4     4     8
Direct
  0.5152215168278147  0.9932106608209850  0.9989011348122148
  0.0055354462168111  0.4951739033860605  0.9973999822413830
  0.5146284950646702  0.9932340847130234  0.5018805529191468
  0.0055113563910609  0.4954230385788918  0.4998458074476133
  0.8239502462135064  0.8114489632928255  0.0357942536542382
  0.8236042004417001  0.8115471885466690  0.4648462694477260
  0.0705578929194743  0.4905279058957390  0.2492803113471069
  0.5865492152952569  0.0427097487972361  0.7504525648277962
  0.6784681596686823  0.3067987947258644  0.0595016696605555
  0.3204640638839109  0.6930799704541641  0.9434716365531131
  0.1875788559589324  0.1936231853557899  0.9491805803254323
  0.3200227894895704  0.6931828435091347  0.5569937619456766
  0.6779223839770694  0.3065486844206333  0.4413041426223074
  0.1874230246393012  0.1944275885038920  0.5515458018511410
  0.8868268932345487  0.5207810717204922  0.7492414736488442
  0.3957354597776899  0.9582823672785992  0.2503600566957118
 
  0.00000000E+00  0.00000000E+00  0.00000000E+00
  0.00000000E+00  0.00000000E+00  0.00000000E+00
  0.00000000E+00  0.00000000E+00  0.00000000E+00
  0.00000000E+00  0.00000000E+00  0.00000000E+00
  0.00000000E+00  0.00000000E+00  0.00000000E+00
  0.00000000E+00  0.00000000E+00  0.00000000E+00
  0.00000000E+00  0.00000000E+00  0.00000000E+00
  0.00000000E+00  0.00000000E+00  0.00000000E+00
  0.00000000E+00  0.00000000E+00  0.00000000E+00
  0.00000000E+00  0.00000000E+00  0.00000000E+00
  0.00000000E+00  0.00000000E+00  0.00000000E+00
  0.00000000E+00  0.00000000E+00  0.00000000E+00
  0.00000000E+00  0.00000000E+00  0.00000000E+00
  0.00000000E+00  0.00000000E+00  0.00000000E+00
  0.00000000E+00  0.00000000E+00  0.00000000E+00
  0.00000000E+00  0.00000000E+00  0.00000000E+00
