Na4 V4 O8 F4                            
   1.00000000000000     
     5.4480176204481348    0.0187312102983456    0.0453032351090511
    -2.7053637107802047    4.6900333072449456   -0.0888117438651835
     0.0571961734706028   -0.0945406601845380    9.3245231148363867
   Na   V    O    F 
     4     4     8     4
Direct
  0.0057918713988720  0.0106524719283116  0.9127110410257377
  0.9947853175184479  0.0046317460487524  0.4119610562776471
  0.3314846293767112  0.6578892779521327  0.2425059468934627
  0.6670343474784485  0.3263712058179356  0.7440305489053131
  0.2942280862005340  0.6244648725913401  0.6188508705699416
  0.6856642953105782  0.3676507352096165  0.4045531057811679
  0.7062316670822739  0.3314757946069368  0.1189337309868782
  0.3144049847771973  0.6831816613124585  0.9042742116956088
  0.5950640894168864  0.0281488733514678  0.0039267227711785
  0.0273470799934954  0.6030065781657681  0.0183003515714596
  0.9725515404094823  0.5739415896198244  0.5183803425384248
  0.4044553737526498  0.4306773327602685  0.5044001020857408
  0.7059210476422295  0.5976880140242963  0.2589760249262414
  0.1143616321064722  0.3796342779318365  0.7647604205016032
  0.8857278356249456  0.2650400116494054  0.2643059483525156
  0.2937274590036504  0.8917162407291657  0.7584082619887764
  0.4276884507522956  0.4285615734123966  0.0081760976286332
  0.5733144301907382  0.9989121420624181  0.5077194444114609
  0.3619384753261621  0.0787639902244230  0.2675435336949517
  0.6382773866379295  0.7175916106012600  0.7672822373932640
 
  0.00000000E+00  0.00000000E+00  0.00000000E+00
  0.00000000E+00  0.00000000E+00  0.00000000E+00
  0.00000000E+00  0.00000000E+00  0.00000000E+00
  0.00000000E+00  0.00000000E+00  0.00000000E+00
  0.00000000E+00  0.00000000E+00  0.00000000E+00
  0.00000000E+00  0.00000000E+00  0.00000000E+00
  0.00000000E+00  0.00000000E+00  0.00000000E+00
  0.00000000E+00  0.00000000E+00  0.00000000E+00
  0.00000000E+00  0.00000000E+00  0.00000000E+00
  0.00000000E+00  0.00000000E+00  0.00000000E+00
  0.00000000E+00  0.00000000E+00  0.00000000E+00
  0.00000000E+00  0.00000000E+00  0.00000000E+00
  0.00000000E+00  0.00000000E+00  0.00000000E+00
  0.00000000E+00  0.00000000E+00  0.00000000E+00
  0.00000000E+00  0.00000000E+00  0.00000000E+00
  0.00000000E+00  0.00000000E+00  0.00000000E+00
  0.00000000E+00  0.00000000E+00  0.00000000E+00
  0.00000000E+00  0.00000000E+00  0.00000000E+00
  0.00000000E+00  0.00000000E+00  0.00000000E+00
  0.00000000E+00  0.00000000E+00  0.00000000E+00
