Ni8 O8 F16                              
   1.00000000000000     
     7.3301597167946717   -0.0000000036964776   -0.0000000017465809
     0.0000000109271492    7.5795231950783180    0.0102638552997458
     0.0000000300650753    0.0103592853728837    7.5842754136438302
   Ni   O    F 
     8     8    16
Direct
  0.9999463918204086  0.9999998538187569  0.9999998835337180
  0.0000210907798248  0.0000001279896082  0.5000002512481032
  0.0000394280699965  0.5000001238988006  0.9999996653431396
  0.9999986397261864  0.4999999020772776  0.5000002620678146
  0.5000154293031684  0.9999998604256319  0.9999998149181977
  0.4999410483738771  0.0000000183996036  0.5000001721307754
  0.4999252404718888  0.5000001012421649  0.9999996105949691
  0.4999669181713955  0.4999999417775385  0.5000002462721227
  0.2500113856582615  0.0000000122180666  0.5000000423143334
  0.2500119002085839  0.5000000040924277  0.4999999090920682
  0.7500066292607102  0.5000000145718104  0.0000000212788294
  0.7500084766291977  0.5000000177502955  0.4999999786928555
  0.2500129056578331  0.0000000068936572  0.0000000048480899
  0.2500068021491373  0.4999999625779168  0.0000001364748599
  0.7500132310408958  0.0000000268984053  0.0000000339705153
  0.7500145061372692  0.9999999954143135  0.4999999606122287
  0.9999708394709330  0.9999659800900176  0.2500582397838116
  0.5000133780878429  0.0000341325708675  0.7499404860251317
  0.9999936758241716  0.7500813984543697  0.0000041009682832
  0.5000363392279183  0.2499176636126279  0.9999957313794425
  0.9999708327878878  0.0000340173067528  0.7499417225688632
  0.0000222158726189  0.5003661321585966  0.2500003202684695
  0.0000222431920065  0.4996338749613187  0.7499996940844440
  0.5000133698329563  0.9999658655525678  0.2500595112823163
  0.4999629059403219  0.5003686638448954  0.2499982559135319
  0.4999629192104607  0.4996313417877403  0.7500017913234274
  0.9999937241050958  0.2499186006830953  0.9999959280076851
  0.0000005572784758  0.2500278717486992  0.5004909456436764
  0.0000005348371417  0.7499721314084695  0.4995090156259820
  0.5000300345615258  0.2500291034431186  0.5004909805471769
  0.5000363795464580  0.7500823417507121  0.0000043062347004
  0.5000300267655717  0.7499709105798829  0.4995089769504304
 
  0.00000000E+00  0.00000000E+00  0.00000000E+00
  0.00000000E+00  0.00000000E+00  0.00000000E+00
  0.00000000E+00  0.00000000E+00  0.00000000E+00
  0.00000000E+00  0.00000000E+00  0.00000000E+00
  0.00000000E+00  0.00000000E+00  0.00000000E+00
  0.00000000E+00  0.00000000E+00  0.00000000E+00
  0.00000000E+00  0.00000000E+00  0.00000000E+00
  0.00000000E+00  0.00000000E+00  0.00000000E+00
  0.00000000E+00  0.00000000E+00  0.00000000E+00
  0.00000000E+00  0.00000000E+00  0.00000000E+00
  0.00000000E+00  0.00000000E+00  0.00000000E+00
  0.00000000E+00  0.00000000E+00  0.00000000E+00
  0.00000000E+00  0.00000000E+00  0.00000000E+00
  0.00000000E+00  0.00000000E+00  0.00000000E+00
  0.00000000E+00  0.00000000E+00  0.00000000E+00
  0.00000000E+00  0.00000000E+00  0.00000000E+00
  0.00000000E+00  0.00000000E+00  0.00000000E+00
  0.00000000E+00  0.00000000E+00  0.00000000E+00
  0.00000000E+00  0.00000000E+00  0.00000000E+00
  0.00000000E+00  0.00000000E+00  0.00000000E+00
  0.00000000E+00  0.00000000E+00  0.00000000E+00
  0.00000000E+00  0.00000000E+00  0.00000000E+00
  0.00000000E+00  0.00000000E+00  0.00000000E+00
  0.00000000E+00  0.00000000E+00  0.00000000E+00
  0.00000000E+00  0.00000000E+00  0.00000000E+00
  0.00000000E+00  0.00000000E+00  0.00000000E+00
  0.00000000E+00  0.00000000E+00  0.00000000E+00
  0.00000000E+00  0.00000000E+00  0.00000000E+00
  0.00000000E+00  0.00000000E+00  0.00000000E+00
  0.00000000E+00  0.00000000E+00  0.00000000E+00
  0.00000000E+00  0.00000000E+00  0.00000000E+00
  0.00000000E+00  0.00000000E+00  0.00000000E+00
