Na2 V2 O4 F2                            
   1.00000000000000     
    -2.5939396081348440   -4.6372715652018259   -0.0385124300817627
    -5.2901485455706876    0.0673510141494720   -0.0488713353948627
    -2.6923596670405021   -1.5548250028376160   -4.3942125551141515
   Na   V    O    F 
     2     2     4     2
Direct
  0.2634765167822224  0.2467241592085221  0.2337593447270185
  0.7386353663395316  0.7774960452911018  0.7328906649908015
  0.9942489235209429  0.0180857827861748  0.9474702119357261
  0.4963377778010724  0.5123364272001749  0.5118614531162716
  0.7211391504371700  0.3217728777261328  0.7867077466047661
  0.7228773969468766  0.7699475678090050  0.2347262048256079
  0.3019669264125437  0.2212174031619581  0.7241208041260161
  0.1889103587014781  0.7870939670530939  0.7093001070604509
  0.2806820375594029  0.6900286255073551  0.2044803763799430
  0.8377255454987729  0.2012971442564882  0.2766830862334002
 
  0.00000000E+00  0.00000000E+00  0.00000000E+00
  0.00000000E+00  0.00000000E+00  0.00000000E+00
  0.00000000E+00  0.00000000E+00  0.00000000E+00
  0.00000000E+00  0.00000000E+00  0.00000000E+00
  0.00000000E+00  0.00000000E+00  0.00000000E+00
  0.00000000E+00  0.00000000E+00  0.00000000E+00
  0.00000000E+00  0.00000000E+00  0.00000000E+00
  0.00000000E+00  0.00000000E+00  0.00000000E+00
  0.00000000E+00  0.00000000E+00  0.00000000E+00
  0.00000000E+00  0.00000000E+00  0.00000000E+00
