Ti4 O4 F8                               
   1.00000000000000     
     5.2087125989301137   -0.0000026376940766   -0.0000001875494285
    -0.0000027090351644    5.3502418202431370   -0.0004958645310716
    -0.0000002697983450   -0.0103284794067722    7.6546500531494059
   Ti   O    F 
     4     4     8
Direct
  0.5053151875137025  0.9735244955623159  0.9997837148712985
  0.0053158286734891  0.5264756272822441  0.0002162801736164
  0.4947036823934457  0.0264182143713044  0.4998110598577651
  0.9947023809518605  0.4735815971082227  0.5001886699282460
  0.2911982565198264  0.7113186604875704  0.9595555584186316
  0.7911985946990769  0.7886811442203557  0.0404445549204590
  0.7099716206561021  0.2874845762838458  0.4592339855312874
  0.2099709013349995  0.2125158145118106  0.5407661491092175
  0.0800776902065373  0.4889221367300713  0.2503052852291437
  0.9197511116594104  0.5111451945512844  0.7503942614051603
  0.5800776743582627  0.0110778335098357  0.7496947679613175
  0.4197510638426705  0.9888548106229657  0.2496057063168004
  0.7105500080174726  0.2874292307071515  0.0322973724572130
  0.2105499455344609  0.2125708442906743  0.9677026147530156
  0.2884329667776317  0.7138363453699972  0.5325407507899133
  0.7884330868610441  0.7861634743903502  0.4674592682769220
 
  0.00000000E+00  0.00000000E+00  0.00000000E+00
  0.00000000E+00  0.00000000E+00  0.00000000E+00
  0.00000000E+00  0.00000000E+00  0.00000000E+00
  0.00000000E+00  0.00000000E+00  0.00000000E+00
  0.00000000E+00  0.00000000E+00  0.00000000E+00
  0.00000000E+00  0.00000000E+00  0.00000000E+00
  0.00000000E+00  0.00000000E+00  0.00000000E+00
  0.00000000E+00  0.00000000E+00  0.00000000E+00
  0.00000000E+00  0.00000000E+00  0.00000000E+00
  0.00000000E+00  0.00000000E+00  0.00000000E+00
  0.00000000E+00  0.00000000E+00  0.00000000E+00
  0.00000000E+00  0.00000000E+00  0.00000000E+00
  0.00000000E+00  0.00000000E+00  0.00000000E+00
  0.00000000E+00  0.00000000E+00  0.00000000E+00
  0.00000000E+00  0.00000000E+00  0.00000000E+00
  0.00000000E+00  0.00000000E+00  0.00000000E+00
