Ni4 O4 F8                               
   1.00000000000000     
     4.8417889889900581   -0.0332849257577888    0.0241008723745176
    -0.0329140837033191    5.1269090212787356   -0.0209606018777784
     0.0001381032752063   -0.0445891717416340    6.9697378334873941
   Ni   O    F 
     4     4     8
Direct
  0.5016603146439382  0.9827619309860919  0.0057178479339519
  0.9899204691546807  0.4967150727830079  0.9965897070324962
  0.5002811700907540  0.0045412897604351  0.5077404677854148
  0.9875235034044667  0.5005289467060755  0.5013612115497553
  0.1760158475169851  0.2092005325000233  0.9093842743744137
  0.8558556570453670  0.8107258122805191  0.0589662302362008
  0.6818209893992369  0.3270260674476599  0.4403548139975633
  0.1922856222959165  0.2069012439923695  0.5849968975642079
  0.1259228913354892  0.4473698935352757  0.2417952892961297
  0.8453356879886023  0.5500445309901622  0.7565291332232515
  0.6593950308801172  0.0298939543143857  0.7642938777317672
  0.3540471012382461  0.9626657216535945  0.2476240430078107
  0.6602960019758657  0.3037931620749882  0.0737468391784063
  0.3352448054013267  0.6773786505922665  0.9267629936617270
  0.3073800532631924  0.6751337324942780  0.5607376664836314
  0.8270148543658079  0.8153194578888812  0.4233987069432795
 
  0.00000000E+00  0.00000000E+00  0.00000000E+00
  0.00000000E+00  0.00000000E+00  0.00000000E+00
  0.00000000E+00  0.00000000E+00  0.00000000E+00
  0.00000000E+00  0.00000000E+00  0.00000000E+00
  0.00000000E+00  0.00000000E+00  0.00000000E+00
  0.00000000E+00  0.00000000E+00  0.00000000E+00
  0.00000000E+00  0.00000000E+00  0.00000000E+00
  0.00000000E+00  0.00000000E+00  0.00000000E+00
  0.00000000E+00  0.00000000E+00  0.00000000E+00
  0.00000000E+00  0.00000000E+00  0.00000000E+00
  0.00000000E+00  0.00000000E+00  0.00000000E+00
  0.00000000E+00  0.00000000E+00  0.00000000E+00
  0.00000000E+00  0.00000000E+00  0.00000000E+00
  0.00000000E+00  0.00000000E+00  0.00000000E+00
  0.00000000E+00  0.00000000E+00  0.00000000E+00
  0.00000000E+00  0.00000000E+00  0.00000000E+00
