Na2 V2 O4 F2                            
   1.00000000000000     
    -2.6028904607561909   -4.6326084440050836   -0.0657639608478791
    -5.2889901701938404    0.0508494231102472   -0.0706824676404216
    -2.6891332971405988   -1.5529387921558633   -4.4261290733834624
   Na   V    O    F 
     2     2     4     2
Direct
  0.2709204276008026  0.2396249938030301  0.2213610552464138
  0.7428149583339382  0.7681056722141968  0.7240765883816087
  0.0379991774278270  0.9646318846615892  0.9778327885499106
  0.4773891114714187  0.5269922175604419  0.4807442526374271
  0.2834560912195327  0.6932439483845821  0.2033369203728581
  0.7250992549232808  0.7704966804868402  0.2542508810872576
  0.2979826915924140  0.2274860235801387  0.7438260777514012
  0.1742097525433442  0.8117137085035196  0.6968786463048121
  0.7148786698473730  0.3239986705370923  0.7912367165255835
  0.8212498650400755  0.2197062002685755  0.2684560731427293
 
  0.00000000E+00  0.00000000E+00  0.00000000E+00
  0.00000000E+00  0.00000000E+00  0.00000000E+00
  0.00000000E+00  0.00000000E+00  0.00000000E+00
  0.00000000E+00  0.00000000E+00  0.00000000E+00
  0.00000000E+00  0.00000000E+00  0.00000000E+00
  0.00000000E+00  0.00000000E+00  0.00000000E+00
  0.00000000E+00  0.00000000E+00  0.00000000E+00
  0.00000000E+00  0.00000000E+00  0.00000000E+00
  0.00000000E+00  0.00000000E+00  0.00000000E+00
  0.00000000E+00  0.00000000E+00  0.00000000E+00
