Fe4 O4 F8                               
   1.00000000000000     
     4.9048405842155693   -0.0672627319583714   -0.0150498812065651
    -2.5581946883119024    4.3665709477731163    0.0182453328839459
     0.1497873447342882   -0.2282495784626840    9.5170276333107147
   Fe   O    F 
     4     4     8
Direct
  0.3383858661926036  0.6889417178026731  0.6080368891363667
  0.6274038619218374  0.2943266091897684  0.3976286751531770
  0.6611591359569571  0.3375361826696084  0.1070531118708682
  0.3732239306357660  0.6555902846018165  0.8975619252975838
  0.3912572810931444  0.3570749319414101  0.0010590709878300
  0.6129052970884971 -0.0138711894417153  0.5063187934945788
  0.6602937403583764  0.6148813604584573  0.2417633148847422
  0.3340084399009693  0.9531291254404637  0.7477286872070595
  0.6774056858729546  0.0235588769728597  0.0014434034130974
  0.0340778154708333  0.6458730617521067  0.0032164920401460
  0.9704070903834470  0.6275149238567201  0.5009727294972310
  0.3258545066144499  0.3633643159698236  0.4990851146669479
  0.0600394512019682  0.4018001306031783  0.7456659614675744
  0.3465375558950477  0.0323412769601199  0.2487646247795981
  0.6499857597287937  0.6823345803201917  0.7466047914828651
  0.9370545816843558  0.3356038109025379  0.2470964146203266
 
  0.00000000E+00  0.00000000E+00  0.00000000E+00
  0.00000000E+00  0.00000000E+00  0.00000000E+00
  0.00000000E+00  0.00000000E+00  0.00000000E+00
  0.00000000E+00  0.00000000E+00  0.00000000E+00
  0.00000000E+00  0.00000000E+00  0.00000000E+00
  0.00000000E+00  0.00000000E+00  0.00000000E+00
  0.00000000E+00  0.00000000E+00  0.00000000E+00
  0.00000000E+00  0.00000000E+00  0.00000000E+00
  0.00000000E+00  0.00000000E+00  0.00000000E+00
  0.00000000E+00  0.00000000E+00  0.00000000E+00
  0.00000000E+00  0.00000000E+00  0.00000000E+00
  0.00000000E+00  0.00000000E+00  0.00000000E+00
  0.00000000E+00  0.00000000E+00  0.00000000E+00
  0.00000000E+00  0.00000000E+00  0.00000000E+00
  0.00000000E+00  0.00000000E+00  0.00000000E+00
  0.00000000E+00  0.00000000E+00  0.00000000E+00
