Na8 Mn8 O16 F8                          
   1.00000000000000     
     7.6579623225131908    0.0235812199486565   -0.0001784901143518
    -0.0006818343556867    7.2800385358817774   -0.0001860446477425
    -0.0002352737455623   -0.0001943804712392    7.5542347859664662
   Na   Mn   O    F 
     8     8    16     8
Direct
  0.2521694964134448  0.2367837386722787  0.2520034341562664
  0.2521976892745036  0.2368378203205573  0.7480410928949913
  0.2674567006088916  0.7534708211659790  0.2531533906971414
  0.2676056261410363  0.7535198466313840  0.7468563694318325
  0.7491564193836795  0.2542276861399496  0.2463081872766986
  0.7491627366501227  0.2541135808782757  0.7536978725071040
  0.7445519558206284  0.7544677685808046  0.2463306813669572
  0.7445743300754870  0.7544075654584174  0.7536185161635907
  0.0076702094516919  0.9969721423552569  0.0000295993638147
  0.9842012267468941 -0.0002480799857897  0.5000055354549053
  0.0022529470798723  0.5041629556106340 -0.0000052568897495
 -0.0008113122610064  0.4994140384406614  0.5000003743061276
  0.5072369954239552  0.0152449356211800  0.0000311755832840
  0.5172132704336220  0.0070657107299634  0.4999784990459838
  0.4993835931768630  0.4899032344420737 -0.0000004182434038
  0.4997163327234758  0.4943443287645689  0.5000036085995986
  0.2436210219397346  0.9439430495209241  0.9999134925992930
  0.7467548398907817  0.0552860296347326  0.0001263111455461
  0.7461913886902206  0.0665529571011070  0.4998962263666742
  0.0562032071825327  0.2498239041397261  0.0000256422072832
  0.0499305600887599  0.2460644543204206  0.4999759802156069
  0.9384335196725289  0.7500583651247992  0.0000097874859691
  0.9398173918003315  0.7511312617780528  0.4999770971098177
  0.4367163977505493  0.2494644613493638  0.9999895279335548
  0.4401180023295482  0.2503074434452124  0.5000054342255190
  0.5520903501173652  0.7498023710481786  0.5000018307836550
  0.0016705673569052  0.4954068266816260  0.2455857762514752
  0.0015638235809809  0.4953966713673819  0.7544067171712862
  0.4935156552849413  0.9911619511529995  0.2524611576093742
  0.4937590642824736  0.9912000535686356  0.7475314486759833
  0.5043790730311341  0.5063638400629246  0.2538390062554514
  0.5044427630553960  0.5063589743531565  0.7461583209357553
  0.2433075426799544  0.9449949513223344  0.5000887861963094
  0.2383006780986492  0.5663316464292502  0.9998842694185046
  0.2630881062715166  0.5607137198007466  0.5000307342661838
  0.7642006662574509  0.4446798432088770  0.0000085829518986
  0.7358303335248032  0.4363299084314221  0.4999732857853767
  0.5548518812473895  0.7497152283786614  0.0000037763811795
  0.0038744573508254  0.9970532639516503  0.2448490286401737
  0.0036004913720716  0.9971707300016138  0.7552051176729936
 
  0.00000000E+00  0.00000000E+00  0.00000000E+00
  0.00000000E+00  0.00000000E+00  0.00000000E+00
  0.00000000E+00  0.00000000E+00  0.00000000E+00
  0.00000000E+00  0.00000000E+00  0.00000000E+00
  0.00000000E+00  0.00000000E+00  0.00000000E+00
  0.00000000E+00  0.00000000E+00  0.00000000E+00
  0.00000000E+00  0.00000000E+00  0.00000000E+00
  0.00000000E+00  0.00000000E+00  0.00000000E+00
  0.00000000E+00  0.00000000E+00  0.00000000E+00
  0.00000000E+00  0.00000000E+00  0.00000000E+00
  0.00000000E+00  0.00000000E+00  0.00000000E+00
  0.00000000E+00  0.00000000E+00  0.00000000E+00
  0.00000000E+00  0.00000000E+00  0.00000000E+00
  0.00000000E+00  0.00000000E+00  0.00000000E+00
  0.00000000E+00  0.00000000E+00  0.00000000E+00
  0.00000000E+00  0.00000000E+00  0.00000000E+00
  0.00000000E+00  0.00000000E+00  0.00000000E+00
  0.00000000E+00  0.00000000E+00  0.00000000E+00
  0.00000000E+00  0.00000000E+00  0.00000000E+00
  0.00000000E+00  0.00000000E+00  0.00000000E+00
  0.00000000E+00  0.00000000E+00  0.00000000E+00
  0.00000000E+00  0.00000000E+00  0.00000000E+00
  0.00000000E+00  0.00000000E+00  0.00000000E+00
  0.00000000E+00  0.00000000E+00  0.00000000E+00
  0.00000000E+00  0.00000000E+00  0.00000000E+00
  0.00000000E+00  0.00000000E+00  0.00000000E+00
  0.00000000E+00  0.00000000E+00  0.00000000E+00
  0.00000000E+00  0.00000000E+00  0.00000000E+00
  0.00000000E+00  0.00000000E+00  0.00000000E+00
  0.00000000E+00  0.00000000E+00  0.00000000E+00
  0.00000000E+00  0.00000000E+00  0.00000000E+00
  0.00000000E+00  0.00000000E+00  0.00000000E+00
  0.00000000E+00  0.00000000E+00  0.00000000E+00
  0.00000000E+00  0.00000000E+00  0.00000000E+00
  0.00000000E+00  0.00000000E+00  0.00000000E+00
  0.00000000E+00  0.00000000E+00  0.00000000E+00
  0.00000000E+00  0.00000000E+00  0.00000000E+00
  0.00000000E+00  0.00000000E+00  0.00000000E+00
  0.00000000E+00  0.00000000E+00  0.00000000E+00
  0.00000000E+00  0.00000000E+00  0.00000000E+00
