Na8 Ti8 O16 F8                          
   1.00000000000000     
     7.5888018837400271   -0.0000000996018944    0.0000000854614768
    -0.0000001109871919    7.7531975137560334    0.0130327349501029
     0.0000001035163151    0.0127048759817987    7.9608621598684310
   Na   Ti   O    F 
     8     8    16     8
Direct
  0.2487318963633148  0.2377836587275468  0.2462474152645169
  0.2487319435897821  0.2622162958591190  0.7537527863181189
  0.2487319270752738  0.7622163469089325  0.2537528048370324
  0.2487319023219775  0.7377836692617704  0.7462473859468201
  0.7512722162101153  0.2377804681121425  0.2462445023416534
  0.7512722813788938  0.2622196406880787  0.7537553090189705
  0.7512723058034213  0.7622196152852241  0.2537552687130026
  0.7512722316617739  0.7377804021004515  0.7462445384690549
  0.0000042716021768  0.9871049600564791  0.9845442729590408
  0.0000042257705010  0.0128950789042520  0.5154557632990692
  0.0000042925618905  0.5128950683827455  0.0154557296995254
  0.0000042695172407  0.4871049165445311  0.4845442686398915
  0.4999999633722638  0.0008765710530560  0.0000878827366950
  0.5000000366155249  0.9991233913656744  0.4999121380124211
  0.4999998774578885  0.4991233884831386  0.9999121401552351
  0.4999999862809078  0.5008765757724101  0.5000878920801830
  0.2488018396190310  0.0066382091533437  0.0109734521642823
  0.2488018222647711  0.9933617881722573  0.4890264730856554
  0.2488018058097943  0.4933617757568656  0.9890264473880364
  0.2488018240473715  0.5066382075787471  0.5109734667348113
  0.7511989852396628  0.0066950565867395  0.0109668686125703
  0.7511989943727878  0.9933049080734195  0.4890332014718221
  0.7511989923898950  0.4933049366023101  0.9890331613963058
  0.7511989960047484  0.5066951071439575  0.5109668460734270
  0.9999796776469519  0.2500000067164084  0.5000000099443349
  0.9999796850143780  0.7499999539182981 -0.0000000010340136
  0.4999712742784803  0.2499999934754698 -0.0000000053843452
  0.5000140778820095  0.2500000096011963  0.5000000009268667
  0.5000140838158963  0.7499999946128699  0.9999999943987974
  0.4999712447914585  0.7500000000730783  0.5000000147823329
  0.0000069344704158  0.9999999905048590  0.7499999997537370
  0.0000069343483549  0.5000000304652635  0.2499999768414522
  0.0000236385387024  0.2500000072996648  0.0000000022008626
  0.0000236398799607  0.7499999912290349  0.4999999814657769
 -0.0000004361043988  0.9999999783371245  0.2500000085502136
 -0.0000004532405816  0.5000000109761366  0.7499999775238491
  0.5000039298936662  0.0000000069157633  0.2500000177326808
  0.4999824819341980  0.0000000052632825  0.7499999930417290
  0.4999824413237097  0.4999999938124482  0.2499999947268902
  0.5000039581957829  0.4999999902258945  0.7500000191106800
 
  0.00000000E+00  0.00000000E+00  0.00000000E+00
  0.00000000E+00  0.00000000E+00  0.00000000E+00
  0.00000000E+00  0.00000000E+00  0.00000000E+00
  0.00000000E+00  0.00000000E+00  0.00000000E+00
  0.00000000E+00  0.00000000E+00  0.00000000E+00
  0.00000000E+00  0.00000000E+00  0.00000000E+00
  0.00000000E+00  0.00000000E+00  0.00000000E+00
  0.00000000E+00  0.00000000E+00  0.00000000E+00
  0.00000000E+00  0.00000000E+00  0.00000000E+00
  0.00000000E+00  0.00000000E+00  0.00000000E+00
  0.00000000E+00  0.00000000E+00  0.00000000E+00
  0.00000000E+00  0.00000000E+00  0.00000000E+00
  0.00000000E+00  0.00000000E+00  0.00000000E+00
  0.00000000E+00  0.00000000E+00  0.00000000E+00
  0.00000000E+00  0.00000000E+00  0.00000000E+00
  0.00000000E+00  0.00000000E+00  0.00000000E+00
  0.00000000E+00  0.00000000E+00  0.00000000E+00
  0.00000000E+00  0.00000000E+00  0.00000000E+00
  0.00000000E+00  0.00000000E+00  0.00000000E+00
  0.00000000E+00  0.00000000E+00  0.00000000E+00
  0.00000000E+00  0.00000000E+00  0.00000000E+00
  0.00000000E+00  0.00000000E+00  0.00000000E+00
  0.00000000E+00  0.00000000E+00  0.00000000E+00
  0.00000000E+00  0.00000000E+00  0.00000000E+00
  0.00000000E+00  0.00000000E+00  0.00000000E+00
  0.00000000E+00  0.00000000E+00  0.00000000E+00
  0.00000000E+00  0.00000000E+00  0.00000000E+00
  0.00000000E+00  0.00000000E+00  0.00000000E+00
  0.00000000E+00  0.00000000E+00  0.00000000E+00
  0.00000000E+00  0.00000000E+00  0.00000000E+00
  0.00000000E+00  0.00000000E+00  0.00000000E+00
  0.00000000E+00  0.00000000E+00  0.00000000E+00
  0.00000000E+00  0.00000000E+00  0.00000000E+00
  0.00000000E+00  0.00000000E+00  0.00000000E+00
  0.00000000E+00  0.00000000E+00  0.00000000E+00
  0.00000000E+00  0.00000000E+00  0.00000000E+00
  0.00000000E+00  0.00000000E+00  0.00000000E+00
  0.00000000E+00  0.00000000E+00  0.00000000E+00
  0.00000000E+00  0.00000000E+00  0.00000000E+00
  0.00000000E+00  0.00000000E+00  0.00000000E+00
