Mn4 O4 F8                               
   1.00000000000000     
     4.7392328478699008   -0.0001938965051513    0.0001885119835235
     0.0007730885398668    5.0795349621371111    0.0132555254660541
    -0.0000214449841543   -0.0140446516802558    7.1245410862494030
   Mn   O    F 
     4     4     8
Direct
  0.5022132439532966  0.9761788228676307 -0.0000708929751604
  0.0022614746767960  0.5238422110239809  0.0000580385364390
  0.4977775970334203  0.0239178156187631  0.4999563721281252
  0.9977534654079983  0.4761107417939881  0.5000789389029270
  0.3185955660217669  0.6880411977694437  0.9319604878302409
  0.8186105627728938  0.8119247870290789  0.0680253996378971
  0.6808327026827292  0.3125925713299232  0.4319541416070585
  0.1808258649054355  0.1874218559358821  0.5680595931890751
  0.1276132869722144  0.4721348933647753  0.2499056904218905
  0.8724765009632284  0.5277888682387519  0.7498334133466484
  0.6276605907369188  0.0278163212911427  0.7500613089696552
  0.3724328096184875  0.9722644877163524  0.2501670806544720
  0.6867811836668214  0.3058390633555292  0.0531520976379980
  0.1867293506287828  0.1940684181910615  0.9468448405116798
  0.3137083751611359  0.6936921254596070  0.5531709816167240
  0.8137274247980743  0.8063658190140967  0.4468425079843231
 
  0.00000000E+00  0.00000000E+00  0.00000000E+00
  0.00000000E+00  0.00000000E+00  0.00000000E+00
  0.00000000E+00  0.00000000E+00  0.00000000E+00
  0.00000000E+00  0.00000000E+00  0.00000000E+00
  0.00000000E+00  0.00000000E+00  0.00000000E+00
  0.00000000E+00  0.00000000E+00  0.00000000E+00
  0.00000000E+00  0.00000000E+00  0.00000000E+00
  0.00000000E+00  0.00000000E+00  0.00000000E+00
  0.00000000E+00  0.00000000E+00  0.00000000E+00
  0.00000000E+00  0.00000000E+00  0.00000000E+00
  0.00000000E+00  0.00000000E+00  0.00000000E+00
  0.00000000E+00  0.00000000E+00  0.00000000E+00
  0.00000000E+00  0.00000000E+00  0.00000000E+00
  0.00000000E+00  0.00000000E+00  0.00000000E+00
  0.00000000E+00  0.00000000E+00  0.00000000E+00
  0.00000000E+00  0.00000000E+00  0.00000000E+00
