Ti4 O4 F8                               
   1.00000000000000     
     5.2951738373837864   -0.0335140244148321   -0.0023386022396279
    -0.0309358578166026    5.4372920839218875   -0.0219284258414719
     0.0064662244674786   -0.0399291374768012    7.3419518429360018
   Ti   O    F 
     4     4     8
Direct
  0.5095579853027383  0.9996882774104180  0.9894391205626905
  0.0148664142667058  0.4991754046239208  0.0192194042873766
  0.4972387355622335  0.0099148612959534  0.4853675775481663
  0.9773698221800943  0.4855673668486868  0.4944198831366605
  0.0889674243557843  0.4875642902326526  0.2493850713926671
  0.5673065511647224  0.0075642060191483  0.7531856579201109
  0.4247369577306538  0.9842526093475987  0.2444698964729667
  0.7137691103688178  0.2867343467953986  0.4626601934907927
  0.9198666757269319  0.5183308714713484  0.7573520444341331
  0.7079577878351184  0.3024408083135892  0.0418067286945868
  0.3034752263563611  0.6951738897142843  0.9518994432333088
  0.1998441201360843  0.2058746222333078  0.9553482543920280
  0.8098099436578317  0.7947245433415141  0.0416525979985682
  0.2727474688293315  0.7201030431456350  0.5435016858412085
  0.7857002439073528  0.7831866696988227  0.4609260774174668
  0.2067855326192521  0.2197041895077212  0.5493663631772681
 
  0.00000000E+00  0.00000000E+00  0.00000000E+00
  0.00000000E+00  0.00000000E+00  0.00000000E+00
  0.00000000E+00  0.00000000E+00  0.00000000E+00
  0.00000000E+00  0.00000000E+00  0.00000000E+00
  0.00000000E+00  0.00000000E+00  0.00000000E+00
  0.00000000E+00  0.00000000E+00  0.00000000E+00
  0.00000000E+00  0.00000000E+00  0.00000000E+00
  0.00000000E+00  0.00000000E+00  0.00000000E+00
  0.00000000E+00  0.00000000E+00  0.00000000E+00
  0.00000000E+00  0.00000000E+00  0.00000000E+00
  0.00000000E+00  0.00000000E+00  0.00000000E+00
  0.00000000E+00  0.00000000E+00  0.00000000E+00
  0.00000000E+00  0.00000000E+00  0.00000000E+00
  0.00000000E+00  0.00000000E+00  0.00000000E+00
  0.00000000E+00  0.00000000E+00  0.00000000E+00
  0.00000000E+00  0.00000000E+00  0.00000000E+00
