Cr2 O2 F4                               
   1.00000000000000     
    -2.7188430751998589   -4.6437340764823318   -0.0180795687330703
    -5.3830343508896039   -0.0402081663420453   -0.0186132977031286
    -2.7175660539904087   -1.5698017408946920   -4.4251098752301008
   Na   Cr   O    F 
     2     2     2     4
Direct
  0.2287037399576874  0.2818230740153496  0.2350987837287661
  0.7785582371983750  0.7313118634355362  0.7356332326885990
  0.0043064278505014  0.0047929688444128  0.9579181183561261
  0.5041976652651172  0.5046985997743221  0.5132280530938615
  0.1875410189721975  0.6951864865422550  0.7952485596841328
  0.8134571113676401  0.3226439788537405  0.6770992291206284
  0.2173080862890941  0.7052292093563182  0.2749186543144049
  0.6498664015765740  0.8591111428863769  0.2361606899450805
  0.3584416490920859  0.1504931512877690  0.7374145925371636
  0.8036196624307408  0.2907095250039262  0.1992800865312319
 
  0.00000000E+00  0.00000000E+00  0.00000000E+00
  0.00000000E+00  0.00000000E+00  0.00000000E+00
  0.00000000E+00  0.00000000E+00  0.00000000E+00
  0.00000000E+00  0.00000000E+00  0.00000000E+00
  0.00000000E+00  0.00000000E+00  0.00000000E+00
  0.00000000E+00  0.00000000E+00  0.00000000E+00
  0.00000000E+00  0.00000000E+00  0.00000000E+00
  0.00000000E+00  0.00000000E+00  0.00000000E+00
  0.00000000E+00  0.00000000E+00  0.00000000E+00
  0.00000000E+00  0.00000000E+00  0.00000000E+00
