Cr4 O4 F8                               
   1.00000000000000     
     4.9328761474442526    0.1015015592121186   -0.0139350739272792
     0.0832734214057768    5.1691781983708864   -0.0407133968643184
     0.0404804064231741   -0.0765164891612371    7.1910132287659456
   Cr   O    F 
     4     4     8
Direct
  0.4620224811568831  0.0147894674077779  0.0176472748596962
  0.9949474286061407  0.4984090929027118  0.9974830479864771
  0.5038237606273132  0.9953761937357244  0.5025559482274099
  0.0019385932776004  0.4961918347497860  0.4999975214521318
  0.2075103496373242  0.1953468964648748  0.9397778567365036
  0.7901009931908244  0.7619205680709532  0.4599001521770430
  0.2177113319953044  0.2308776033888028  0.5372044936401338
  0.4111897424503736  0.9755577894017732  0.2398749776013475
  0.6810807610713779  0.3101310171672902  0.0608726481947899
  0.3076162309052650  0.6988829205547347  0.9442474440882048
  0.8085183992753965  0.8174681675677246  0.0446737058325358
  0.2871805535267545  0.7149571158870219  0.5696857804764931
  0.7188080839634887  0.2771764210670284  0.4335132429641228
  0.1232788465304157  0.4909287789855323  0.2476809275500969
  0.8710079489276858  0.5042175769513622  0.7484552907096474
  0.6132644948578587  0.0177685556968872  0.7564296875033805
 
  0.00000000E+00  0.00000000E+00  0.00000000E+00
  0.00000000E+00  0.00000000E+00  0.00000000E+00
  0.00000000E+00  0.00000000E+00  0.00000000E+00
  0.00000000E+00  0.00000000E+00  0.00000000E+00
  0.00000000E+00  0.00000000E+00  0.00000000E+00
  0.00000000E+00  0.00000000E+00  0.00000000E+00
  0.00000000E+00  0.00000000E+00  0.00000000E+00
  0.00000000E+00  0.00000000E+00  0.00000000E+00
  0.00000000E+00  0.00000000E+00  0.00000000E+00
  0.00000000E+00  0.00000000E+00  0.00000000E+00
  0.00000000E+00  0.00000000E+00  0.00000000E+00
  0.00000000E+00  0.00000000E+00  0.00000000E+00
  0.00000000E+00  0.00000000E+00  0.00000000E+00
  0.00000000E+00  0.00000000E+00  0.00000000E+00
  0.00000000E+00  0.00000000E+00  0.00000000E+00
  0.00000000E+00  0.00000000E+00  0.00000000E+00
