Mn4 O4 F8                               
   1.00000000000000     
     5.1030635522559518   -0.1329594253466039   -0.0419753957712930
    -2.6669243681774315    4.6183868190254671    0.0847510699404873
     0.0552262515000034   -0.0971296920598989    8.6145788537925956
   Mn   O    F 
     4     4     8
Direct
  0.2525747398016917  0.6592933506883328  0.6094861318048511
  0.5640605209188123  0.2792655918862467  0.3919317883355776
  0.7473775192105723  0.4067494397319761  0.1094318609407548
  0.4361007805306799  0.7153939532836624  0.8918967863838079
  0.6739920654053653  0.5734833423733929  0.9581403324566251
  0.3260321475446715  0.8993184651776877  0.4580321639599416
  0.7780943391137598  0.6176038762489255  0.2743084044236374
  0.2218494428731071  0.8394794127673556  0.7742861842883630
  0.6900609700602369  0.0756604255538596  0.9789682201058775
  0.1781583483695114  0.5969879710366753  0.0624463922990518
  0.8217596226401167  0.4185720673207017  0.5625304637391447
  0.3099616957438081  0.3852915754093140  0.4792906538725468
  0.1858401760780926  0.3731346899324792  0.7807592796069454
  0.3515804001311525  0.1619520170635123  0.1939375563909415
  0.6484104521815499  0.8105442736716434  0.6938618088237042
  0.8141467793968797  0.1872695478542494  0.2806919725682074
 
  0.00000000E+00  0.00000000E+00  0.00000000E+00
  0.00000000E+00  0.00000000E+00  0.00000000E+00
  0.00000000E+00  0.00000000E+00  0.00000000E+00
  0.00000000E+00  0.00000000E+00  0.00000000E+00
  0.00000000E+00  0.00000000E+00  0.00000000E+00
  0.00000000E+00  0.00000000E+00  0.00000000E+00
  0.00000000E+00  0.00000000E+00  0.00000000E+00
  0.00000000E+00  0.00000000E+00  0.00000000E+00
  0.00000000E+00  0.00000000E+00  0.00000000E+00
  0.00000000E+00  0.00000000E+00  0.00000000E+00
  0.00000000E+00  0.00000000E+00  0.00000000E+00
  0.00000000E+00  0.00000000E+00  0.00000000E+00
  0.00000000E+00  0.00000000E+00  0.00000000E+00
  0.00000000E+00  0.00000000E+00  0.00000000E+00
  0.00000000E+00  0.00000000E+00  0.00000000E+00
  0.00000000E+00  0.00000000E+00  0.00000000E+00
