Na8 Mn8 O16 F8                          
   1.00000000000000     
     7.3672454036990924    0.0392545539622817    0.0384807037441848
    -0.0475443670991758    7.4202658678808735    0.0309944980806572
     0.0398790594065305   -0.0005693634065250    7.3978983460484429
   Na   Mn   O    F 
     8     8    16     8
Direct
  0.2379148221152153  0.2481164798626264  0.2286802065460465
  0.2224139323961380  0.2572881566926213  0.7392780201672609
  0.2667066899403139  0.7495258721545837  0.2651532189298955
  0.2701288499108968  0.7441401938825156  0.7713651911796343
  0.7311574074788724  0.2552468235520177  0.2281282615519174
  0.7346627740689591  0.2508216152320061  0.7305367996419310
  0.7685421956826171  0.7452338004181077  0.2583895319532779
  0.7639882981173194  0.7458987239588075  0.7815094893242771
  0.9991640174816262 -0.0005673474260232 -0.0006463546418618
  0.9976765031207934  0.9859719919883241  0.5014331967863164
 -0.0001100279406870  0.5000228950695605  0.0000603772097387
  0.9980479141185785  0.5138930826794414  0.5006647075295744
  0.5011229885141182 -0.0002967225720341  0.9856363426379959
  0.5008807262020230  0.0013383188294435  0.5138919653240462
  0.4996195279135870  0.4999160676280195 -0.0013045596620499
  0.5017617697545453  0.5038945658627315  0.4983933900503878
  0.2510312019966843  0.0307928578721933  0.9532205538583080
  0.2518053052007276  0.4688199703872035  0.9587996114351750
  0.2508714413552385  0.5422251704966543  0.5401402660036032
  0.7528820083948569 -0.0284384993953891  0.0470390889857274
  0.7505968868576157  0.5315973832101275  0.0397326878086007
  0.7469090751931882  0.4554432715561220  0.4624113279378202
  0.9378107799533179  0.7489907497550861  0.5295125865144956
  0.5399685918577782  0.2518741474133799  0.9759563794818132
  0.4589066461777371  0.2476109372132566  0.5356750396935911
  0.4654157521035015  0.7479531627460771  0.0258086311023460
  0.5294537101996575  0.7511322317682366  0.4555169523782526
  0.0481091375019644  0.9694620156439845  0.2503250685523363
  0.9595027795306205  0.0357972980774538  0.7523577211489313
  0.0421808149826336  0.5331931713167947  0.2477534287469635
  0.9625173576884798  0.4630738322982570  0.7534528536014418
  0.5583154536605281  0.9638617094875798  0.7457697972387517
  0.2557111041407725  0.9545213281095404  0.5531542144272140
  0.7427150500405317  0.0502803895491214  0.4487144552126985
 -0.0246938458980895  0.2499398445775618  0.0467752454020882
  0.0455152994480422  0.2481795942942162  0.4727764552050141
  0.0274356213979624  0.7502093957186680  0.9536095752715876
  0.4527881800616863  0.0319948493951097  0.2531199946168356
  0.4547161342624532  0.4635613782626853  0.2499630574943757
  0.5458571250172077  0.5374792924333323  0.7472452233536347
 
  0.00000000E+00  0.00000000E+00  0.00000000E+00
  0.00000000E+00  0.00000000E+00  0.00000000E+00
  0.00000000E+00  0.00000000E+00  0.00000000E+00
  0.00000000E+00  0.00000000E+00  0.00000000E+00
  0.00000000E+00  0.00000000E+00  0.00000000E+00
  0.00000000E+00  0.00000000E+00  0.00000000E+00
  0.00000000E+00  0.00000000E+00  0.00000000E+00
  0.00000000E+00  0.00000000E+00  0.00000000E+00
  0.00000000E+00  0.00000000E+00  0.00000000E+00
  0.00000000E+00  0.00000000E+00  0.00000000E+00
  0.00000000E+00  0.00000000E+00  0.00000000E+00
  0.00000000E+00  0.00000000E+00  0.00000000E+00
  0.00000000E+00  0.00000000E+00  0.00000000E+00
  0.00000000E+00  0.00000000E+00  0.00000000E+00
  0.00000000E+00  0.00000000E+00  0.00000000E+00
  0.00000000E+00  0.00000000E+00  0.00000000E+00
  0.00000000E+00  0.00000000E+00  0.00000000E+00
  0.00000000E+00  0.00000000E+00  0.00000000E+00
  0.00000000E+00  0.00000000E+00  0.00000000E+00
  0.00000000E+00  0.00000000E+00  0.00000000E+00
  0.00000000E+00  0.00000000E+00  0.00000000E+00
  0.00000000E+00  0.00000000E+00  0.00000000E+00
  0.00000000E+00  0.00000000E+00  0.00000000E+00
  0.00000000E+00  0.00000000E+00  0.00000000E+00
  0.00000000E+00  0.00000000E+00  0.00000000E+00
  0.00000000E+00  0.00000000E+00  0.00000000E+00
  0.00000000E+00  0.00000000E+00  0.00000000E+00
  0.00000000E+00  0.00000000E+00  0.00000000E+00
  0.00000000E+00  0.00000000E+00  0.00000000E+00
  0.00000000E+00  0.00000000E+00  0.00000000E+00
  0.00000000E+00  0.00000000E+00  0.00000000E+00
  0.00000000E+00  0.00000000E+00  0.00000000E+00
  0.00000000E+00  0.00000000E+00  0.00000000E+00
  0.00000000E+00  0.00000000E+00  0.00000000E+00
  0.00000000E+00  0.00000000E+00  0.00000000E+00
  0.00000000E+00  0.00000000E+00  0.00000000E+00
  0.00000000E+00  0.00000000E+00  0.00000000E+00
  0.00000000E+00  0.00000000E+00  0.00000000E+00
  0.00000000E+00  0.00000000E+00  0.00000000E+00
  0.00000000E+00  0.00000000E+00  0.00000000E+00
