Fe4 O4 F8                               
   1.00000000000000     
     5.3021994293629202    0.1175422709597533   -0.0290226805767224
     0.1151735651218584    5.4498998120893480   -0.0015133740311722
    -0.0428607030163457   -0.0009362110253663    7.8154571814425564
   Na   Fe   O    F 
     4     4     4     8
Direct
  0.9772778909913744  0.0305906404749303  0.2540209617493135
  0.0280656573343321  0.9623957487178995  0.7418674863059062
  0.4738549010471070  0.4501653274970534  0.7584829533253890
  0.5219697728740916  0.5513689677888839  0.2475265666423807
  0.4994654088774305  0.0328123070754160  0.0028929623194983
  0.9913182230752551  0.4682104043685044  0.9992871226341716
  0.5018239347600909  0.9979052972192863  0.5008868086560103
  0.0000535282459745  0.4994093022364953  0.4989860594100271
  0.7106157338507328  0.2879687640624392  0.0572837359745042
  0.2094912699232601  0.2108944493874498  0.9417491482497218
  0.7817681854068015  0.7794866507725101  0.4559600290240793
  0.2192554175862588  0.2196650370735608  0.5364406757061251
  0.2904340307975167  0.7138275317115883  0.9522811483552099
  0.7893347957788501  0.7854004543176352  0.0469965731823972
  0.2890760737552004  0.7142373538568157  0.5652979370299488
  0.7115009556149194  0.2851010936626111  0.4420770392530056
  0.1045057620941471  0.4954946318263138  0.2474258914826462
  0.8944607736976129  0.5313003859537887  0.7511463534424548
  0.6077717519033553  0.0240778183040563  0.7517254281872751
  0.3979559423857036  0.9596878406927732  0.2476651190699213
 
  0.00000000E+00  0.00000000E+00  0.00000000E+00
  0.00000000E+00  0.00000000E+00  0.00000000E+00
  0.00000000E+00  0.00000000E+00  0.00000000E+00
  0.00000000E+00  0.00000000E+00  0.00000000E+00
  0.00000000E+00  0.00000000E+00  0.00000000E+00
  0.00000000E+00  0.00000000E+00  0.00000000E+00
  0.00000000E+00  0.00000000E+00  0.00000000E+00
  0.00000000E+00  0.00000000E+00  0.00000000E+00
  0.00000000E+00  0.00000000E+00  0.00000000E+00
  0.00000000E+00  0.00000000E+00  0.00000000E+00
  0.00000000E+00  0.00000000E+00  0.00000000E+00
  0.00000000E+00  0.00000000E+00  0.00000000E+00
  0.00000000E+00  0.00000000E+00  0.00000000E+00
  0.00000000E+00  0.00000000E+00  0.00000000E+00
  0.00000000E+00  0.00000000E+00  0.00000000E+00
  0.00000000E+00  0.00000000E+00  0.00000000E+00
  0.00000000E+00  0.00000000E+00  0.00000000E+00
  0.00000000E+00  0.00000000E+00  0.00000000E+00
  0.00000000E+00  0.00000000E+00  0.00000000E+00
  0.00000000E+00  0.00000000E+00  0.00000000E+00
