Co2 O2 F4                               
   1.00000000000000     
    -2.4736497087089440   -4.2861495900893614   -0.0050126488050244
    -4.9518850917790003   -0.0027334914453887   -0.0018739035006136
    -2.4734788833300314   -1.4248187713739071   -4.3481043884916177
   Co   O    F 
     2     2     4
Direct
  0.0090127132253386  0.9911803292505752  0.0051906970979019
  0.4916358190064969  0.5084165268489400  0.5055376064106696
  0.2438020506612375  0.6144097792719307  0.2515349968416274
  0.1144778674022433  0.7450938162858805  0.7496929302502195
  0.6174879306241152  0.8851292028467057  0.2497550567021349
  0.3853548871161934  0.1171895179618829  0.7502282520092578
  0.7538304908451181  0.3845559762992252  0.7445407593518141
  0.8843982411192499  0.2540248512348597  0.2435197013363748
 
  0.00000000E+00  0.00000000E+00  0.00000000E+00
  0.00000000E+00  0.00000000E+00  0.00000000E+00
  0.00000000E+00  0.00000000E+00  0.00000000E+00
  0.00000000E+00  0.00000000E+00  0.00000000E+00
  0.00000000E+00  0.00000000E+00  0.00000000E+00
  0.00000000E+00  0.00000000E+00  0.00000000E+00
  0.00000000E+00  0.00000000E+00  0.00000000E+00
  0.00000000E+00  0.00000000E+00  0.00000000E+00
