Na2 Ni2 O4 F2                           
   1.00000000000000     
     3.8415495403989164   -0.0021592115183898    0.0267725699998407
    -0.0010498023886659    3.8421700973550252   -0.0276716141046252
     0.0539164056085460   -0.0612752371006240    7.3988586817941702
   Na   Ni   O    F 
     2     2     4     2
Direct
  0.0012607171560355  0.0043648192891688  0.9902743371198800
  0.0065329825263482  0.0016196767438045  0.5142271948993449
  0.4925187978253040  0.4919259563786226  0.2571023508059428
  0.5074089221624319  0.5075523310147402  0.7566426378797350
  0.5033674093915058  0.4939693402449046  0.9985350468843378
  0.4953051037659472  0.5036871807368171  0.5131577079396121
  0.5084438501924262  0.0084424662671025  0.7733666591474652
  0.0086595563280214  0.5090039065506827  0.7335080722404248
  0.4841778130157590  0.9921960571618121  0.2490378586389930
  0.9923248476362129  0.4872382656123441  0.2571481344442565
 
  0.00000000E+00  0.00000000E+00  0.00000000E+00
  0.00000000E+00  0.00000000E+00  0.00000000E+00
  0.00000000E+00  0.00000000E+00  0.00000000E+00
  0.00000000E+00  0.00000000E+00  0.00000000E+00
  0.00000000E+00  0.00000000E+00  0.00000000E+00
  0.00000000E+00  0.00000000E+00  0.00000000E+00
  0.00000000E+00  0.00000000E+00  0.00000000E+00
  0.00000000E+00  0.00000000E+00  0.00000000E+00
  0.00000000E+00  0.00000000E+00  0.00000000E+00
  0.00000000E+00  0.00000000E+00  0.00000000E+00
