Chromium(IV) fluoride                   
   1.00000000000000     
     8.0891480364912223   -0.0000235187407445   -0.0006535411168355
    -0.0000230956196014    8.0877527203726878   -0.0004139019733960
    -0.0002912174433100   -0.0001899158824707    3.7801349371977677
   Cr   F 
     4    16
Direct
  0.1358520681966056  0.1358613918691276  0.0000036901137577
  0.8641602587394814  0.8641746567076325  0.9999992643913984
  0.3641609975736415  0.6358251282473120  0.5000006656118430
  0.6358504758614316  0.3641394176868928  0.5000000416883523
  0.1011835808613455  0.8988031749814809  0.0000206600405832
  0.8987819381907300  0.1012110891420335  0.9999948100588298
  0.6011855944442672  0.6011964334358453  0.5000803958832378
  0.3987808095699918  0.3987889836314906  0.4999097480190642
  0.3729019978605450  0.6270810066583934  0.9999998836320145
  0.6271232951783361  0.3728911553660623  0.0000006799476964
  0.8729025616273489  0.8729163576805732  0.4999955642909768
  0.1271232580800827  0.1271116898954361  0.5000082341764838
  0.1102023956093277  0.3450852655234158  0.0000195375098428
  0.8898078455855796  0.6549366133127066  0.9999707614390090
  0.1549467753026263  0.6102655909604451  0.4999128527375163
  0.8450439521950770  0.3896978685255803  0.5000680654536467
  0.3898081520248553  0.8450623242356841  0.5000709741492599
  0.6101925495056904  0.1549168458580752  0.4999382873565210
  0.3450456372295321  0.1103011723747755  0.0000638066265282
  0.6549458573635150  0.8897338349070338  0.9999420768734453
 
  0.00000000E+00  0.00000000E+00  0.00000000E+00
  0.00000000E+00  0.00000000E+00  0.00000000E+00
  0.00000000E+00  0.00000000E+00  0.00000000E+00
  0.00000000E+00  0.00000000E+00  0.00000000E+00
  0.00000000E+00  0.00000000E+00  0.00000000E+00
  0.00000000E+00  0.00000000E+00  0.00000000E+00
  0.00000000E+00  0.00000000E+00  0.00000000E+00
  0.00000000E+00  0.00000000E+00  0.00000000E+00
  0.00000000E+00  0.00000000E+00  0.00000000E+00
  0.00000000E+00  0.00000000E+00  0.00000000E+00
  0.00000000E+00  0.00000000E+00  0.00000000E+00
  0.00000000E+00  0.00000000E+00  0.00000000E+00
  0.00000000E+00  0.00000000E+00  0.00000000E+00
  0.00000000E+00  0.00000000E+00  0.00000000E+00
  0.00000000E+00  0.00000000E+00  0.00000000E+00
  0.00000000E+00  0.00000000E+00  0.00000000E+00
  0.00000000E+00  0.00000000E+00  0.00000000E+00
  0.00000000E+00  0.00000000E+00  0.00000000E+00
  0.00000000E+00  0.00000000E+00  0.00000000E+00
  0.00000000E+00  0.00000000E+00  0.00000000E+00
