Co8 O8 F16                              
   1.00000000000000     
     7.5435781002439599   -0.0000097658367756   -0.0000030802512959
    -0.0000101094979412    7.6662654288297478    0.0081248805102157
    -0.0000031515644112   -0.0024715612094384    7.6490322447526289
   Co   O    F 
     8     8    16
Direct
 -0.0001333117045697 -0.0000007076834090  0.0000008183915628
  0.0055839537208321 -0.0000000259747529  0.4999994720312452
  0.0015190896031264  0.5000002411459122  0.0000000198638794
  0.9942310781647223  0.4999996295432164  0.5000000121531888
  0.4998629998231940  0.0000007606885924  0.0000002490672965
  0.5055861773732689 -0.0000004078866300  0.4999987001273507
  0.5015194546578862  0.5000011232999008 -0.0000001031342215
  0.4942228738636264  0.5000000751580297  0.5000001684372893
  0.2525306878087064 -0.0000002219764497  0.5000003901648733
  0.2470664443852542  0.4999996843784008  0.4999995326191431
  0.7501791794315954  0.4999999179496437 -0.0000002633632327
  0.7470660191970122  0.4999997301682496  0.4999995394004107
  0.2500797227794265  0.0000002924279841  0.0000006112074048
  0.2501792513960951  0.4999998100308911 -0.0000002728972124
  0.7500819559561478  0.0000002134488060  0.0000007117931757
  0.7525300709596715 -0.0000002481731182  0.5000003324185945
  0.9999748062078363  0.9993868003239782  0.2554218400367977
  0.4999897944236110  0.0006114106724964  0.7445802422764609
  0.0000102799728537  0.7503575514932020  0.0004936295321093
  0.4999865734495882  0.2496434637283605  0.9995041403997447
  0.9999747682477116  0.0006134748796116  0.7445785346987012
  0.9996070301497333  0.4997126593648856  0.2466289479698215
  0.9996070441991517  0.5002866976921229  0.7533707867601330
  0.4999896860555237  0.9993891523875530  0.2554215541991403
  0.4996100441745950  0.4997119938722060  0.2466283879130425
  0.4996100462912557  0.5002881627562173  0.7533713037839966
  0.0000104255181740  0.2496423867753348  0.9995066335856011
 -0.0001175576065305  0.2543492767624998  0.5000415510367210
 -0.0001176716817953  0.7456491243232654  0.4999582824435385
  0.4998863402143287  0.2543505826817506  0.5000426092934666
  0.4999862300591126  0.7503576661734380  0.0004941453814572
  0.4998865129088621  0.7456497295678112  0.4999574924085271
 
  0.00000000E+00  0.00000000E+00  0.00000000E+00
  0.00000000E+00  0.00000000E+00  0.00000000E+00
  0.00000000E+00  0.00000000E+00  0.00000000E+00
  0.00000000E+00  0.00000000E+00  0.00000000E+00
  0.00000000E+00  0.00000000E+00  0.00000000E+00
  0.00000000E+00  0.00000000E+00  0.00000000E+00
  0.00000000E+00  0.00000000E+00  0.00000000E+00
  0.00000000E+00  0.00000000E+00  0.00000000E+00
  0.00000000E+00  0.00000000E+00  0.00000000E+00
  0.00000000E+00  0.00000000E+00  0.00000000E+00
  0.00000000E+00  0.00000000E+00  0.00000000E+00
  0.00000000E+00  0.00000000E+00  0.00000000E+00
  0.00000000E+00  0.00000000E+00  0.00000000E+00
  0.00000000E+00  0.00000000E+00  0.00000000E+00
  0.00000000E+00  0.00000000E+00  0.00000000E+00
  0.00000000E+00  0.00000000E+00  0.00000000E+00
  0.00000000E+00  0.00000000E+00  0.00000000E+00
  0.00000000E+00  0.00000000E+00  0.00000000E+00
  0.00000000E+00  0.00000000E+00  0.00000000E+00
  0.00000000E+00  0.00000000E+00  0.00000000E+00
  0.00000000E+00  0.00000000E+00  0.00000000E+00
  0.00000000E+00  0.00000000E+00  0.00000000E+00
  0.00000000E+00  0.00000000E+00  0.00000000E+00
  0.00000000E+00  0.00000000E+00  0.00000000E+00
  0.00000000E+00  0.00000000E+00  0.00000000E+00
  0.00000000E+00  0.00000000E+00  0.00000000E+00
  0.00000000E+00  0.00000000E+00  0.00000000E+00
  0.00000000E+00  0.00000000E+00  0.00000000E+00
  0.00000000E+00  0.00000000E+00  0.00000000E+00
  0.00000000E+00  0.00000000E+00  0.00000000E+00
  0.00000000E+00  0.00000000E+00  0.00000000E+00
  0.00000000E+00  0.00000000E+00  0.00000000E+00
