Cobalt fluoride                         
   1.00000000000000     
     4.6702698060753383   -0.0000000781706065   -0.0000003933318296
     0.0000001762234851    4.6696360625183422   -0.0000019510421798
    -0.0000003326506705   -0.0000017862590529    3.1844037048542293
   Co   F 
     2     4
Direct
  0.0001230177925251  0.9999544256518291  0.0000000081183487
  0.5001230136089347  0.5000456015683881  0.4999999967306223
  0.3042603062869560  0.3042581680082321  0.9999998267564010
  0.6956166940103756  0.6956176993604686  0.0000001781562204
  0.1956166883534891  0.8043823038397448  0.4999998897896418
  0.8042602799477194  0.1957418015713301  0.5000001004487729
 
  0.00000000E+00  0.00000000E+00  0.00000000E+00
  0.00000000E+00  0.00000000E+00  0.00000000E+00
  0.00000000E+00  0.00000000E+00  0.00000000E+00
  0.00000000E+00  0.00000000E+00  0.00000000E+00
  0.00000000E+00  0.00000000E+00  0.00000000E+00
  0.00000000E+00  0.00000000E+00  0.00000000E+00
