V4 O4 F8                                
   1.00000000000000     
     5.5075243050814811    0.0000804626786400    0.0000198480328416
    -2.7537118338646178    4.7323734667532786    0.0000059947047791
     0.0000336900648449    0.0000330091549563    9.2324251827766730
   V    O    F 
     4     4     8
Direct
  0.3352307214080802  0.6429906285612010  0.5979271719964511
  0.6922548499729226  0.3570070851187467  0.4020862545363219
  0.6922562504113243  0.3570044989631663  0.0979144012935926
  0.3352391324481200  0.6429913063805308  0.9020756883112133
  0.9870686693042452  0.4979495973523816  0.9984795643708851
  0.4891259512125687  0.5020404190572120  0.0015177890543462
  0.9870681083526419  0.4979452799608349  0.5015195839693075
  0.4891231519113148  0.5020378592638345  0.4984839950972967
  0.4796809539781484  0.0000065805527415 -0.0000073736152416
  0.4796610863831475  0.0000010024723638  0.5000038820272223
  0.8251071182998218  0.6455113802022761  0.2499975240288666
  0.1795405395625162  0.3544778696527189  0.7500005374160298
  0.3944927457324509  0.2037938163517446  0.2499957465910491
  0.6256297294353272  0.8078479160800095  0.7500005215056731
  0.8178351281544255  0.1921790975036523  0.2500039322094721
  0.1906858634329308  0.7962156625265859  0.7500007812075005
 
  0.00000000E+00  0.00000000E+00  0.00000000E+00
  0.00000000E+00  0.00000000E+00  0.00000000E+00
  0.00000000E+00  0.00000000E+00  0.00000000E+00
  0.00000000E+00  0.00000000E+00  0.00000000E+00
  0.00000000E+00  0.00000000E+00  0.00000000E+00
  0.00000000E+00  0.00000000E+00  0.00000000E+00
  0.00000000E+00  0.00000000E+00  0.00000000E+00
  0.00000000E+00  0.00000000E+00  0.00000000E+00
  0.00000000E+00  0.00000000E+00  0.00000000E+00
  0.00000000E+00  0.00000000E+00  0.00000000E+00
  0.00000000E+00  0.00000000E+00  0.00000000E+00
  0.00000000E+00  0.00000000E+00  0.00000000E+00
  0.00000000E+00  0.00000000E+00  0.00000000E+00
  0.00000000E+00  0.00000000E+00  0.00000000E+00
  0.00000000E+00  0.00000000E+00  0.00000000E+00
  0.00000000E+00  0.00000000E+00  0.00000000E+00
