Na1 Ti16 O16 F32                        
   1.00000000000000     
    10.8931129999999996    0.1344120000000000   -0.0000870000000000
     0.1312030000000000   10.9570159999999994    0.0002430000000000
    -0.0000550000000000    0.0001720000000000    7.6307960000000001
   Na   Ti   O    F 
     1    16    16    32
Direct
  0.4868883009030238  0.4907975911824846  0.5919395913830217
  0.2418533511628466  0.0056892612309855  0.0116612016518886
  0.2411772012276513  0.5063619248040204  0.0122298717256387
  0.7422096830142434  0.0064579803027239  0.0071896347830266
  0.7430070420205892  0.5061382358277327  0.0108275442771369
  0.0052634056085537  0.2424299626109770  0.9861323348946491
  0.0055406860332737  0.7434095868524024  0.9884376843746656
  0.5049373202363946  0.2428131485203106  0.9797343541046454
  0.5056057390308798  0.7432386552743473  0.9851059851663433
  0.2393512595394112  0.0042001061146301  0.4851445410998331
  0.2301774702344377  0.5055695201293137  0.4839758702823208
  0.7473860600322714  0.0044877280290211  0.4803603571995604
  0.7497695895657139  0.5092384527681461  0.4813162198571096
  0.0033430378501860  0.2408724866443977  0.5164298860499354
  0.0042151438946961  0.7474582002462393  0.5194145886211677
  0.5058566611425515  0.2303814527986212  0.5073568853661837
  0.5084580411119768  0.7509245526528235  0.5134163568754434
  0.1171558363811326  0.1171748361773557  0.9872590458690639
  0.1163355938747429  0.6168353266254681  0.9815381893818480
  0.6163515342619428  0.1164336969450400  0.9851337905949465
  0.6158450460855266  0.6156405007117860  0.9849924966590652
  0.1164388271397631  0.1164997829030272  0.5121944274350237
  0.1117389009389477  0.6167541949013092  0.5152998847187259
  0.6170220655070904  0.1114214929154711  0.5152303522954845
  0.6221835274830291  0.6219710509132610  0.5100086124203957
  0.4850911785332799  0.2546390747958467  0.7452756506616057
  0.4841286741727327  0.7480670643170376  0.7472752591275943
  0.9810832630952100  0.2474419208948867  0.7503737259421499
  0.9801978175938189  0.7516147265348907  0.7504708853736117
  0.2333437775825115  0.4977992684495905  0.2471745584075495
  0.2346125856599161  0.9926161166812703  0.2489588346646952
  0.7368228682286833  0.4953632257214420  0.2485411243300107
  0.7371296570674672  0.9943893349130137  0.2482347486597907
  0.3658475419454763  0.1360573716120401  0.0193685837094140
  0.3653910716451847  0.6352118287319755  0.0172223935728378
  0.8650643673572518  0.1356627982663718  0.0211454911525937
  0.8655293085336080  0.6357081978755782  0.0219765295951263
  0.1364574455886624  0.3657328107834600  0.9760411062310145
  0.1360250894425472  0.8651528472194416  0.9764925350470757
  0.6358000577733767  0.3656390666238590  0.9788814737942884
  0.6360629080992196  0.8650282700748497  0.9781621956149112
  0.3865859487445437  0.3867071733703535  0.0112937193356674
  0.3865047386124077  0.8851823996073026  0.0115146570987011
  0.8859373724606870  0.3861190503323186  0.0120058974076533
  0.8852992012222999  0.8850576079382624  0.0134840924482744
  0.1265784530965300  0.3684280592698660  0.5236848248401662
  0.1384010823628022  0.8628790885219374  0.5248471140759673
  0.6341915447826685  0.3659735761585937  0.5157447568365550
  0.6406531336579333  0.8656831463213874  0.5217434070207333
  0.3687773142348563  0.1254489229106755  0.4766670068669108
  0.3662761137535885  0.6322986059148222  0.4789526283809025
  0.8631012100356397  0.1379396275092309  0.4757647982180532
  0.8663273576182891  0.6401659138124254  0.4736874381689145
  0.3665691762070324  0.3668923145085340  0.4786701064691002
  0.3868546100383487  0.8843226212158519  0.4847463301535597
  0.8851691007173568  0.3866455403751238  0.4876290629120566
  0.8912578588093456  0.8905866950667523  0.4847501549545529
  0.0123555004179298  0.2567581613849321  0.2500607574962141
  0.0158240351926379  0.7583078952602246  0.2492468923862381
  0.5145008983394079  0.2572814346383472  0.2507491125813001
  0.5133026231953928  0.7557482870228618  0.2485892508598895
  0.2704403784815850  0.0003853709509824  0.7488834722146773
  0.2784159520127913  0.5008659654767461  0.7422726849562270
  0.7732120931728655  1.0010424397794067  0.7494959883925901
  0.7691873661433029  0.5016150166057587  0.7482658809898199
 
             NaN             NaN             NaN
             NaN             NaN             NaN
             NaN             NaN             NaN
             NaN             NaN             NaN
             NaN             NaN             NaN
             NaN             NaN             NaN
             NaN             NaN             NaN
             NaN             NaN             NaN
             NaN             NaN             NaN
             NaN             NaN             NaN
             NaN             NaN             NaN
             NaN             NaN             NaN
             NaN             NaN             NaN
             NaN             NaN             NaN
             NaN             NaN             NaN
             NaN             NaN             NaN
             NaN             NaN             NaN
             NaN             NaN             NaN
             NaN             NaN             NaN
             NaN             NaN             NaN
             NaN             NaN             NaN
             NaN             NaN             NaN
             NaN             NaN             NaN
             NaN             NaN             NaN
             NaN             NaN             NaN
             NaN             NaN             NaN
             NaN             NaN             NaN
             NaN             NaN             NaN
             NaN             NaN             NaN
             NaN             NaN             NaN
             NaN             NaN             NaN
             NaN             NaN             NaN
             NaN             NaN             NaN
             NaN             NaN             NaN
             NaN             NaN             NaN
             NaN             NaN             NaN
             NaN             NaN             NaN
             NaN             NaN             NaN
             NaN             NaN             NaN
             NaN             NaN             NaN
             NaN             NaN             NaN
             NaN             NaN             NaN
             NaN             NaN             NaN
             NaN             NaN             NaN
             NaN             NaN             NaN
             NaN             NaN             NaN
             NaN             NaN             NaN
             NaN             NaN             NaN
             NaN             NaN             NaN
             NaN             NaN             NaN
             NaN             NaN             NaN
             NaN             NaN             NaN
             NaN             NaN             NaN
             NaN             NaN             NaN
             NaN             NaN             NaN
             NaN             NaN             NaN
             NaN             NaN             NaN
             NaN             NaN             NaN
             NaN             NaN             NaN
             NaN             NaN             NaN
             NaN             NaN             NaN
             NaN             NaN             NaN
             NaN             NaN             NaN
             NaN             NaN             NaN
             NaN             NaN             NaN
