Na1 Ti16 O16 F32
1.0
10.893113 0.134412 -0.000087
0.131203 10.957016 0.000243
-0.000055 0.000172 7.630796
Na Ti O F
1 16 16 32
direct
0.494265 0.491075 0.582744 Na
0.241031 0.005356 0.012911 Ti
0.238441 0.505998 0.013458 Ti
0.743263 0.004453 0.013227 Ti
0.743483 0.506317 0.013559 Ti
0.004731 0.241940 0.984713 Ti
0.004506 0.743823 0.984871 Ti
0.505696 0.238800 0.985414 Ti
0.505083 0.744126 0.985047 Ti
0.241075 0.005341 0.486753 Ti
0.238467 0.505982 0.486194 Ti
0.743311 0.004396 0.486520 Ti
0.743541 0.506301 0.486379 Ti
0.004803 0.241924 0.514960 Ti
0.004538 0.743796 0.514976 Ti
0.505758 0.238721 0.514369 Ti
0.505114 0.744126 0.514792 Ti
0.115621 0.115496 0.985974 O
0.114020 0.614973 0.986545 O
0.615271 0.114117 0.986150 O
0.611570 0.611439 0.982440 O
0.115683 0.115536 0.513799 O
0.114031 0.614967 0.513130 O
0.615260 0.114036 0.513790 O
0.611580 0.611426 0.517438 O
0.482434 0.252042 0.749920 O
0.480491 0.747310 0.749929 O
0.981788 0.250325 0.749862 O
0.981680 0.749727 0.749891 O
0.236752 0.492737 0.249854 O
0.235378 0.993787 0.249884 O
0.731771 0.495096 0.250000 O
0.735601 0.993898 0.249938 O
0.363815 0.137302 0.022764 F
0.363845 0.636052 0.022436 F
0.863877 0.136009 0.020555 F
0.862176 0.638079 0.022119 F
0.137897 0.363589 0.976659 F
0.137304 0.863403 0.977207 F
0.636196 0.364483 0.975447 F
0.638242 0.861850 0.978841 F
0.391735 0.391985 0.009181 F
0.388277 0.886044 0.014871 F
0.885986 0.387221 0.013957 F
0.887422 0.886870 0.013709 F
0.138009 0.363543 0.523073 F
0.137237 0.863478 0.522559 F
0.636315 0.364422 0.524613 F
0.638256 0.861831 0.521078 F
0.363798 0.137352 0.477000 F
0.363822 0.636106 0.477451 F
0.863964 0.135934 0.479217 F
0.862191 0.638079 0.477764 F
0.391924 0.392133 0.490661 F
0.388315 0.886103 0.484933 F
0.886051 0.387282 0.485959 F
0.887322 0.886739 0.486027 F
0.013268 0.256932 0.249889 F
0.013455 0.756210 0.249884 F
0.513821 0.260840 0.250001 F
0.515265 0.751153 0.249969 F
0.272559 0.000484 0.749870 F
0.275457 0.503556 0.749868 F
0.770204 0.999389 0.749922 F
0.769012 0.501022 0.749996 F
