Na1 V16 O16 F32                         
   1.00000000000000     
    10.4647679999999994   -0.0088760000000000   -0.0070660000000000
    -0.0092700000000000   10.5905670000000001   -0.0004830000000000
     0.0051500000000000   -0.0003400000000000    7.6566549999999998
   Na   V    O    F 
     1    16    16    32
Direct
  0.5180021635993738  0.5018053592986594  0.0055548379209442
  0.2562811318343361 -0.0024270513580267  0.0068440052180797
  0.2550354513632422  0.5062881945933542  0.0070507596936825
  0.7629350791318953  0.0054917071251284  0.0058673118242857
  0.7806611104248277  0.4999058748350044  0.0038819096301804
  0.4777382777703919  0.2412367430454333  0.0090782406149339
  0.4879323502912982  0.7643158587601132  0.0031317738177866
  0.9902797095480923  0.2475771725890760  0.0066494246850687
  0.9845860383179766  0.7574236702358774  0.0079108954410075
  0.2376768380269424  0.4925316234569648  0.5065609418015997
  0.2377709924694973  0.9923760922240187  0.5070546275663024
  0.7363273615403186  0.4953798697944613  0.5029283347384869
  0.7353094802938621  0.9953144730213900  0.5061337010110396
  0.0127612842959802  0.2431594567396449  0.5070281890660318
  0.0122787924793089  0.7444227627938294  0.5078970074653661
  0.5146544860691123  0.2443351448868886  0.5073843844083216
  0.5147030812177986  0.7452058250157827  0.5047645632621722
  0.3675491628195193  0.1238093395357814  0.0319366841759867
  0.3630342660058399  0.6282726562657608  0.0268491023263188
  0.8703287193307803  0.1323267515604510  0.0291936231882047
  0.8777893065249619  0.6301754024935960  0.0336984056475902
  0.3729727066693823  0.3683353842566706  0.0302859467066363
  0.3732398914676957  0.8785419348590611  0.0303029876174812
  0.8902284499275184  0.3819878266370208  0.0314957519080256
  0.8771639008546247  0.8814279443953649  0.0276233698892892
  0.1293789197056775  0.3734308949686425  0.5291565368464748
  0.1294466994447753  0.8735911070157433  0.5322418084703061
  0.6316748258031551  0.3667156509561344  0.5255193939743503
  0.6315165002919382  0.8667820127107044  0.5262697997616589
  0.1179280537962501  0.1249217518241108  0.5310536608972418
  0.1169829778424225  0.6256237171118807  0.5303037331820981
  0.6179795688098247  0.1164481043017410  0.5273335717707038
  0.6180272417581131  0.6164110154873069  0.5255718052514980
  0.1320860565645848  0.3691096615937370  0.9636839098951065
  0.1276339356134175  0.8685741308283543  0.9563878887658632
  0.6441641282209681  0.3614158204326118  0.9632035210268536
  0.6241050384109474  0.8822432964776936  0.9692834931526091
  0.1179236224918775  0.1181597382380077  0.9605009991819005
  0.1158365181591212  0.6196707569732555  0.9637933779914122
  0.6170576872273030  0.1217309529318655  0.9696399912246347
  0.6400622732489250  0.6429243224839225  0.9574518202058737
  0.3662281837811284  0.1308660193736149  0.4676548197154560
  0.3657740811020817  0.6295926479109293  0.4685211925894428
  0.8672824727588815  0.1339189554505469  0.4668213100137474
  0.8666381435966390  0.6327739941946630  0.4597119058207542
  0.3825355009707745  0.3809921198122653  0.4672165062056802
  0.3816510862421257  0.8799725292627937  0.4646350735794615
  0.8831874899441629  0.3822093208419293  0.4623010443777455
  0.8830149614927891  0.8830665591601518  0.4694103278059261
  0.0379790813123512  0.2465589940277390  0.2507309556951223
  0.0368100546771074  0.7557299641750890  0.2507972672220286
  0.5330903196701090  0.2459682211912865  0.2478045139427638
  0.5324608213301855  0.7449854280820301  0.2468855286373129
  0.4658093041639085  0.2488937795046054  0.7532135426506569
  0.4647876980839310  0.7512892976152302  0.7497814988929636
  0.9637464850738251  0.2532732540752058  0.7488183581562258
  0.9596730078362601  0.7515051074860927  0.7488730432924962
  0.2857257772091392  0.0016483416911351  0.7502918574818116
  0.2857641933814228  0.4995612185544796  0.7521841154131630
  0.7832835046925840  0.0034760941024909  0.7505079489498495
  0.7894939576876440  0.5013351120585503  0.7478408011711524
  0.2108552867384919  0.4988448811088144  0.2502934178129843
  0.2083602906823786  0.9974675812978621  0.2508312827854582
  0.7106614745767277  0.4985164881422507  0.2397329822542879
  0.7165370998358795  0.9997811100532666  0.2501542015384790
 
             NaN             NaN             NaN
             NaN             NaN             NaN
             NaN             NaN             NaN
             NaN             NaN             NaN
             NaN             NaN             NaN
             NaN             NaN             NaN
             NaN             NaN             NaN
             NaN             NaN             NaN
             NaN             NaN             NaN
             NaN             NaN             NaN
             NaN             NaN             NaN
             NaN             NaN             NaN
             NaN             NaN             NaN
             NaN             NaN             NaN
             NaN             NaN             NaN
             NaN             NaN             NaN
             NaN             NaN             NaN
             NaN             NaN             NaN
             NaN             NaN             NaN
             NaN             NaN             NaN
             NaN             NaN             NaN
             NaN             NaN             NaN
             NaN             NaN             NaN
             NaN             NaN             NaN
             NaN             NaN             NaN
             NaN             NaN             NaN
             NaN             NaN             NaN
             NaN             NaN             NaN
             NaN             NaN             NaN
             NaN             NaN             NaN
             NaN             NaN             NaN
             NaN             NaN             NaN
             NaN             NaN             NaN
             NaN             NaN             NaN
             NaN             NaN             NaN
             NaN             NaN             NaN
             NaN             NaN             NaN
             NaN             NaN             NaN
             NaN             NaN             NaN
             NaN             NaN             NaN
             NaN             NaN             NaN
             NaN             NaN             NaN
             NaN             NaN             NaN
             NaN             NaN             NaN
             NaN             NaN             NaN
             NaN             NaN             NaN
             NaN             NaN             NaN
             NaN             NaN             NaN
             NaN             NaN             NaN
             NaN             NaN             NaN
             NaN             NaN             NaN
             NaN             NaN             NaN
             NaN             NaN             NaN
             NaN             NaN             NaN
             NaN             NaN             NaN
             NaN             NaN             NaN
             NaN             NaN             NaN
             NaN             NaN             NaN
             NaN             NaN             NaN
             NaN             NaN             NaN
             NaN             NaN             NaN
             NaN             NaN             NaN
             NaN             NaN             NaN
             NaN             NaN             NaN
             NaN             NaN             NaN
