Na1 V16 O16 F32
1.0
10.464768 -0.008876 -0.007066
-0.009270 10.590567 -0.000483
0.005150 -0.000340 7.656655
Na V O F
1 16 16 32
direct
0.499980 0.499550 0.003249 Na
0.261842 0.001997 0.006473 V
0.261738 0.502216 0.006915 V
0.763913 0.002051 0.006738 V
0.767748 0.501595 0.006842 V
0.484225 0.249528 0.006668 V
0.484285 0.754827 0.006697 V
0.986163 0.250666 0.007093 V
0.985752 0.753398 0.007161 V
0.232194 0.498391 0.506775 V
0.236116 0.997953 0.506634 V
0.738255 0.497852 0.506903 V
0.738133 0.998043 0.506458 V
0.014244 0.246543 0.507177 V
0.013888 0.749351 0.506972 V
0.515687 0.245240 0.506326 V
0.515780 0.750474 0.506941 V
0.367241 0.132044 0.029025 O
0.367390 0.631863 0.029450 O
0.868241 0.131756 0.029177 O
0.867975 0.632325 0.029774 O
0.381664 0.382773 0.026724 O
0.381186 0.882481 0.027429 O
0.882369 0.381811 0.028186 O
0.881774 0.882080 0.027846 O
0.132071 0.367638 0.529778 O
0.131785 0.868257 0.528956 O
0.632437 0.368324 0.529282 O
0.632651 0.868106 0.529223 O
0.118186 0.117858 0.527843 O
0.117642 0.618194 0.528067 O
0.618860 0.117705 0.527151 O
0.618515 0.617369 0.526935 O
0.132548 0.367007 0.964145 F
0.132783 0.866491 0.964112 F
0.631210 0.369053 0.962295 F
0.632532 0.865622 0.964315 F
0.116590 0.116768 0.965659 F
0.116123 0.616436 0.966599 F
0.616501 0.117387 0.966978 F
0.614500 0.613298 0.968460 F
0.367473 0.134368 0.463766 F
0.368904 0.630917 0.462704 F
0.867269 0.133456 0.463664 F
0.867475 0.632962 0.464120 F
0.385454 0.386763 0.468160 F
0.383399 0.882495 0.466917 F
0.883850 0.383544 0.466818 F
0.883361 0.883168 0.465595 F
0.036599 0.248583 0.249670 F
0.036481 0.749132 0.249403 F
0.536729 0.252736 0.249203 F
0.536704 0.746444 0.249181 F
0.463242 0.253385 0.748880 F
0.463555 0.747468 0.749464 F
0.963630 0.250713 0.749476 F
0.963674 0.751490 0.749658 F
0.285986 0.003080 0.748930 F
0.287333 0.504045 0.748699 F
0.786240 0.003067 0.749959 F
0.786502 0.503654 0.750382 F
0.213354 0.496338 0.250401 F
0.213757 0.997124 0.249938 F
0.712468 0.495955 0.248786 F
0.713846 0.996813 0.248977 F
