Na4 Ni4 O8 F4                           
   1.00000000000000     
     5.3574984625104527   -0.2627555880860543   -0.0582617646570730
    -0.2384015479742372    5.4158951640730475    0.0235323431029557
    -0.0887744402677695    0.0037374704233150    7.2797019243957442
   Na   Ni   O    F 
     4     4     8     4
Direct
  0.9968386292738649  0.0682459298222478  0.2589891943124046
  0.0152158144518619  0.9584553360864492  0.7428799619110904
  0.4617480505929686  0.4325121986603636  0.7443980228978426
  0.5194859034088392  0.5433218446067564  0.2454351769811789
  0.4903109157301497  0.9906346367040977  0.9976975872568530
  0.9990057446870279  0.5105208741094036  0.9912272279018935
  0.5026558787042565  0.9928771569697602  0.5091186821962094
  0.9928784145188534  0.4991910913293397  0.5118374825776769
  0.8732358846542986  0.4840136111116154  0.7465249855106206
  0.6090874332896776  0.0375914225415368  0.7515531935564636
  0.4100196938234242  0.9709812245952234  0.2587197987467496
  0.2853507392116423  0.7062523691346613  0.9230306728236997
  0.2156533522539695  0.2323001891407083  0.9753174002047396
  0.8019925713425535  0.7891873344545997  0.0203430921546944
  0.2952198821967137  0.7118206331962185  0.5621751909348945
  0.7078154238524396  0.2763522934453038  0.4421873316430971
  0.1064634461550061  0.5179823068736426  0.2572054213695246
  0.7182367808737510  0.2846208133421425  0.0737633251110349
  0.7957646381300212  0.7857151004214680  0.4472455551595426
  0.2030208028486807  0.2074236334544541  0.5403506967497967
 
  0.00000000E+00  0.00000000E+00  0.00000000E+00
  0.00000000E+00  0.00000000E+00  0.00000000E+00
  0.00000000E+00  0.00000000E+00  0.00000000E+00
  0.00000000E+00  0.00000000E+00  0.00000000E+00
  0.00000000E+00  0.00000000E+00  0.00000000E+00
  0.00000000E+00  0.00000000E+00  0.00000000E+00
  0.00000000E+00  0.00000000E+00  0.00000000E+00
  0.00000000E+00  0.00000000E+00  0.00000000E+00
  0.00000000E+00  0.00000000E+00  0.00000000E+00
  0.00000000E+00  0.00000000E+00  0.00000000E+00
  0.00000000E+00  0.00000000E+00  0.00000000E+00
  0.00000000E+00  0.00000000E+00  0.00000000E+00
  0.00000000E+00  0.00000000E+00  0.00000000E+00
  0.00000000E+00  0.00000000E+00  0.00000000E+00
  0.00000000E+00  0.00000000E+00  0.00000000E+00
  0.00000000E+00  0.00000000E+00  0.00000000E+00
  0.00000000E+00  0.00000000E+00  0.00000000E+00
  0.00000000E+00  0.00000000E+00  0.00000000E+00
  0.00000000E+00  0.00000000E+00  0.00000000E+00
  0.00000000E+00  0.00000000E+00  0.00000000E+00
