Na2 V2 O4 F2                            
   1.00000000000000     
     3.6925489194617236   -0.0000000057302487    0.0013467255508871
     0.0000000000469824    3.8354105973718586    0.0000000210026422
     0.0027211934409929    0.0000000338330077    7.7765601489498382
   Na   V    O    F 
     2     2     4     2
Direct
  0.0002829632955279  0.0000000236160327  0.9778884138680464
  0.0016804351256824  0.0000000167111057  0.5316336843971601
  0.4930434625249952  0.5000000010338997  0.2405500992127250
  0.5017826371557310  0.5000000339982342  0.7713344297188824
  0.5008182981611210  0.5000000023397049  0.0003355387399121
  0.5022224568258480 -0.0000000082673689  0.7494985516420928
  0.9971170702947038  0.4999999924376444  0.2550655550812036
  0.0019635642686474  0.5000000189381321  0.7516281456419528
  0.5009482021556085  0.4999999181026639  0.5023648099470833
  0.5001409101921340  0.0000000010899514  0.2627007717509409
 
  0.00000000E+00  0.00000000E+00  0.00000000E+00
  0.00000000E+00  0.00000000E+00  0.00000000E+00
  0.00000000E+00  0.00000000E+00  0.00000000E+00
  0.00000000E+00  0.00000000E+00  0.00000000E+00
  0.00000000E+00  0.00000000E+00  0.00000000E+00
  0.00000000E+00  0.00000000E+00  0.00000000E+00
  0.00000000E+00  0.00000000E+00  0.00000000E+00
  0.00000000E+00  0.00000000E+00  0.00000000E+00
  0.00000000E+00  0.00000000E+00  0.00000000E+00
  0.00000000E+00  0.00000000E+00  0.00000000E+00
