Na2 Fe2 O4 F2                           
   1.00000000000000     
    -2.6944968980455113   -4.5201005161344376    0.1246847363229482
    -5.3850501073818897   -0.0033498996777031   -0.0031930060536152
    -2.6956209431772611   -1.3821870832517984   -4.3024484898418862
   Na   Fe   O    F 
     2     2     4     2
Direct
  0.2573740030850544  0.2640169976190521  0.2267957691514937
  0.7559158597577209  0.7522966304584173  0.7376865371241195
  0.9783642201866485  0.0075653916236433  0.0130671376001246
  0.5296619078456715  0.5076568917006554  0.4608563400053072
  0.2534054443912837  0.6906608726174639  0.2374340770763510
  0.6915962530173019  0.8157536710957842  0.2293601151202154
  0.7542094401569130  0.3197923957088236  0.7368390982018624
  0.8163307973587663  0.2464873160812928  0.2435950518405363
  0.3213956874286126  0.1861385585877713  0.7417681664525659
  0.1877463867720266  0.7556312745070954  0.7345977074274330
 
  0.00000000E+00  0.00000000E+00  0.00000000E+00
  0.00000000E+00  0.00000000E+00  0.00000000E+00
  0.00000000E+00  0.00000000E+00  0.00000000E+00
  0.00000000E+00  0.00000000E+00  0.00000000E+00
  0.00000000E+00  0.00000000E+00  0.00000000E+00
  0.00000000E+00  0.00000000E+00  0.00000000E+00
  0.00000000E+00  0.00000000E+00  0.00000000E+00
  0.00000000E+00  0.00000000E+00  0.00000000E+00
  0.00000000E+00  0.00000000E+00  0.00000000E+00
  0.00000000E+00  0.00000000E+00  0.00000000E+00
