Cr4 O4 F8                               
   1.00000000000000     
     4.9154511692699270   -0.0693340755886835    0.0100344017347101
    -0.0627956658319360    5.1675170477049450   -0.0126831798494206
    -0.0144421450788789   -0.0204221856067734    7.0107711282570371
   Cr   O    F 
     4     4     8
Direct
  0.5085365324480672  0.0126292528823987  0.9981169941648887
  0.9830508359244136  0.4870110463297833  0.0040703479509953
  0.5199093393592050  0.0234120045215357  0.4927832292507955
  0.9938214671227225  0.4957035737730556  0.5000797972017322
  0.5830322156506952  0.0209310930206583  0.7393621087385779
  0.4096355807320736  0.9670917393296778  0.2647664708699215
  0.6788063038769288  0.3086281649899902  0.0582665887734490
  0.6977231495373218  0.3039217900079251  0.4357704837430139
  0.1313342669769293  0.4698207703646827  0.2504023057545294
  0.8676492088757726  0.5302432201718150  0.7502297144884135
  0.3050093955737404  0.6905416098881303  0.9465982710082248
  0.1764619370437319  0.1849774713046834  0.9434277978470813
  0.8152249167599025  0.8092863359965378  0.0569871044769939
  0.3135180600699567  0.6866750733850664  0.5569998533988693
  0.8279171329412682  0.8141589877779097  0.4442447989132271
  0.1883696571072778  0.1949678662561503  0.5578941334192872
 
  0.00000000E+00  0.00000000E+00  0.00000000E+00
  0.00000000E+00  0.00000000E+00  0.00000000E+00
  0.00000000E+00  0.00000000E+00  0.00000000E+00
  0.00000000E+00  0.00000000E+00  0.00000000E+00
  0.00000000E+00  0.00000000E+00  0.00000000E+00
  0.00000000E+00  0.00000000E+00  0.00000000E+00
  0.00000000E+00  0.00000000E+00  0.00000000E+00
  0.00000000E+00  0.00000000E+00  0.00000000E+00
  0.00000000E+00  0.00000000E+00  0.00000000E+00
  0.00000000E+00  0.00000000E+00  0.00000000E+00
  0.00000000E+00  0.00000000E+00  0.00000000E+00
  0.00000000E+00  0.00000000E+00  0.00000000E+00
  0.00000000E+00  0.00000000E+00  0.00000000E+00
  0.00000000E+00  0.00000000E+00  0.00000000E+00
  0.00000000E+00  0.00000000E+00  0.00000000E+00
  0.00000000E+00  0.00000000E+00  0.00000000E+00
