Cr8 O8 F16                              
   1.00000000000000     
     7.1954360141016993    0.0000061385545593   -0.0006941204929471
    -0.0000050703874216    7.5964526897853464   -0.0000068369180859
    -0.0003287545758077    0.0000021317188639    7.5428583894521770
   Cr   O    F 
     8     8    16
Direct
  0.0002172667905772  0.0000001163108715  0.0000766194406753
  0.0195014409326328  0.0000002656220681  0.4731038998861995
 -0.0001124551987942  0.5000001130580057  0.9995706864496537
  0.0001504505971585  0.5000001251843512  0.4993654256756774
  0.4803203712830462  0.0000001721658441  0.9732457365656325
  0.4996160816519801  0.0000001653629977  0.5003105704933174
  0.4998237308200381  0.5000000629243232 -0.0002950530090397
  0.5002514857692305  0.5000000504097714  0.4998636439727875
  0.9927868835757291  0.0000010973115259  0.2590719575831980
  0.5084104128815314  0.9999991925308974  0.7591174771528926
  0.2425277343808754  0.0000002342313993  0.5116023506721815
  0.2607667107324161  0.5000001258286459  0.4993543334488102
  0.7388656017340781  0.5000006297061205  0.9993216929202532
  0.7398897398024901  0.5000001916231240  0.4992417300516954
  0.2573756848825521  0.0000007966528481  0.0102714654612559
  0.2601437519688934  0.4999997226621368  0.9993260323193600
  0.9967898620303275  0.7495056445274704  0.9996928884040895
  0.5008843924058118  0.2483428300454563  0.9984712291863225
  0.9944197771400686  0.9999979577925024  0.7506194035343694
  0.0003903916327455  0.4999970882751902  0.2496704944620982
  0.0003926491605060  0.5000020660499946  0.7493696236903432
  0.5042980477879971  0.0000025817542052  0.2507168086329894
  0.4995327936041498  0.4999974151447457  0.2494771230004438
  0.4996806638093214  0.5000000119432874  0.7497605168393091
  0.7409446019797306  0.9999991976579216  0.0139260978062079
  0.7587871500780580  0.9999995682724218  0.5127731709744962
  0.9967877859835099  0.2504945052904822  0.9996879392414934
  0.0002298087814741  0.2483374681612257  0.4974244167670956
  0.0002308891565095  0.7516627183572043  0.4974209151214554
  0.5026066485426526  0.2508086578979957  0.4999855729101658
  0.5008827299718842  0.7516575771877607  0.9984751607637614
  0.5026069153308187  0.7491916500571851  0.4999800695808305
 
  0.00000000E+00  0.00000000E+00  0.00000000E+00
  0.00000000E+00  0.00000000E+00  0.00000000E+00
  0.00000000E+00  0.00000000E+00  0.00000000E+00
  0.00000000E+00  0.00000000E+00  0.00000000E+00
  0.00000000E+00  0.00000000E+00  0.00000000E+00
  0.00000000E+00  0.00000000E+00  0.00000000E+00
  0.00000000E+00  0.00000000E+00  0.00000000E+00
  0.00000000E+00  0.00000000E+00  0.00000000E+00
  0.00000000E+00  0.00000000E+00  0.00000000E+00
  0.00000000E+00  0.00000000E+00  0.00000000E+00
  0.00000000E+00  0.00000000E+00  0.00000000E+00
  0.00000000E+00  0.00000000E+00  0.00000000E+00
  0.00000000E+00  0.00000000E+00  0.00000000E+00
  0.00000000E+00  0.00000000E+00  0.00000000E+00
  0.00000000E+00  0.00000000E+00  0.00000000E+00
  0.00000000E+00  0.00000000E+00  0.00000000E+00
  0.00000000E+00  0.00000000E+00  0.00000000E+00
  0.00000000E+00  0.00000000E+00  0.00000000E+00
  0.00000000E+00  0.00000000E+00  0.00000000E+00
  0.00000000E+00  0.00000000E+00  0.00000000E+00
  0.00000000E+00  0.00000000E+00  0.00000000E+00
  0.00000000E+00  0.00000000E+00  0.00000000E+00
  0.00000000E+00  0.00000000E+00  0.00000000E+00
  0.00000000E+00  0.00000000E+00  0.00000000E+00
  0.00000000E+00  0.00000000E+00  0.00000000E+00
  0.00000000E+00  0.00000000E+00  0.00000000E+00
  0.00000000E+00  0.00000000E+00  0.00000000E+00
  0.00000000E+00  0.00000000E+00  0.00000000E+00
  0.00000000E+00  0.00000000E+00  0.00000000E+00
  0.00000000E+00  0.00000000E+00  0.00000000E+00
  0.00000000E+00  0.00000000E+00  0.00000000E+00
  0.00000000E+00  0.00000000E+00  0.00000000E+00
