Mn8 O8 F16                              
   1.00000000000000     
     7.0273411094082654    0.2061708386011054    0.2721882762945592
     0.2616182297476425    7.1916920453563344    0.2288423075630274
     0.2121852316717656    0.2189471744900389    7.0075197970863119
   Mn   O    F 
     8     8    16
Direct
  0.0008059646109302 -0.0023585759904796  0.0037792674751710
 -0.0075513376380792  0.0074367659074753  0.4968572357414999
  0.9964202019929204  0.4980224985635153  0.0120949918050868
 -0.0034209302545046  0.4841882103060495  0.4854275734824040
  0.5032789232177270  0.0031473083289908  0.0048588192191552
  0.5147044023340756  0.0025035710020894  0.4999076820000772
  0.5011274363821842  0.5051351610954288  0.9888124022090710
  0.5003016114967668  0.5012737540826340  0.5051111381894564
  0.9108373539794906  0.5598764269456801  0.2541966816934882
  0.5735849981454810  0.4433498062425364  0.2497632425542793
  0.4264113428967078  0.5636847412605929  0.7509321525222272
  0.2527501558670386  0.0673862866784083  0.9344964493863335
  0.7497841082950367  0.9333587081541068  0.0786311085924731
  0.7515345927948063  0.0611116828058943  0.4085807771561901
  0.0651659367960319  0.2450480678373733  0.4348221305915096
  0.9340596333309285  0.7502063939943071  0.5562521758569179
  0.0880071233695720  0.9290153823903550  0.2637319512897027
  0.5801042319363758  0.9274238048429280  0.7405609448290115
  0.2520683253612146  0.9445153373798091  0.5796113093931542
  0.2406332284300342  0.5559040417010928  0.4219850182500956
  0.7375872816637558  0.5837872681765426  0.9213025433257019
  0.7566451698197544  0.4266423806030926  0.5792722344144779
  0.0653761212344790  0.7489236223816537  0.9317171773775740
  0.5778098030428699  0.2631783342045066  0.9330993867353277
  0.9143947642927999  0.0668168519686620  0.7391608805409448
  0.0612278691535993  0.4399434275406013  0.7512822113787910
  0.4261454415509468  0.0786749485953308  0.2654427146900284
  0.2671092047645419  0.4215333528287263  0.0732147262304318
  0.9302542572408641  0.2471469357510439  0.0666518965136912
  0.4475332507591601  0.2336793786494462  0.5806477023752932
  0.4262522167237663  0.7433089723690535  0.0619827333269271
  0.5590573164087298  0.7661351534025608  0.4258127408535001
 
  0.00000000E+00  0.00000000E+00  0.00000000E+00
  0.00000000E+00  0.00000000E+00  0.00000000E+00
  0.00000000E+00  0.00000000E+00  0.00000000E+00
  0.00000000E+00  0.00000000E+00  0.00000000E+00
  0.00000000E+00  0.00000000E+00  0.00000000E+00
  0.00000000E+00  0.00000000E+00  0.00000000E+00
  0.00000000E+00  0.00000000E+00  0.00000000E+00
  0.00000000E+00  0.00000000E+00  0.00000000E+00
  0.00000000E+00  0.00000000E+00  0.00000000E+00
  0.00000000E+00  0.00000000E+00  0.00000000E+00
  0.00000000E+00  0.00000000E+00  0.00000000E+00
  0.00000000E+00  0.00000000E+00  0.00000000E+00
  0.00000000E+00  0.00000000E+00  0.00000000E+00
  0.00000000E+00  0.00000000E+00  0.00000000E+00
  0.00000000E+00  0.00000000E+00  0.00000000E+00
  0.00000000E+00  0.00000000E+00  0.00000000E+00
  0.00000000E+00  0.00000000E+00  0.00000000E+00
  0.00000000E+00  0.00000000E+00  0.00000000E+00
  0.00000000E+00  0.00000000E+00  0.00000000E+00
  0.00000000E+00  0.00000000E+00  0.00000000E+00
  0.00000000E+00  0.00000000E+00  0.00000000E+00
  0.00000000E+00  0.00000000E+00  0.00000000E+00
  0.00000000E+00  0.00000000E+00  0.00000000E+00
  0.00000000E+00  0.00000000E+00  0.00000000E+00
  0.00000000E+00  0.00000000E+00  0.00000000E+00
  0.00000000E+00  0.00000000E+00  0.00000000E+00
  0.00000000E+00  0.00000000E+00  0.00000000E+00
  0.00000000E+00  0.00000000E+00  0.00000000E+00
  0.00000000E+00  0.00000000E+00  0.00000000E+00
  0.00000000E+00  0.00000000E+00  0.00000000E+00
  0.00000000E+00  0.00000000E+00  0.00000000E+00
  0.00000000E+00  0.00000000E+00  0.00000000E+00
