Na4 V4 O8 F4                            
   1.00000000000000     
     5.4313888092463456    0.0481165081761374    0.0423188014119871
    -2.7355559225023356    4.6709594027333639   -0.0622284485433959
     0.0911169919596852   -0.0875104326701627    9.3021455443277397
   Na   V    O    F 
     4     4     8     4
Direct
 -0.0025788641607902  0.0129235567000369  0.9280788750875985
  0.0032743419301140  0.0032494979730991  0.5702959964113298
  0.3478971873646611  0.6678497855908943  0.2461110090603936
  0.6451720288536693  0.3290895189214050  0.7498415111997943
  0.3062969037015058  0.6527591641598527  0.6040296985737679
  0.6789605782583592  0.2962333757684497  0.3881895986933815
  0.6634312646215708  0.3075059757041307  0.1107525412967133
  0.2934959510563721  0.6681473740874522  0.8912870810773849
  0.4350685727311022  0.0386577783386226  0.9873523266034001
  0.0066728863252597  0.4664728536098595  0.0023789233226834
  0.4912394775861811  0.0170425624379088  0.5110590422905501
  0.0471804086678183  0.4569472915066317  0.4791445437333088
  0.7358909982845132  0.5722759504187009  0.2563852365359637
  0.2630212110787626  0.3975671526920991  0.7494663645605655
  0.7888210471508540  0.1401232686350726  0.2367598585725784
  0.1316298758942982  0.7735463061457272  0.7429393658672605
  0.5775859704067116  0.6048112309773309  0.9962271778181849
  0.6109315282345974  0.5732236988318152  0.5277801128273190
  0.3163124279510078  0.1103183348465572  0.2640059440713628
  0.6596962040634389  0.9112553226543478  0.7579147923964586
 
  0.00000000E+00  0.00000000E+00  0.00000000E+00
  0.00000000E+00  0.00000000E+00  0.00000000E+00
  0.00000000E+00  0.00000000E+00  0.00000000E+00
  0.00000000E+00  0.00000000E+00  0.00000000E+00
  0.00000000E+00  0.00000000E+00  0.00000000E+00
  0.00000000E+00  0.00000000E+00  0.00000000E+00
  0.00000000E+00  0.00000000E+00  0.00000000E+00
  0.00000000E+00  0.00000000E+00  0.00000000E+00
  0.00000000E+00  0.00000000E+00  0.00000000E+00
  0.00000000E+00  0.00000000E+00  0.00000000E+00
  0.00000000E+00  0.00000000E+00  0.00000000E+00
  0.00000000E+00  0.00000000E+00  0.00000000E+00
  0.00000000E+00  0.00000000E+00  0.00000000E+00
  0.00000000E+00  0.00000000E+00  0.00000000E+00
  0.00000000E+00  0.00000000E+00  0.00000000E+00
  0.00000000E+00  0.00000000E+00  0.00000000E+00
  0.00000000E+00  0.00000000E+00  0.00000000E+00
  0.00000000E+00  0.00000000E+00  0.00000000E+00
  0.00000000E+00  0.00000000E+00  0.00000000E+00
  0.00000000E+00  0.00000000E+00  0.00000000E+00
