Na4 Co4 O8 F4                           
   1.00000000000000     
     5.3941179664400343   -0.0259163120294335    0.0120855813151856
    -0.0256206613479511    5.4914085716659695   -0.0320168887350844
     0.0609375710655088   -0.0615596475939247    7.2596109065752330
   Na   Co   O    F 
     4     4     8     4
Direct
  0.0203394688857095  0.0189722617716862  0.2455877435257129
  0.0099175574135312  0.9505243165703015  0.7487009587158413
  0.4790920560250917  0.4707553988171935  0.7540142743430320
  0.4910787383018463  0.5584279258086347  0.2555001664544906
  0.5220087229079947  0.9928148296431373  0.0027864790684497
  0.9652905107653649  0.5027751222184887  0.0020127925404870
  0.4956863300932656  0.0321201921723901  0.5025536828680928
  0.0054643961903137  0.4791885909785893  0.4989001648249910
  0.0560524855804310  0.4744631510426378  0.2634646463983228
  0.9359956104514435  0.5056690487686548  0.7308494323480592
  0.5696456037180994  0.0169825460123989  0.7682590351219579
  0.4529080512482573  0.9865020781329910  0.2353170691860784
  0.6877137776915418  0.2926943370536860  0.0319450883920394
  0.8067158692591516  0.7767905001953183  0.0301651340185426
  0.7028898180852943  0.3128490922704090  0.4681414664248020
  0.2208386715180210  0.1943355975616677  0.5327831935177136
  0.2962173227357786  0.6995001093798523  0.9652735623803621
  0.1835015227741683  0.2135451470633017  0.9627545841451144
  0.3059253099841272  0.7019010976146012  0.5345422278233234
  0.7927181763705545  0.8191886569240666  0.4664482979025802
 
  0.00000000E+00  0.00000000E+00  0.00000000E+00
  0.00000000E+00  0.00000000E+00  0.00000000E+00
  0.00000000E+00  0.00000000E+00  0.00000000E+00
  0.00000000E+00  0.00000000E+00  0.00000000E+00
  0.00000000E+00  0.00000000E+00  0.00000000E+00
  0.00000000E+00  0.00000000E+00  0.00000000E+00
  0.00000000E+00  0.00000000E+00  0.00000000E+00
  0.00000000E+00  0.00000000E+00  0.00000000E+00
  0.00000000E+00  0.00000000E+00  0.00000000E+00
  0.00000000E+00  0.00000000E+00  0.00000000E+00
  0.00000000E+00  0.00000000E+00  0.00000000E+00
  0.00000000E+00  0.00000000E+00  0.00000000E+00
  0.00000000E+00  0.00000000E+00  0.00000000E+00
  0.00000000E+00  0.00000000E+00  0.00000000E+00
  0.00000000E+00  0.00000000E+00  0.00000000E+00
  0.00000000E+00  0.00000000E+00  0.00000000E+00
  0.00000000E+00  0.00000000E+00  0.00000000E+00
  0.00000000E+00  0.00000000E+00  0.00000000E+00
  0.00000000E+00  0.00000000E+00  0.00000000E+00
  0.00000000E+00  0.00000000E+00  0.00000000E+00
