Ti8 O8 F16                              
   1.00000000000000     
     7.6224095084450196    0.0000000356170298   -0.0000000536083910
     0.0000000305538752    7.6975278973214412    0.0000000091141519
    -0.0000000476972558    0.0000000150793591    7.6974657469115177
   Ti   O    F 
     8     8    16
Direct
  0.9991995585486535  0.9999991965855912  0.9999999698406299
  0.0190460087885853  0.0000000194449967  0.4999999887022781
  0.0031329553200194  0.4999993216797449  0.0000000017417818
  0.9990656221225862  0.5000000190456788  0.4999999890198410
  0.5007976943337056  0.0000000583616213  0.9999998233070002
  0.4968756921359443  0.0000000189123455  0.4999998298014532
  0.4809697268910895  0.5000000366264956  0.0000000069704527
  0.5010500185530304  0.5000000196177368  0.5000000195743510
  0.5005122519342322  0.0000000226223307  0.2476965215366675
  0.5005122595175919  0.0000000185403408  0.7523036295172503
  0.2461277206865091  0.0000000110759686  0.5000000232892887
  0.2538543128786870  0.5000000682329357  0.9999999936807313
  0.2499735804573433  0.5000000205582822  0.5000000047934208
  0.7499765947631616  0.5000000159416942  0.5000000046999631
  0.9994873326954234  0.2476951116843153  0.0000000107426459
  0.9994873274690406  0.7523053420972943  0.9999999789654765
  0.9932240901949783  0.0000000485080704  0.2530635133245411
  0.9932240776507868  0.0000000539789937  0.7469364863313359
  0.9972062146533105  0.5000000682809755  0.2514750364243170
  0.9972062132410215  0.5000000626940135  0.7485249555116482
  0.5058534931154881  0.5000000138314107  0.2476489202404650
  0.5058535015492041  0.5000000172678369  0.7523511205248354
  0.2499997001844534  0.0000000720663706  0.0000000175414101
  0.7499918375663412  0.0000000728445713  0.0000000231589823
  0.7556155561241340  0.0000000168522476  0.5000000006983569
  0.7443828303477673  0.5000000760200152  0.0000000205892050
  0.9941455244742272  0.2476523572122815  0.4999999927472274
  0.9941455197668674  0.7523476882396878  0.4999999713894638
  0.5067618512631284  0.2530643906545720  0.0000000217349410
  0.5027795350025102  0.2514729039004138  0.5000000142201202
  0.5067618567147960  0.7469357151051739  0.0000000654852599
  0.5027795410553892  0.7485271415159787  0.5000000438946586
 
  0.00000000E+00  0.00000000E+00  0.00000000E+00
  0.00000000E+00  0.00000000E+00  0.00000000E+00
  0.00000000E+00  0.00000000E+00  0.00000000E+00
  0.00000000E+00  0.00000000E+00  0.00000000E+00
  0.00000000E+00  0.00000000E+00  0.00000000E+00
  0.00000000E+00  0.00000000E+00  0.00000000E+00
  0.00000000E+00  0.00000000E+00  0.00000000E+00
  0.00000000E+00  0.00000000E+00  0.00000000E+00
  0.00000000E+00  0.00000000E+00  0.00000000E+00
  0.00000000E+00  0.00000000E+00  0.00000000E+00
  0.00000000E+00  0.00000000E+00  0.00000000E+00
  0.00000000E+00  0.00000000E+00  0.00000000E+00
  0.00000000E+00  0.00000000E+00  0.00000000E+00
  0.00000000E+00  0.00000000E+00  0.00000000E+00
  0.00000000E+00  0.00000000E+00  0.00000000E+00
  0.00000000E+00  0.00000000E+00  0.00000000E+00
  0.00000000E+00  0.00000000E+00  0.00000000E+00
  0.00000000E+00  0.00000000E+00  0.00000000E+00
  0.00000000E+00  0.00000000E+00  0.00000000E+00
  0.00000000E+00  0.00000000E+00  0.00000000E+00
  0.00000000E+00  0.00000000E+00  0.00000000E+00
  0.00000000E+00  0.00000000E+00  0.00000000E+00
  0.00000000E+00  0.00000000E+00  0.00000000E+00
  0.00000000E+00  0.00000000E+00  0.00000000E+00
  0.00000000E+00  0.00000000E+00  0.00000000E+00
  0.00000000E+00  0.00000000E+00  0.00000000E+00
  0.00000000E+00  0.00000000E+00  0.00000000E+00
  0.00000000E+00  0.00000000E+00  0.00000000E+00
  0.00000000E+00  0.00000000E+00  0.00000000E+00
  0.00000000E+00  0.00000000E+00  0.00000000E+00
  0.00000000E+00  0.00000000E+00  0.00000000E+00
  0.00000000E+00  0.00000000E+00  0.00000000E+00
