Na8 Co8 O16 F8                          
   1.00000000000000     
     7.7008081750750357    0.0029533815776541   -0.0004187181784540
     0.0022871530695228    7.7378755575337204   -0.0005314218241825
     0.0003719069078447   -0.0005165836009564    7.2988385389568524
   Na   Co   O    F 
     8     8    16     8
Direct
  0.2467532019483195  0.2541068851507088  0.2514276894405155
  0.2463963611117732  0.2535245790315828  0.7491083575100502
  0.2463530958457252  0.7466540060139336  0.2521494508347768
  0.2454958963416490  0.7462630527722793  0.7488366568657530
  0.7565665181555764  0.2533544817440648  0.2357845583315032
  0.7570449124431051  0.2533110375919365  0.7642765791984125
  0.7571495847040804  0.7466639399432310  0.2356144660875995
  0.7592641519489730  0.7462388261138667  0.7641698419533750
  0.0009030709910703  0.9998012149441049  0.0016926088918177
  0.9962808812279852 -0.0002114601426636  0.5003822680192669
  0.0197905418384917  0.4986875281841727  0.0015106300368870
  0.9904960697076576  0.4991399561687745  0.5007977568972894
  0.5007819582264963  0.0008126515862048  0.9985977659618245
  0.4942207943154313 -0.0000580028397970  0.4997108202068920
  0.4908859453509509  0.5030667302929079 -0.0004269261683057
  0.5203547648775665  0.5001641060859813  0.4996516828549852
  0.2632209163633007  0.9998457032278327  0.4997640488481684
  0.2435062733978233  0.5002624063699422 -0.0004736337482311
  0.7300491802302490  0.9997179761774369  0.4993201343323788
  0.7450883595603149  0.4994402169887900  0.4993938440915546
  0.9994414126211344  0.2293285467214073  0.0010446415437065
  0.9997734597807334  0.7706070477635965  0.0009958517337828
  0.5014445060477113  0.2298363998176753  0.9990187043088099
  0.5017572563180981  0.7708226098570277  0.9989665883287470
  0.9953596596981024  0.9996136772653273  0.2629165090305833
  0.9952314563339603  0.9996719736080051  0.7379992023665017
  0.9963396005923703  0.4993729971141111  0.2642719017070448
  0.9952823338886043  0.4990803886022864  0.7372219949302211
  0.5012303034465848 -0.0000350247125513  0.2547179199230346
  0.5017115978563751  0.0000363363597318  0.7436877268798987
  0.4988158907037170  0.5008839884315898  0.2342620294914820
  0.4996852031231141  0.5008400404401551  0.7648555465701277
  0.2498879335402575  0.0000228426377929  0.9990391246556956
  0.2544855482853079  0.4997387472474293  0.5007049829282185
  0.7511528178406315 -0.0000750562182661  0.9995702377718518
  0.7607259881504354  0.5003547947572005  0.0006304576656783
  0.0122542561937906  0.2485168477023511  0.5002773978862283
  0.0118054510119857  0.7504897187371441  0.5005751719748727
  0.4815851709464885  0.2568914170428478  0.4989857085234019
  0.4814276750340654  0.7432158714198621  0.4989697013336211
 
  0.00000000E+00  0.00000000E+00  0.00000000E+00
  0.00000000E+00  0.00000000E+00  0.00000000E+00
  0.00000000E+00  0.00000000E+00  0.00000000E+00
  0.00000000E+00  0.00000000E+00  0.00000000E+00
  0.00000000E+00  0.00000000E+00  0.00000000E+00
  0.00000000E+00  0.00000000E+00  0.00000000E+00
  0.00000000E+00  0.00000000E+00  0.00000000E+00
  0.00000000E+00  0.00000000E+00  0.00000000E+00
  0.00000000E+00  0.00000000E+00  0.00000000E+00
  0.00000000E+00  0.00000000E+00  0.00000000E+00
  0.00000000E+00  0.00000000E+00  0.00000000E+00
  0.00000000E+00  0.00000000E+00  0.00000000E+00
  0.00000000E+00  0.00000000E+00  0.00000000E+00
  0.00000000E+00  0.00000000E+00  0.00000000E+00
  0.00000000E+00  0.00000000E+00  0.00000000E+00
  0.00000000E+00  0.00000000E+00  0.00000000E+00
  0.00000000E+00  0.00000000E+00  0.00000000E+00
  0.00000000E+00  0.00000000E+00  0.00000000E+00
  0.00000000E+00  0.00000000E+00  0.00000000E+00
  0.00000000E+00  0.00000000E+00  0.00000000E+00
  0.00000000E+00  0.00000000E+00  0.00000000E+00
  0.00000000E+00  0.00000000E+00  0.00000000E+00
  0.00000000E+00  0.00000000E+00  0.00000000E+00
  0.00000000E+00  0.00000000E+00  0.00000000E+00
  0.00000000E+00  0.00000000E+00  0.00000000E+00
  0.00000000E+00  0.00000000E+00  0.00000000E+00
  0.00000000E+00  0.00000000E+00  0.00000000E+00
  0.00000000E+00  0.00000000E+00  0.00000000E+00
  0.00000000E+00  0.00000000E+00  0.00000000E+00
  0.00000000E+00  0.00000000E+00  0.00000000E+00
  0.00000000E+00  0.00000000E+00  0.00000000E+00
  0.00000000E+00  0.00000000E+00  0.00000000E+00
  0.00000000E+00  0.00000000E+00  0.00000000E+00
  0.00000000E+00  0.00000000E+00  0.00000000E+00
  0.00000000E+00  0.00000000E+00  0.00000000E+00
  0.00000000E+00  0.00000000E+00  0.00000000E+00
  0.00000000E+00  0.00000000E+00  0.00000000E+00
  0.00000000E+00  0.00000000E+00  0.00000000E+00
  0.00000000E+00  0.00000000E+00  0.00000000E+00
  0.00000000E+00  0.00000000E+00  0.00000000E+00
