Co4 O4 F8                               
    1.000000000000000     
     5.0067290378388964    0.0342874227849233    0.0771380668144185
     0.0517248602888704    5.1565326392896553    0.0471511813040479
     0.0309286487508450    0.1073290964905878    7.1395574450445869
   Co   O    F 
     4     4     8
Direct
  0.4918128344725228  0.9871959476641049  0.9941049099782284
  0.9941987566793320  0.4896005062113612  0.0086556952950895
  0.5055915870937162  0.0028441071502434  0.4981212189564294
  0.0055078404535569  0.5022398176453101  0.4989271735031938
  0.1153487169608736  0.4733447645930561  0.2536191734770850
  0.3147770951504748  0.6787051919337632  0.9437876861501406
  0.8413774556774248  0.8033720034725934  0.4461632324838909
  0.1718343757044326  0.2045458100854091  0.5489840965944819
  0.8920296870371381  0.5429371726095720  0.7475968020101618
  0.6379090506719157  0.0302991362116767  0.7508776771025579
  0.3618850416410400  0.9785865965257482  0.2473851807008210
  0.6763231710695231  0.3097984086519047  0.0535149661730022
  0.1805130141215028  0.1820717685577473  0.9292902714697577
  0.8046020961449516  0.8045608366992186  0.0732961517850708
  0.3362657043573054  0.7044880842166773  0.5716370648526198
  0.6700235727642830  0.3054098477716062  0.4340386994674699
 
  0.00000000E+00  0.00000000E+00  0.00000000E+00
  0.00000000E+00  0.00000000E+00  0.00000000E+00
  0.00000000E+00  0.00000000E+00  0.00000000E+00
  0.00000000E+00  0.00000000E+00  0.00000000E+00
  0.00000000E+00  0.00000000E+00  0.00000000E+00
  0.00000000E+00  0.00000000E+00  0.00000000E+00
  0.00000000E+00  0.00000000E+00  0.00000000E+00
  0.00000000E+00  0.00000000E+00  0.00000000E+00
  0.00000000E+00  0.00000000E+00  0.00000000E+00
  0.00000000E+00  0.00000000E+00  0.00000000E+00
  0.00000000E+00  0.00000000E+00  0.00000000E+00
  0.00000000E+00  0.00000000E+00  0.00000000E+00
  0.00000000E+00  0.00000000E+00  0.00000000E+00
  0.00000000E+00  0.00000000E+00  0.00000000E+00
  0.00000000E+00  0.00000000E+00  0.00000000E+00
  0.00000000E+00  0.00000000E+00  0.00000000E+00
