V4 O4 F8                                
   1.00000000000000     
     5.1661389968531513    0.0008653957710097   -0.0484503350207993
     0.0016269750927157    5.2679597047776179    0.0051474169787967
     0.0145495256516009   -0.0084974948032057    7.3271849709421648
   V    O    F 
     4     4     8
Direct
  0.5126432363139397  0.0341264041692084  0.0079784374517924
  0.9882428711605129  0.5098131157746852  0.9814618989307511
  0.4880713578158818  0.9902609269652274  0.4815684768616340
  0.0127289710175419  0.4661378077086508  0.5079879626974430
  0.9306830635154640  0.5184466994954342  0.7561631577440849
  0.4303791808721367  0.9824204189107394  0.2562714782344785
  0.6950236423333906  0.2933693310067574  0.0343820119695918
  0.1957021095908194  0.2070373219465085  0.5347127613406178
  0.0738770728185580  0.4872747091114463  0.2451771714327485
  0.5738463511625095  0.0112614166897961  0.7454675218322072
  0.3055884227079564  0.7139587275548240  0.9675643496388497
  0.1907046316322461  0.2011434867645572  0.9594708425115194
  0.8030200613632729  0.8067709869408165  0.0476723624140389
  0.3024909652301838  0.6937978078839683  0.5470733810514331
  0.6913627313393071  0.2982118166214819  0.4602107247585145
  0.8056353311262711  0.7859690224559057  0.4668374611303088
 
  0.00000000E+00  0.00000000E+00  0.00000000E+00
  0.00000000E+00  0.00000000E+00  0.00000000E+00
  0.00000000E+00  0.00000000E+00  0.00000000E+00
  0.00000000E+00  0.00000000E+00  0.00000000E+00
  0.00000000E+00  0.00000000E+00  0.00000000E+00
  0.00000000E+00  0.00000000E+00  0.00000000E+00
  0.00000000E+00  0.00000000E+00  0.00000000E+00
  0.00000000E+00  0.00000000E+00  0.00000000E+00
  0.00000000E+00  0.00000000E+00  0.00000000E+00
  0.00000000E+00  0.00000000E+00  0.00000000E+00
  0.00000000E+00  0.00000000E+00  0.00000000E+00
  0.00000000E+00  0.00000000E+00  0.00000000E+00
  0.00000000E+00  0.00000000E+00  0.00000000E+00
  0.00000000E+00  0.00000000E+00  0.00000000E+00
  0.00000000E+00  0.00000000E+00  0.00000000E+00
  0.00000000E+00  0.00000000E+00  0.00000000E+00
