Na8 Fe8 O16 F8                          
   1.00000000000000     
     7.5440263878481453    0.0000006917708728   -0.0000010609642970
     0.0000007437351211    7.5667029462508664    0.0000242389359781
    -0.0000010856779760    0.0000246379696542    7.7233420139659188
   Na   Fe   O    F 
     8     8    16     8
Direct
  0.2461627146131933  0.2463875011665032  0.2423809030670819
  0.2461611805084977  0.2463885524735736  0.7576214896938053
  0.2538403166937095  0.7536113442079381  0.2423761080673725
  0.2538386807175399  0.7536125244490822  0.7576211873748310
  0.7538396428968465  0.2463877987075429  0.2423777375205000
  0.7538401752748528  0.2463887942720110  0.7576231560371021
  0.7461621158639304  0.7536117994078064  0.2423793343105141
  0.7461626017674236  0.7536126376351109  0.7576196157935171
  0.9999835344569415  0.9887559294222690  0.0000053618154382
  0.0000138737767373  0.0025970683707728  0.5000031733652036
 -0.0000081207573574  0.5107540620241092  0.9999961904367360
 -0.0000041992957182  0.4970793461162678  0.4999961560219216
  0.4999828116298325  0.0112443573326952 -0.0000054233351752
  0.5000138610289292  0.9974016939705689  0.4999971745496293
  0.4999917482873593  0.4892457940146453  0.0000042284728217
  0.4999948219894230  0.5029207428255191  0.5000041630159952
  0.2499917031891833  0.0000154492387750  0.0000005543410923
  0.2499894561485535  0.4999880238177824  0.0000001507351554
  0.2499978853094965  0.5000118229633539  0.4999998992551569
  0.7499907888011661  0.9999848891339777  0.9999993122127666
  0.7499902124156269  0.5000120773427933  0.9999998736281162
  0.7499973434636108  0.4999883635728211  0.5000001155797075
  0.0000242014305747  0.2541211629406794  0.4999980518019645
  0.0000264423380548  0.7465731615469099  0.9999914157889910
  0.0000004802516750  0.7392533306321930  0.4999968707461933
  0.5000264155513892  0.2534265335629166  0.0000084935152699
  0.5000007039473170  0.2607469292423469  0.5000030898504361
  0.5000243525804344  0.7458788374913322  0.5000018980544018
 -0.0000014332326892  0.0012577592208920  0.2413024340667849
 -0.0000006410358846  0.0012632424662804  0.7587092624279063
  0.4999995146033458  0.9987370689736526  0.2412897707607998
  0.4999987808295598  0.9987425592901911  0.7586982775285477
  0.2500150197029441  0.9999807049668340  0.4999985623424708
  0.7500146374280114  0.0000193946201298  0.5000012817296732
  0.9999819213768928  0.2528258103101521  0.9999975754459902
  0.4999819623622493  0.7471741957065772  0.0000023843111207
  0.9999929333406502  0.4851099124769550  0.2473692993235130
  0.9999956294783032  0.4851067652630044  0.7526248073201414
  0.4999929508067228  0.5148923014610358  0.2473749204796334
  0.4999929794606711  0.5148897573620130  0.7526311425468877
 
  0.00000000E+00  0.00000000E+00  0.00000000E+00
  0.00000000E+00  0.00000000E+00  0.00000000E+00
  0.00000000E+00  0.00000000E+00  0.00000000E+00
  0.00000000E+00  0.00000000E+00  0.00000000E+00
  0.00000000E+00  0.00000000E+00  0.00000000E+00
  0.00000000E+00  0.00000000E+00  0.00000000E+00
  0.00000000E+00  0.00000000E+00  0.00000000E+00
  0.00000000E+00  0.00000000E+00  0.00000000E+00
  0.00000000E+00  0.00000000E+00  0.00000000E+00
  0.00000000E+00  0.00000000E+00  0.00000000E+00
  0.00000000E+00  0.00000000E+00  0.00000000E+00
  0.00000000E+00  0.00000000E+00  0.00000000E+00
  0.00000000E+00  0.00000000E+00  0.00000000E+00
  0.00000000E+00  0.00000000E+00  0.00000000E+00
  0.00000000E+00  0.00000000E+00  0.00000000E+00
  0.00000000E+00  0.00000000E+00  0.00000000E+00
  0.00000000E+00  0.00000000E+00  0.00000000E+00
  0.00000000E+00  0.00000000E+00  0.00000000E+00
  0.00000000E+00  0.00000000E+00  0.00000000E+00
  0.00000000E+00  0.00000000E+00  0.00000000E+00
  0.00000000E+00  0.00000000E+00  0.00000000E+00
  0.00000000E+00  0.00000000E+00  0.00000000E+00
  0.00000000E+00  0.00000000E+00  0.00000000E+00
  0.00000000E+00  0.00000000E+00  0.00000000E+00
  0.00000000E+00  0.00000000E+00  0.00000000E+00
  0.00000000E+00  0.00000000E+00  0.00000000E+00
  0.00000000E+00  0.00000000E+00  0.00000000E+00
  0.00000000E+00  0.00000000E+00  0.00000000E+00
  0.00000000E+00  0.00000000E+00  0.00000000E+00
  0.00000000E+00  0.00000000E+00  0.00000000E+00
  0.00000000E+00  0.00000000E+00  0.00000000E+00
  0.00000000E+00  0.00000000E+00  0.00000000E+00
  0.00000000E+00  0.00000000E+00  0.00000000E+00
  0.00000000E+00  0.00000000E+00  0.00000000E+00
  0.00000000E+00  0.00000000E+00  0.00000000E+00
  0.00000000E+00  0.00000000E+00  0.00000000E+00
  0.00000000E+00  0.00000000E+00  0.00000000E+00
  0.00000000E+00  0.00000000E+00  0.00000000E+00
  0.00000000E+00  0.00000000E+00  0.00000000E+00
  0.00000000E+00  0.00000000E+00  0.00000000E+00
