Na2 Fe2 O4 F2                           
   1.00000000000000     
    -2.8576558783996866   -4.6170958566909857    0.2164519749777335
    -5.4273701618847374   -0.1662542387808879    0.2165387400997042
    -2.5735746484184538   -1.4859455504078152   -4.2117862757958822
   Na   Fe   O    F 
     2     2     4     2
Direct
  0.2339359064515468  0.2759868603782338  0.2368934156188470
  0.7760416038067891  0.7338373627885830  0.7369433861631762
  0.0051572029985366  0.0043671599387512  0.9859526166052938
  0.5043383523043096  0.5052552750501629  0.4857789127936273
  0.2151620017739266  0.7102509553196013  0.2754991211779682
  0.2102758286835079  0.7151755994338168  0.7755147730385469
  0.7932297139892527  0.2987180034691507  0.6973735411794351
  0.7987328409810078  0.2932334107623982  0.1973884333319459
  0.6645160432027993  0.8446137193936208  0.2353479626138330
  0.3446105058083231  0.1645616534656951  0.7353078374773142
 
  0.00000000E+00  0.00000000E+00  0.00000000E+00
  0.00000000E+00  0.00000000E+00  0.00000000E+00
  0.00000000E+00  0.00000000E+00  0.00000000E+00
  0.00000000E+00  0.00000000E+00  0.00000000E+00
  0.00000000E+00  0.00000000E+00  0.00000000E+00
  0.00000000E+00  0.00000000E+00  0.00000000E+00
  0.00000000E+00  0.00000000E+00  0.00000000E+00
  0.00000000E+00  0.00000000E+00  0.00000000E+00
  0.00000000E+00  0.00000000E+00  0.00000000E+00
  0.00000000E+00  0.00000000E+00  0.00000000E+00
