Na8 Ti8 O16 F8                          
   1.00000000000000     
     7.7284123222984986    0.0050693089345689   -0.0019019258332701
    -0.0017765285385166    7.6324717360854049    0.0004086229078119
    -0.0011123276579339   -0.0017314608783071    7.6319422162095059
   Na   Ti   O    F 
     8     8    16     8
Direct
  0.2492776757545481  0.2575683138426331  0.2432050598993016
  0.2535690567218439  0.2618087851053686  0.7535201353945564
  0.2464350996595517  0.7467222838382780  0.2376632508629556
  0.2516389628513072  0.7384408266683649  0.7621277937398009
  0.7493933732716191  0.2570839072977957  0.2422300100572451
  0.7458056388985037  0.2618474808086542  0.7535920123329777
  0.7542324177264685  0.7466599586046421  0.2383359819618377
  0.7516204440698792  0.7380161540792538  0.7616222733277379
  0.0000892538709220  0.0043872708151043  0.9914178250531892
  0.0002789026107867  0.0057590240778535  0.5165856849185720
  0.9997639443497524  0.5001906045970550 -0.0001321951481648
  0.0001918979056397  0.4982564985180188  0.4988298970071710
  0.5003505704292709  0.0013883448407234  0.0017268257136262
  0.5003478514105670  0.9834852836624561  0.4943082679283719
  0.4997912591547035  0.5002959838171839 -0.0000734498647070
  0.4999959401703561  0.5087218328653504  0.4956703030327502
  0.2518981222461320  0.9994979331870785  0.0056524883687075
  0.2499583157958062  0.0059033163923851  0.4990043645690523
  0.2479080145376623  0.4899244946416662  0.5029921962821238
  0.7481220675824617  0.9987805526465228  0.0111417513541647
  0.7499746082937848  0.0018282543747771  0.4932169441138166
  0.7517138653543243  0.4936465969353855  0.4984114722363478
 -0.0000658891930934  0.2525509940464984  0.0511004218027490
  0.9999493197143513  0.7488356756961771  0.9535684572526409
  0.5008918701994219  0.2486787608477614  0.9497218213866530
  0.4990406944747434  0.7491455621189417  0.0467469256211646
  0.4972867025444401  0.7548472063391606  0.4394219269947195
  0.9967247473992342  0.0605244676056483  0.7452530156474045
  0.0021947718332227  0.5502665685850369  0.2511305198982528
  0.9972719726085593  0.4533017003360715  0.7507556890924539
  0.4977056500931956  0.4488539038571505  0.2473851602166252
  0.5017610628383680  0.5462926260542180  0.7511032796564855
  0.2497894576190561  0.4992006162622192  0.9962340202686255
  0.7497585619254040  0.5004346970426266  0.0032777164230384
  0.9984655286877158  0.2453955162843521  0.4262975048659843
  0.0015587471755076  0.7530523767686281  0.5648612467946058
  0.5020607505123170  0.2422650901592175  0.5625976453407222
  0.0028555104649840  0.9374389884870691  0.2577640062031649
  0.4973438474930668  0.0737152085319953  0.2547016474615992
  0.5030494109436219  0.9349863393606840  0.7470301019316832
 
  0.00000000E+00  0.00000000E+00  0.00000000E+00
  0.00000000E+00  0.00000000E+00  0.00000000E+00
  0.00000000E+00  0.00000000E+00  0.00000000E+00
  0.00000000E+00  0.00000000E+00  0.00000000E+00
  0.00000000E+00  0.00000000E+00  0.00000000E+00
  0.00000000E+00  0.00000000E+00  0.00000000E+00
  0.00000000E+00  0.00000000E+00  0.00000000E+00
  0.00000000E+00  0.00000000E+00  0.00000000E+00
  0.00000000E+00  0.00000000E+00  0.00000000E+00
  0.00000000E+00  0.00000000E+00  0.00000000E+00
  0.00000000E+00  0.00000000E+00  0.00000000E+00
  0.00000000E+00  0.00000000E+00  0.00000000E+00
  0.00000000E+00  0.00000000E+00  0.00000000E+00
  0.00000000E+00  0.00000000E+00  0.00000000E+00
  0.00000000E+00  0.00000000E+00  0.00000000E+00
  0.00000000E+00  0.00000000E+00  0.00000000E+00
  0.00000000E+00  0.00000000E+00  0.00000000E+00
  0.00000000E+00  0.00000000E+00  0.00000000E+00
  0.00000000E+00  0.00000000E+00  0.00000000E+00
  0.00000000E+00  0.00000000E+00  0.00000000E+00
  0.00000000E+00  0.00000000E+00  0.00000000E+00
  0.00000000E+00  0.00000000E+00  0.00000000E+00
  0.00000000E+00  0.00000000E+00  0.00000000E+00
  0.00000000E+00  0.00000000E+00  0.00000000E+00
  0.00000000E+00  0.00000000E+00  0.00000000E+00
  0.00000000E+00  0.00000000E+00  0.00000000E+00
  0.00000000E+00  0.00000000E+00  0.00000000E+00
  0.00000000E+00  0.00000000E+00  0.00000000E+00
  0.00000000E+00  0.00000000E+00  0.00000000E+00
  0.00000000E+00  0.00000000E+00  0.00000000E+00
  0.00000000E+00  0.00000000E+00  0.00000000E+00
  0.00000000E+00  0.00000000E+00  0.00000000E+00
  0.00000000E+00  0.00000000E+00  0.00000000E+00
  0.00000000E+00  0.00000000E+00  0.00000000E+00
  0.00000000E+00  0.00000000E+00  0.00000000E+00
  0.00000000E+00  0.00000000E+00  0.00000000E+00
  0.00000000E+00  0.00000000E+00  0.00000000E+00
  0.00000000E+00  0.00000000E+00  0.00000000E+00
  0.00000000E+00  0.00000000E+00  0.00000000E+00
  0.00000000E+00  0.00000000E+00  0.00000000E+00
