Cr4 O4 F8                               
   1.00000000000000     
     4.8708829890884759   -0.0006830905522901   -0.0056942229180181
    -2.4361636041813934    4.3060154832583617    0.0038654848837746
    -0.0057757955573363    0.0020563826531016    9.2368791830134818
   Cr   O    F 
     4     4     8
Direct
  0.3689167215155903  0.6946114444652485  0.6103383433561729
  0.6752188618417979  0.3074583236204164  0.3891808322261712
  0.6742532519189287  0.3049818983568074  0.1104209829565474
  0.3681805159285348  0.6930469344652664  0.8892990436935898
  0.6178458701972540  0.9986432838623418  0.0005333662226971
  0.6186932652239751  0.0013867040538927  0.5004025080102186
  0.6153229486526337  0.6836819809577198  0.7499941177581855
  0.9319885997380185  0.3164803991470506  0.2501290299720672
  0.9936984354074951  0.6189931192998439  0.9969619362645847
  0.3737644017126159  0.3789844450753954  0.0030115084030691
  0.9942883410046212  0.6210491542715549  0.5030557640700574
  0.3743663683791723  0.3810001300576474  0.4968690474204635
  0.6627803525825504  0.6039972043453088  0.2497579475364890
  0.0587705809101560  0.3958643101632239  0.7498456838149654
  0.3588967480796124  0.0458113318203420  0.2501042211259834
  0.3130147369070367  0.9540093360379399  0.7500956671687307
 
  0.00000000E+00  0.00000000E+00  0.00000000E+00
  0.00000000E+00  0.00000000E+00  0.00000000E+00
  0.00000000E+00  0.00000000E+00  0.00000000E+00
  0.00000000E+00  0.00000000E+00  0.00000000E+00
  0.00000000E+00  0.00000000E+00  0.00000000E+00
  0.00000000E+00  0.00000000E+00  0.00000000E+00
  0.00000000E+00  0.00000000E+00  0.00000000E+00
  0.00000000E+00  0.00000000E+00  0.00000000E+00
  0.00000000E+00  0.00000000E+00  0.00000000E+00
  0.00000000E+00  0.00000000E+00  0.00000000E+00
  0.00000000E+00  0.00000000E+00  0.00000000E+00
  0.00000000E+00  0.00000000E+00  0.00000000E+00
  0.00000000E+00  0.00000000E+00  0.00000000E+00
  0.00000000E+00  0.00000000E+00  0.00000000E+00
  0.00000000E+00  0.00000000E+00  0.00000000E+00
  0.00000000E+00  0.00000000E+00  0.00000000E+00
