Na4 Ti4 O8 F4                           
   1.00000000000000     
     5.4574633470064002   -0.0025322589657904    0.0004770488701017
    -0.0021568357077568    5.4955024878043224   -0.0007687312511409
     0.0014867865418293   -0.0022595417980086    7.4813356901682972
   Na   Ti   O    F 
     4     4     8     4
Direct
  0.0125924212885451  0.0388763323511577  0.2488324680713487
  0.9957020399144638  0.9878858617939276  0.7499629503470310
  0.5014680630958911  0.4614278182409439  0.7498897851961434
  0.4846719310158765  0.5233861891133955  0.2499805633252989
  0.5059089473477543  0.9673122843551935  0.9997054779455209
  0.0071929690192532  0.5294311270036353  0.0016104323343643
  0.5296933357422346  0.0076639589049071  0.4948877109902127
  0.9689871882498071  0.5067551884503272  0.4962858412227594
  0.3051289865145460  0.6941275359846177  0.9675013646471012
  0.8053856883794324  0.8029882969933092  0.0297269627152272
  0.6950420635274198  0.3039328195657993  0.4663319820602622
  0.8053592689524042  0.8047544127929096  0.4718894709798468
  0.0624614327488471  0.4759953393906802  0.2507024206683311
  0.9484219950640232  0.4960151791189444  0.7510002140979934
  0.5451181940892591  0.0259861146754400  0.7506667331652395
  0.4353952099942978  0.9843611130502661  0.2504794851142413
  0.6959667135186443  0.3007385510982507  0.0345445460377249
  0.1955062166726365  0.1952108649647741  0.9732407669444320
  0.3028469578747076  0.6964078612716642  0.5337031124230871
  0.1971503769899491  0.1967431508798645  0.5290577117138267
 
  0.00000000E+00  0.00000000E+00  0.00000000E+00
  0.00000000E+00  0.00000000E+00  0.00000000E+00
  0.00000000E+00  0.00000000E+00  0.00000000E+00
  0.00000000E+00  0.00000000E+00  0.00000000E+00
  0.00000000E+00  0.00000000E+00  0.00000000E+00
  0.00000000E+00  0.00000000E+00  0.00000000E+00
  0.00000000E+00  0.00000000E+00  0.00000000E+00
  0.00000000E+00  0.00000000E+00  0.00000000E+00
  0.00000000E+00  0.00000000E+00  0.00000000E+00
  0.00000000E+00  0.00000000E+00  0.00000000E+00
  0.00000000E+00  0.00000000E+00  0.00000000E+00
  0.00000000E+00  0.00000000E+00  0.00000000E+00
  0.00000000E+00  0.00000000E+00  0.00000000E+00
  0.00000000E+00  0.00000000E+00  0.00000000E+00
  0.00000000E+00  0.00000000E+00  0.00000000E+00
  0.00000000E+00  0.00000000E+00  0.00000000E+00
  0.00000000E+00  0.00000000E+00  0.00000000E+00
  0.00000000E+00  0.00000000E+00  0.00000000E+00
  0.00000000E+00  0.00000000E+00  0.00000000E+00
  0.00000000E+00  0.00000000E+00  0.00000000E+00
