Na4 Ni4 O8 F4                           
   1.00000000000000     
     5.3398093078606692   -0.0071437163465532   -0.1640044548369563
    -2.7537881432145239    4.6240857422472255    0.0896383026364269
    -0.2921762012165579   -0.3941880561193316    9.0067597717224910
   Na   Ni   O    F 
     4     4     8     4
Direct
  0.0191776506842548  0.0034621736512163  0.9205298209176425
  0.9880964474087022  0.0054860877606380  0.4293997286166026
  0.3123695271144614  0.6557604599215974  0.2420357600226753
  0.6648751031712644  0.3370830912089466  0.7329147466986891
  0.3223727070254450  0.6870110924076868  0.6157308305086999
  0.6713008359542320  0.3473737828050782  0.3925893210939728
  0.6699109939209081  0.3236510219249344  0.1140515348472459
  0.3522962649796021  0.6743293412021278  0.9005618717691728
  0.3977804720014413  0.9681180686329952  0.0237887052550025
  0.6181293420256414  0.5763872924738023  0.9965240991940996
  0.4483968151444341  0.0421653039548011  0.5126383077700872
 -0.0138938326564650  0.4046645987698416  0.5074159813749036
  0.8635348481189679  0.6225196168432386  0.2609499391351064
  0.6173772773334615  0.8885101065880777  0.7667170229401860
  0.7250658902212120  0.1264346077370071  0.2648997284693516
  0.1214053831380017  0.7333629952064287  0.7630717246221027
  0.0299045013655291  0.3963762974404836  0.0133645622866737
  0.5952679647483134  0.6054079308590362  0.5090905266313379
  0.2629741305569460  0.3500818389766400  0.7638208224734093
  0.3336576777436390  0.2518142916354236  0.2699049653730300
 
  0.00000000E+00  0.00000000E+00  0.00000000E+00
  0.00000000E+00  0.00000000E+00  0.00000000E+00
  0.00000000E+00  0.00000000E+00  0.00000000E+00
  0.00000000E+00  0.00000000E+00  0.00000000E+00
  0.00000000E+00  0.00000000E+00  0.00000000E+00
  0.00000000E+00  0.00000000E+00  0.00000000E+00
  0.00000000E+00  0.00000000E+00  0.00000000E+00
  0.00000000E+00  0.00000000E+00  0.00000000E+00
  0.00000000E+00  0.00000000E+00  0.00000000E+00
  0.00000000E+00  0.00000000E+00  0.00000000E+00
  0.00000000E+00  0.00000000E+00  0.00000000E+00
  0.00000000E+00  0.00000000E+00  0.00000000E+00
  0.00000000E+00  0.00000000E+00  0.00000000E+00
  0.00000000E+00  0.00000000E+00  0.00000000E+00
  0.00000000E+00  0.00000000E+00  0.00000000E+00
  0.00000000E+00  0.00000000E+00  0.00000000E+00
  0.00000000E+00  0.00000000E+00  0.00000000E+00
  0.00000000E+00  0.00000000E+00  0.00000000E+00
  0.00000000E+00  0.00000000E+00  0.00000000E+00
  0.00000000E+00  0.00000000E+00  0.00000000E+00
