Cr2 O2 F4                               
   1.00000000000000     
     3.7870096376326714   -0.0001978531054945    0.0002574101033977
     0.0002078205275098    3.7893621150695860    0.0000113270044316
     0.0054810166122109    0.0000582117302441    7.2998786739988368
   Cr   O    F 
     2     2     4
Direct
  0.4237782204034409  0.4999993489469923  0.2724649033356419
  0.5177242595256916  0.4999956580237075  0.7509470531701892
  0.5195545578465049  0.5000127406127409  0.4948709655194976
  0.0030565702837909  0.5000098859640157  0.2449578736589309
  0.5229720802198898  0.5000007751669213  0.0112115103275871
  0.4792770183616005 -0.0000056776328275  0.2522542649965656
  0.5159215648714450  0.9999971950123736  0.7588076303279025
  0.0177157284876219  0.4999900739060762  0.7574857986636779
 
  0.00000000E+00  0.00000000E+00  0.00000000E+00
  0.00000000E+00  0.00000000E+00  0.00000000E+00
  0.00000000E+00  0.00000000E+00  0.00000000E+00
  0.00000000E+00  0.00000000E+00  0.00000000E+00
  0.00000000E+00  0.00000000E+00  0.00000000E+00
  0.00000000E+00  0.00000000E+00  0.00000000E+00
  0.00000000E+00  0.00000000E+00  0.00000000E+00
  0.00000000E+00  0.00000000E+00  0.00000000E+00
