Ni8 O8 F16                              
   1.00000000000000     
     7.3925274768149158    0.0005146578953473    0.0002136193179429
     0.0005610596155324    7.5511337574147026   -0.0054923833077483
     0.0001568948349564   -0.0053376207836055    7.5792963327083180
   Ni   O    F 
     8     8    16
Direct
  0.9993585926877561  0.0000207849370979  0.0000225691625633
  0.9998723016972728  0.9999535835485316  0.5000232498765557
  0.0005514667241857  0.4999746941156770  0.9999891436117156
  0.0000537695481867  0.5002527018965199  0.4999464447233150
  0.5005524417802342  0.0000080835611571  0.0000220200032003
  0.5000948877451342  0.9997292415408815  0.5000546937305144
  0.4993574566679821  0.4999491615771556 -0.0000210707996823
  0.4998647577125241  0.5000651388711943  0.4999636606847920
  0.2493884041049760  0.4851361869521877  0.4979959229095693
  0.7499102086065805  0.5001319265002817  0.0001805013478358
  0.2499040626834802  0.9998584489879829  0.9998298954882572
  0.2500170078759200  0.5002054430578787  0.9998291746210235
  0.7500047513750380  0.9997804330818428  0.0001639241363834
  0.7492263564484120  0.0148656640743801  0.5020263674016804
  0.0008213216369931  0.2508772679412395  0.4999413726004141
  0.5008911145393529  0.2491159508715535  0.5000466360228368
  0.9966791044345190  0.0056041139984993  0.2523602541164370
  0.5038086643173242  0.0047727055287652  0.7477278587931798
  0.2507184858260042  0.9991615990162762  0.4992526965769070
  0.7505591209571423  0.5008605493430761  0.5007282674507437
  0.9998208219645115  0.7499591790312419  0.9999864019030369
  0.5000521111463088  0.2499362236563651  0.9999923718014484
  0.9959441232745072  0.0047494714494480  0.7477261131072168
  0.0037980989767401  0.4952488820548799  0.2522427335383705
  0.0030232590233990  0.4943713505938858  0.7476556033161464
  0.5030981485326153  0.0056546163380637  0.2523614596253189
  0.4959124469118263  0.4952713083171124  0.2522194309619942
  0.4966639049850624  0.4944033012195374  0.7477116250887748
  0.9998192939370781  0.2500325500082705  0.0000147513889518
  0.0001094169518703  0.7491167747792594  0.4999791180689237
  0.5000688654146460  0.7500573286193311  0.0000201462427384
  0.5000552315124098  0.7508753345304330  0.5000066624988296
 
  0.00000000E+00  0.00000000E+00  0.00000000E+00
  0.00000000E+00  0.00000000E+00  0.00000000E+00
  0.00000000E+00  0.00000000E+00  0.00000000E+00
  0.00000000E+00  0.00000000E+00  0.00000000E+00
  0.00000000E+00  0.00000000E+00  0.00000000E+00
  0.00000000E+00  0.00000000E+00  0.00000000E+00
  0.00000000E+00  0.00000000E+00  0.00000000E+00
  0.00000000E+00  0.00000000E+00  0.00000000E+00
  0.00000000E+00  0.00000000E+00  0.00000000E+00
  0.00000000E+00  0.00000000E+00  0.00000000E+00
  0.00000000E+00  0.00000000E+00  0.00000000E+00
  0.00000000E+00  0.00000000E+00  0.00000000E+00
  0.00000000E+00  0.00000000E+00  0.00000000E+00
  0.00000000E+00  0.00000000E+00  0.00000000E+00
  0.00000000E+00  0.00000000E+00  0.00000000E+00
  0.00000000E+00  0.00000000E+00  0.00000000E+00
  0.00000000E+00  0.00000000E+00  0.00000000E+00
  0.00000000E+00  0.00000000E+00  0.00000000E+00
  0.00000000E+00  0.00000000E+00  0.00000000E+00
  0.00000000E+00  0.00000000E+00  0.00000000E+00
  0.00000000E+00  0.00000000E+00  0.00000000E+00
  0.00000000E+00  0.00000000E+00  0.00000000E+00
  0.00000000E+00  0.00000000E+00  0.00000000E+00
  0.00000000E+00  0.00000000E+00  0.00000000E+00
  0.00000000E+00  0.00000000E+00  0.00000000E+00
  0.00000000E+00  0.00000000E+00  0.00000000E+00
  0.00000000E+00  0.00000000E+00  0.00000000E+00
  0.00000000E+00  0.00000000E+00  0.00000000E+00
  0.00000000E+00  0.00000000E+00  0.00000000E+00
  0.00000000E+00  0.00000000E+00  0.00000000E+00
  0.00000000E+00  0.00000000E+00  0.00000000E+00
  0.00000000E+00  0.00000000E+00  0.00000000E+00
