V8 O8 F16                               
   1.00000000000000     
     7.3939161563050373   -0.0334921074500913    0.0691085601458203
     0.0427816518000044    7.3613458706675008    0.0312170873828126
    -0.0950151304830597   -0.2232452096606867    7.3931574245114398
   V    O    F 
     8     8    16
Direct
  0.9645992551374971  0.9900019516983709  0.9897765691772340
  0.9793983382940014  0.0063615042038440  0.4981339293649460
  0.0064152899687553  0.4907072345740449  0.0300787779499568
  0.0023660038032882  0.5096809144994842  0.5301742819537447
  0.4630940105453952  0.0035304824292854  0.0017492405129227
  0.4964465238550138  0.0225943062956463  0.5036246987781511
  0.4993179728702237  0.4915153356999006  0.0307591951036513
  0.5069238991523105  0.5060336063601368  0.5310343388554599
  0.0312304232753391  0.4531776872119951  0.2460324128451844
 -0.0236389509239294  0.5454612570699318  0.7480845223291184
  0.4779040190337281  0.4569220133929179  0.2478938219204824
  0.5305063039282809  0.5359678083378066  0.7504642931244448
  0.2478250661855714  0.0510939764296303  0.0215629698727867
  0.7483806096256519  0.9468205796713074  0.9681938317698071
  0.7596137625732069  0.0354981381357928  0.5363211199187149
  0.4655254858298308  0.2451334273604770  0.5384945634377182
 -0.0324927702665834  0.0582223690027567  0.2437363162476973
  0.4600623034170190  0.9442633155588597  0.7458957385805927
  0.2450657193609616  0.9627937242242307  0.4519394002261191
  0.2547511020820361  0.5662170914992758  0.5134258935802414
  0.7530371428848738  0.5523355578469340  0.0341315721269856
  0.7555914450740302  0.4466056736574297  0.4715515727096056
  0.0540255313736533  0.7500932506899370  0.0438765876415485
  0.5533570668846137  0.2445167140867013  0.9516708899200341
  0.0434190295938966  0.9453465960970375  0.7432471359477252
  0.5410710325606178  0.0401048877703636  0.2477867511945663
  0.2531174097921214  0.4455929569842951  0.9542901388716656
  0.9504431041124268  0.2475892833555180  0.9404504112069414
  0.0602139186814793  0.2528213518907519  0.5440264739274492
  0.9581212913556195  0.7499498307124365  0.4402260960292213
  0.4472042855931675  0.7478156215445128  0.0431728541872056
  0.5471043743458938  0.7552315517084112  0.4581936006880741
 
  0.00000000E+00  0.00000000E+00  0.00000000E+00
  0.00000000E+00  0.00000000E+00  0.00000000E+00
  0.00000000E+00  0.00000000E+00  0.00000000E+00
  0.00000000E+00  0.00000000E+00  0.00000000E+00
  0.00000000E+00  0.00000000E+00  0.00000000E+00
  0.00000000E+00  0.00000000E+00  0.00000000E+00
  0.00000000E+00  0.00000000E+00  0.00000000E+00
  0.00000000E+00  0.00000000E+00  0.00000000E+00
  0.00000000E+00  0.00000000E+00  0.00000000E+00
  0.00000000E+00  0.00000000E+00  0.00000000E+00
  0.00000000E+00  0.00000000E+00  0.00000000E+00
  0.00000000E+00  0.00000000E+00  0.00000000E+00
  0.00000000E+00  0.00000000E+00  0.00000000E+00
  0.00000000E+00  0.00000000E+00  0.00000000E+00
  0.00000000E+00  0.00000000E+00  0.00000000E+00
  0.00000000E+00  0.00000000E+00  0.00000000E+00
  0.00000000E+00  0.00000000E+00  0.00000000E+00
  0.00000000E+00  0.00000000E+00  0.00000000E+00
  0.00000000E+00  0.00000000E+00  0.00000000E+00
  0.00000000E+00  0.00000000E+00  0.00000000E+00
  0.00000000E+00  0.00000000E+00  0.00000000E+00
  0.00000000E+00  0.00000000E+00  0.00000000E+00
  0.00000000E+00  0.00000000E+00  0.00000000E+00
  0.00000000E+00  0.00000000E+00  0.00000000E+00
  0.00000000E+00  0.00000000E+00  0.00000000E+00
  0.00000000E+00  0.00000000E+00  0.00000000E+00
  0.00000000E+00  0.00000000E+00  0.00000000E+00
  0.00000000E+00  0.00000000E+00  0.00000000E+00
  0.00000000E+00  0.00000000E+00  0.00000000E+00
  0.00000000E+00  0.00000000E+00  0.00000000E+00
  0.00000000E+00  0.00000000E+00  0.00000000E+00
  0.00000000E+00  0.00000000E+00  0.00000000E+00
