Ni4 O4 F8                               
   1.00000000000000     
     4.7748375306172415   -0.0609572010145214   -0.0128406819844806
    -0.0760315586180991    5.0518704743104026    0.0066512692380808
    -0.0141841524968688   -0.0058568760837127    7.0597503772313628
   Ni   O    F 
     4     4     8
Direct
  0.5007560099170349 -0.0046645754043557 -0.0013808078747211
  0.0049298448882058  0.5020968258544911  0.0014712051554390
  0.4950038131917577 -0.0000236218210492  0.5003058615299196
 -0.0033887055491125  0.4969478873381413  0.4950324401170865
  0.1465151963623567  0.4769988029997235  0.2388136562805687
  0.3398599297704233  0.6841162509828209  0.9296116742151570
  0.8326742910596993  0.8489394174322455  0.4632122837655457
  0.1562535062030308  0.1515725410114841  0.5340529807980965
  0.8779681934165038  0.5448125964260290  0.7585419178057705
  0.6423975362477152  0.0424542180619372  0.7577164278149470
  0.3464643119197234  0.9537321727113152  0.2400989318196317
  0.6772090609730744  0.3065624342246875  0.0689480895877461
  0.1797272358087244  0.1884366015240729  0.9203735347808176
  0.8175867531463039  0.8053102402742026  0.0871036574578714
  0.3423373567623262  0.6817384357391628  0.5722487651151794
  0.6437056658822327  0.3209697726450828  0.4338493816309367
 
  0.00000000E+00  0.00000000E+00  0.00000000E+00
  0.00000000E+00  0.00000000E+00  0.00000000E+00
  0.00000000E+00  0.00000000E+00  0.00000000E+00
  0.00000000E+00  0.00000000E+00  0.00000000E+00
  0.00000000E+00  0.00000000E+00  0.00000000E+00
  0.00000000E+00  0.00000000E+00  0.00000000E+00
  0.00000000E+00  0.00000000E+00  0.00000000E+00
  0.00000000E+00  0.00000000E+00  0.00000000E+00
  0.00000000E+00  0.00000000E+00  0.00000000E+00
  0.00000000E+00  0.00000000E+00  0.00000000E+00
  0.00000000E+00  0.00000000E+00  0.00000000E+00
  0.00000000E+00  0.00000000E+00  0.00000000E+00
  0.00000000E+00  0.00000000E+00  0.00000000E+00
  0.00000000E+00  0.00000000E+00  0.00000000E+00
  0.00000000E+00  0.00000000E+00  0.00000000E+00
  0.00000000E+00  0.00000000E+00  0.00000000E+00
