Co8 O8 F16                              
   1.00000000000000     
     7.4810032015966632   -0.0038987282898358   -0.0168873339210899
    -0.0034552763889827    7.6525341452684037   -0.0026335512822092
    -0.0098532899941278    0.0015558354440216    7.5782289501131066
   Co   O    F 
     8     8    16
Direct
  0.9950023559169886  0.9980972550242502  0.9930948602252949
  0.9951685638625474  0.0020662228713424  0.5002558969648594
  0.9955622042471173  0.4983550976376462  0.9977017453321247
  0.0012726732657671  0.5016016723908402  0.4966329875541997
  0.5053499191368499 -0.0000194062711707  0.0111428144599714
  0.5045220789300259  0.0008262052489782  0.4975878830313626
  0.4958999675143832  0.4999019571910063  0.0019897630030717
  0.5158389061934054  0.5002350554318161  0.5021381158403168
  0.2466637057169712  0.5011435916088065  0.4986668182179319
  0.7488365342376609  0.4988364901946429  0.9983070875447140
  0.7541228483659792  0.5006876592896997  0.4998830588142311
  0.9948212081302085 -0.0000180109892179  0.7480450214199649
  0.5085133913809745  0.0003886311094306  0.2534722032676642
  0.2466411785559355  0.4994108584445167  0.0002545335682698
  0.7485596331300225  0.9992586022098995  0.0013620045476513
  0.7434417286846955  0.0007450801983515  0.4986714872026544
  0.9965333092111092  0.9996470655289909  0.2479779492725707
  0.5077491477071986  0.9999851141354683  0.7521618053943252
  0.2541910198960181  0.0007791035411576  0.5053680465824033
  0.0069635626243132  0.7524262520626669  0.0021329546996789
  0.4951968811106011  0.2520767101480226  0.0027359284040265
  0.9947683285111523  0.4996481128855297  0.2446431647048075
  0.9960523577450264  0.4992802239448320  0.7508199406440919
  0.5072091176980975  0.4994095418621423  0.2482450843375410
  0.5039598202614038  0.5004661000480998  0.7547299176464730
  0.2523331209625401  0.9990440781511393 -0.0011237892608147
  0.0075158604018603  0.2445703509879274  0.0024548633338369
  0.0073013270443716  0.2458843301162241  0.4939465329830292
  0.0071191995015818  0.7568913322763133  0.4940059708063137
  0.4835726160225770  0.2609498374879786  0.4999279343120418
  0.4954169218531581  0.7475074903178069  0.0036934698279780
  0.4839005121794515  0.7399173949148539  0.4990739453174362
 
  0.00000000E+00  0.00000000E+00  0.00000000E+00
  0.00000000E+00  0.00000000E+00  0.00000000E+00
  0.00000000E+00  0.00000000E+00  0.00000000E+00
  0.00000000E+00  0.00000000E+00  0.00000000E+00
  0.00000000E+00  0.00000000E+00  0.00000000E+00
  0.00000000E+00  0.00000000E+00  0.00000000E+00
  0.00000000E+00  0.00000000E+00  0.00000000E+00
  0.00000000E+00  0.00000000E+00  0.00000000E+00
  0.00000000E+00  0.00000000E+00  0.00000000E+00
  0.00000000E+00  0.00000000E+00  0.00000000E+00
  0.00000000E+00  0.00000000E+00  0.00000000E+00
  0.00000000E+00  0.00000000E+00  0.00000000E+00
  0.00000000E+00  0.00000000E+00  0.00000000E+00
  0.00000000E+00  0.00000000E+00  0.00000000E+00
  0.00000000E+00  0.00000000E+00  0.00000000E+00
  0.00000000E+00  0.00000000E+00  0.00000000E+00
  0.00000000E+00  0.00000000E+00  0.00000000E+00
  0.00000000E+00  0.00000000E+00  0.00000000E+00
  0.00000000E+00  0.00000000E+00  0.00000000E+00
  0.00000000E+00  0.00000000E+00  0.00000000E+00
  0.00000000E+00  0.00000000E+00  0.00000000E+00
  0.00000000E+00  0.00000000E+00  0.00000000E+00
  0.00000000E+00  0.00000000E+00  0.00000000E+00
  0.00000000E+00  0.00000000E+00  0.00000000E+00
  0.00000000E+00  0.00000000E+00  0.00000000E+00
  0.00000000E+00  0.00000000E+00  0.00000000E+00
  0.00000000E+00  0.00000000E+00  0.00000000E+00
  0.00000000E+00  0.00000000E+00  0.00000000E+00
  0.00000000E+00  0.00000000E+00  0.00000000E+00
  0.00000000E+00  0.00000000E+00  0.00000000E+00
  0.00000000E+00  0.00000000E+00  0.00000000E+00
  0.00000000E+00  0.00000000E+00  0.00000000E+00
