Nonasodium ferrate(II) ferrate(III)     
   1.00000000000000     
     9.4061989901114309    0.0000000888297284   -0.0000701983861702
     0.0000001625670681    9.8624865325936142    0.0000005531448223
     0.0000945272477798    0.0000005119277176   10.2308001037579235
   Fe   Na   O 
     8    36    28
Direct
  0.1582187963780509  0.8978078090859888  0.1461855681328185
  0.8417826764996649  0.1021948463793488  0.6462044282717091
  0.6582187789908458  0.1021921942381837  0.1461855886611197
  0.3417826624396455  0.8978051653307253  0.6462044065625900
  0.1863462429761447  0.4325618194386261  0.3041065755410125
  0.8135375022430542  0.5674149970670913  0.8040382424666844
  0.6863462832300709  0.5674381579902066  0.3041065143588911
  0.3135374807457386  0.4325849792424677  0.8040383296573848
  0.3410580456833961  0.6090836302788424  0.1306064185961729
  0.6589089016411205  0.3908961221488172  0.6305511904755322
  0.8410580106361615  0.3909163804069510  0.1306064115273392
  0.1589089337215020  0.6091038818839043  0.6305511433569089
  0.3469349649033776  0.0595916605628363  0.3273573530713620
  0.6530808554734746  0.9404335652681646  0.8274018042127520
  0.8469347864180817  0.9404083546480944  0.3273572529645162
  0.1530806415012436  0.0595664505359165  0.8274019399044006
  0.2779934169683753  0.7844953968310776  0.3872573674463103
  0.7221528132415116  0.2157256201559493  0.8871947768968700
  0.7779934057458775  0.2155046299415297  0.3872573696582957
  0.2221528175401369  0.7842743561728518  0.8871947701190199
  0.9108816757857742  0.9860866550053443  0.0236484722053549
  0.0891045548888390  0.0139138823739224  0.5236529232112384
  0.4108817016265406  0.0139133461429943  0.0236484155301699
  0.5891046116082648  0.9860861189679367  0.5236530094954925
  0.2142623361056946  0.2721807949796974  0.5565175936871576
  0.7857178199366361  0.7277758441207673  0.0565435600940369
  0.7142622348742317  0.7278192489705906  0.5565175422069745
  0.2857178275267464  0.2722241784129240  0.0565435905869347
  0.0127446963115518  0.6598515289057301  0.2386346583888725
  0.9872661961177031  0.3401485981978038  0.7386399098650210
  0.5127446956384093  0.3401484540007143  0.2386346839201741
  0.4872662025461130  0.6598513893367450  0.7386399001883502
  0.5122590904327310  0.7570720430965185  0.9885696559015289
  0.4877280183283985  0.2429189075068598  0.4885428706794382
  0.0122589635685979  0.2429280093612258  0.9885698924134939
  0.9877279322328869  0.7570811235833469  0.4885427461244743
  0.4243300625924973  0.5469469024051822  0.4698761152976022
  0.5756359755227679  0.4530683194616061  0.9698923740916857
  0.9243300489347761  0.4530530902572435  0.4698761038896476
  0.0756359421142526  0.5469316607157968  0.9698924169426366
  0.0702487150561802  0.1670226873535338  0.2524178582401009
  0.9297352651660541  0.8329715816969369  0.7524179102796615
  0.5702487747638614  0.8329773178841272  0.2524177984574916
  0.4297353015391786  0.1670284131283188  0.7524179607575389
  0.1665928120026872  0.0664201625684420  0.0610273806922654
  0.8334059505999643  0.9335979622724410  0.5610086278900487
  0.6665928127741048  0.9335798578361796  0.0610273789394802
  0.3334059588008201  0.0664020494916967  0.5610086104199321
  0.0838763416516478  0.4198711439974094  0.1487733778444133
  0.9160968622388986  0.5801806928528084  0.6487494863319394
  0.5838763967523146  0.5801288292155067  0.1487733061556913
  0.4160968268596920  0.4198193265455510  0.6487495522962383
  0.0927992157451345  0.9256173035351764  0.3191761085902161
  0.9071800394101170  0.0744233676710055  0.8192081538968511
  0.5927992533185177  0.0743826696401996  0.3191761475560296
  0.4071800811486693  0.9255765962998791  0.8192081135158015
  0.1597233309976188  0.5844316152930532  0.4097847390540246
  0.8403632484795741  0.4156399186980750  0.9098333196625239
  0.6597233050222137  0.4155683979817525  0.4097847556162200
  0.3403632638578286  0.5843600681100372  0.9098333405524167
  0.0402845603440334  0.7766699087893361  0.0458794256189808
  0.9597224519993356  0.2233214150111898  0.5459013278108480
  0.5402845659165343  0.2233300908319992  0.0458794361414575
  0.4597224564597430  0.7766785743980288  0.5459013217950824
  0.3459228953408453  0.8349588039336865  0.1672338808430335
  0.6540697305973210  0.1650372402866996  0.6672353064349886
  0.8459228711454494  0.1650411851661756  0.1672339152018547
  0.1540697227270176  0.8349627506820050  0.6672352800703382
  0.3026119977045314  0.2856908414397261  0.3354785179208235
  0.6974222625739341  0.7143175617670621  0.8355127325324218
  0.8026119515960369  0.7143091592124552  0.3354785092638325
  0.1974222047392673  0.2856824349989647  0.8355127730154587
 
  0.00000000E+00  0.00000000E+00  0.00000000E+00
  0.00000000E+00  0.00000000E+00  0.00000000E+00
  0.00000000E+00  0.00000000E+00  0.00000000E+00
  0.00000000E+00  0.00000000E+00  0.00000000E+00
  0.00000000E+00  0.00000000E+00  0.00000000E+00
  0.00000000E+00  0.00000000E+00  0.00000000E+00
  0.00000000E+00  0.00000000E+00  0.00000000E+00
  0.00000000E+00  0.00000000E+00  0.00000000E+00
  0.00000000E+00  0.00000000E+00  0.00000000E+00
  0.00000000E+00  0.00000000E+00  0.00000000E+00
  0.00000000E+00  0.00000000E+00  0.00000000E+00
  0.00000000E+00  0.00000000E+00  0.00000000E+00
  0.00000000E+00  0.00000000E+00  0.00000000E+00
  0.00000000E+00  0.00000000E+00  0.00000000E+00
  0.00000000E+00  0.00000000E+00  0.00000000E+00
  0.00000000E+00  0.00000000E+00  0.00000000E+00
  0.00000000E+00  0.00000000E+00  0.00000000E+00
  0.00000000E+00  0.00000000E+00  0.00000000E+00
  0.00000000E+00  0.00000000E+00  0.00000000E+00
  0.00000000E+00  0.00000000E+00  0.00000000E+00
  0.00000000E+00  0.00000000E+00  0.00000000E+00
  0.00000000E+00  0.00000000E+00  0.00000000E+00
  0.00000000E+00  0.00000000E+00  0.00000000E+00
  0.00000000E+00  0.00000000E+00  0.00000000E+00
  0.00000000E+00  0.00000000E+00  0.00000000E+00
  0.00000000E+00  0.00000000E+00  0.00000000E+00
  0.00000000E+00  0.00000000E+00  0.00000000E+00
  0.00000000E+00  0.00000000E+00  0.00000000E+00
  0.00000000E+00  0.00000000E+00  0.00000000E+00
  0.00000000E+00  0.00000000E+00  0.00000000E+00
  0.00000000E+00  0.00000000E+00  0.00000000E+00
  0.00000000E+00  0.00000000E+00  0.00000000E+00
  0.00000000E+00  0.00000000E+00  0.00000000E+00
  0.00000000E+00  0.00000000E+00  0.00000000E+00
  0.00000000E+00  0.00000000E+00  0.00000000E+00
  0.00000000E+00  0.00000000E+00  0.00000000E+00
  0.00000000E+00  0.00000000E+00  0.00000000E+00
  0.00000000E+00  0.00000000E+00  0.00000000E+00
  0.00000000E+00  0.00000000E+00  0.00000000E+00
  0.00000000E+00  0.00000000E+00  0.00000000E+00
  0.00000000E+00  0.00000000E+00  0.00000000E+00
  0.00000000E+00  0.00000000E+00  0.00000000E+00
  0.00000000E+00  0.00000000E+00  0.00000000E+00
  0.00000000E+00  0.00000000E+00  0.00000000E+00
  0.00000000E+00  0.00000000E+00  0.00000000E+00
  0.00000000E+00  0.00000000E+00  0.00000000E+00
  0.00000000E+00  0.00000000E+00  0.00000000E+00
  0.00000000E+00  0.00000000E+00  0.00000000E+00
  0.00000000E+00  0.00000000E+00  0.00000000E+00
  0.00000000E+00  0.00000000E+00  0.00000000E+00
  0.00000000E+00  0.00000000E+00  0.00000000E+00
  0.00000000E+00  0.00000000E+00  0.00000000E+00
  0.00000000E+00  0.00000000E+00  0.00000000E+00
  0.00000000E+00  0.00000000E+00  0.00000000E+00
  0.00000000E+00  0.00000000E+00  0.00000000E+00
  0.00000000E+00  0.00000000E+00  0.00000000E+00
  0.00000000E+00  0.00000000E+00  0.00000000E+00
  0.00000000E+00  0.00000000E+00  0.00000000E+00
  0.00000000E+00  0.00000000E+00  0.00000000E+00
  0.00000000E+00  0.00000000E+00  0.00000000E+00
  0.00000000E+00  0.00000000E+00  0.00000000E+00
  0.00000000E+00  0.00000000E+00  0.00000000E+00
  0.00000000E+00  0.00000000E+00  0.00000000E+00
  0.00000000E+00  0.00000000E+00  0.00000000E+00
  0.00000000E+00  0.00000000E+00  0.00000000E+00
  0.00000000E+00  0.00000000E+00  0.00000000E+00
  0.00000000E+00  0.00000000E+00  0.00000000E+00
  0.00000000E+00  0.00000000E+00  0.00000000E+00
  0.00000000E+00  0.00000000E+00  0.00000000E+00
  0.00000000E+00  0.00000000E+00  0.00000000E+00
  0.00000000E+00  0.00000000E+00  0.00000000E+00
  0.00000000E+00  0.00000000E+00  0.00000000E+00
