Disodium manganate(VI)                  
   1.00000000000000     
     5.3963746720140477    0.2461035881256580    0.0027848428945968
    -2.4911983659856598    4.7435834329044440    0.0156788038360479
    -0.0049868118637370   -0.0245216965695894    7.0439713007832232
   Mn   Na   O 
     2     4     8
Direct
  0.3522746267937306  0.6485275368036403  0.6732469590101973
  0.6483988202488035  0.3527741601738846  0.1735357152224902
 -0.0008039294427177  0.0009630037739381  0.9220398463215582
  0.0008801840610919 -0.0011626236098153  0.4223769302749897
  0.3129989065407404  0.6785874099085408  0.1717046911861626
  0.6815799811994346  0.3156826603553820  0.6720908967682582
  0.2416038434564019  0.7416328129192894  0.4825042500182369
  0.7615394162713361  0.2615159521811078  0.9831980956660253
  0.2316785691279360  0.3085557390183176  0.6747169782478619
  0.6899763959187992  0.7785195747272435  0.6720363953361222
  0.2549589735872591  0.7575245881344355  0.8628040762673020
  0.7662644638403193  0.6923245993516600  0.1749977888990611
  0.3104692198481778  0.2186148358469721  0.1716206414136100
  0.7481804985486873  0.2459398104154068  0.3631266913681009
 
  0.00000000E+00  0.00000000E+00  0.00000000E+00
  0.00000000E+00  0.00000000E+00  0.00000000E+00
  0.00000000E+00  0.00000000E+00  0.00000000E+00
  0.00000000E+00  0.00000000E+00  0.00000000E+00
  0.00000000E+00  0.00000000E+00  0.00000000E+00
  0.00000000E+00  0.00000000E+00  0.00000000E+00
  0.00000000E+00  0.00000000E+00  0.00000000E+00
  0.00000000E+00  0.00000000E+00  0.00000000E+00
  0.00000000E+00  0.00000000E+00  0.00000000E+00
  0.00000000E+00  0.00000000E+00  0.00000000E+00
  0.00000000E+00  0.00000000E+00  0.00000000E+00
  0.00000000E+00  0.00000000E+00  0.00000000E+00
  0.00000000E+00  0.00000000E+00  0.00000000E+00
  0.00000000E+00  0.00000000E+00  0.00000000E+00
