Na4 Mn4 O8 F4                           
   1.00000000000000     
     5.3728795139605312    0.0070790946214362   -0.0645715525431662
    -2.6696815315047480    4.6049310796653247    0.0812064871146826
    -0.0445338845635443    0.1464690573512883    8.9774964356469731
   Na   Mn   O    F 
     4     4     8     4
Direct
  0.0410420153800718  0.9850906243638385  0.9672736348057170
  0.9615216771680690  0.0133634812449871  0.5419400859082387
  0.3324025261383161  0.6746671528322864  0.2470827962156810
  0.6669670064367011  0.3383315375846272  0.7478222551801444
  0.3048593850697123  0.7060089810190695  0.6088917355241944
  0.6687288713183714  0.3400046085438049  0.3921609034995100
  0.6870092668976315  0.3247193223341379  0.1100484541766624
  0.3896702953201295  0.6819512684243441  0.8894026002075949
  0.4652922737102239  0.9619903178180358  0.0156127797639313
  0.6169396276370812  0.5371475931148102  0.9675045380434835
  0.3814375598242450  0.0285296359376063  0.5068235192091993
  0.9502741119173790  0.4440365652769333  0.5252210838245132
  0.8610850316546439  0.6204887607659850  0.2427427218753362
  0.6303593870169664  0.8721189393246561  0.7347780645015362
  0.7463721960029084  0.1244848820193547  0.2739649279034718
  0.1379346177358782  0.7539237563810760  0.7704603978649612
  0.0385945525060051  0.4004972584836359  0.0179785993444495
  0.5207292068594085  0.5972690842175747  0.4728881267274057
  0.2412518028289112  0.3528634030412824  0.7435994703784197
  0.3575285885773534  0.2425128272719480  0.2238033050455569
 
  0.00000000E+00  0.00000000E+00  0.00000000E+00
  0.00000000E+00  0.00000000E+00  0.00000000E+00
  0.00000000E+00  0.00000000E+00  0.00000000E+00
  0.00000000E+00  0.00000000E+00  0.00000000E+00
  0.00000000E+00  0.00000000E+00  0.00000000E+00
  0.00000000E+00  0.00000000E+00  0.00000000E+00
  0.00000000E+00  0.00000000E+00  0.00000000E+00
  0.00000000E+00  0.00000000E+00  0.00000000E+00
  0.00000000E+00  0.00000000E+00  0.00000000E+00
  0.00000000E+00  0.00000000E+00  0.00000000E+00
  0.00000000E+00  0.00000000E+00  0.00000000E+00
  0.00000000E+00  0.00000000E+00  0.00000000E+00
  0.00000000E+00  0.00000000E+00  0.00000000E+00
  0.00000000E+00  0.00000000E+00  0.00000000E+00
  0.00000000E+00  0.00000000E+00  0.00000000E+00
  0.00000000E+00  0.00000000E+00  0.00000000E+00
  0.00000000E+00  0.00000000E+00  0.00000000E+00
  0.00000000E+00  0.00000000E+00  0.00000000E+00
  0.00000000E+00  0.00000000E+00  0.00000000E+00
  0.00000000E+00  0.00000000E+00  0.00000000E+00
