Na8 Ni8 O16 F8                          
   1.00000000000000     
     8.3705359421542020   -0.0225622964413307   -0.0139274336139384
    -0.0242819443657383    7.0155774921843355    0.2198357998081091
    -0.0052869069170583   -0.1739398750696309    7.0347969101909991
   Na   Ni   O    F 
     8     8    16     8
Direct
  0.2453370001466922  0.2588435030009474  0.2832661196515781
  0.2582139679342607  0.2142660991692349  0.7602240102881025
  0.2350210259467026  0.7696831267852979  0.2511021336735928
  0.2550584118556006  0.7407072832629716  0.7406075147164894
  0.7372062139857845  0.2509727125483590  0.2319129913943863
  0.7663104030270389  0.2337172733042523  0.7479753062281685
  0.7507084057671959  0.7709355562663526  0.2628119408781148
  0.7545262878500516  0.7405407098957841  0.7824036077011466
  0.0028812135873192  0.9968653041165778  0.9981963933300020
 -0.0031340296628495  0.0004932011512398  0.4979882443342388
  0.0059764898624214  0.4993089935271824  0.0003596678570112
  0.9991421942159039  0.5000670754296398  0.4985343887804029
  0.4964326013979564  0.9949317288285555  0.9933296438918555
  0.5047806611865784  0.9994168267082175  0.5027204123085948
  0.4884861108553385  0.4998839178841630  0.9990922670511562
  0.4876667113987453  0.5099519301593678  0.4964003399714094
  0.2567140084308069  0.5184692371897114  0.0268676260214184
  0.7864170475174164  0.4886838275231481  0.5149160576359829
  0.0247448488731980  0.2548866178513909  0.9203819053637716
  0.0268489167013499  0.2537163499627673  0.5891282658711798
  0.9713029657706567  0.7407778940417800  0.0776898979643766
  0.9954646544924448  0.7476049435202821  0.4038948377268201
  0.4653054145657249  0.2511471686678871  0.0880566169255933
  0.5063813387447316  0.2544401874151659  0.4176184674976025
  0.5018111806971060  0.7453761932920252  0.9013885157716230
  0.5340728663358529  0.7539344713798484  0.5883015203591917
  0.0314766250047167  0.0730678030359607  0.2526189920942706
  0.9697892270083438  0.9257530219934047  0.7430938317887180
  0.9835131842491984  0.4011905357150625  0.2530388519237577
  0.0070418763573525  0.5962122446251725  0.7452921119813749
  0.4746581562172920  0.9346718192251973  0.2488912821609835
  0.5187525030411255  0.0839060339916741  0.7494958241403885
  0.2458249164872150  0.9652955982148987  0.9752371759150781
  0.2566268584324386  0.9828866557997132  0.5220848228138256
  0.2436685486700798  0.5236624883098419  0.4783869030741284
  0.7471905001806498  0.0115477203886307  0.0189352253968361
  0.7544783985537653  0.0218539642662164  0.4702871161530835
  0.7259316709237181  0.4699168731727698  0.9753821762131372
  0.5287353256349674  0.6048772096320205  0.2468976987005649
  0.4586352977551232  0.4155358987473082  0.7451892944500809
 
  0.00000000E+00  0.00000000E+00  0.00000000E+00
  0.00000000E+00  0.00000000E+00  0.00000000E+00
  0.00000000E+00  0.00000000E+00  0.00000000E+00
  0.00000000E+00  0.00000000E+00  0.00000000E+00
  0.00000000E+00  0.00000000E+00  0.00000000E+00
  0.00000000E+00  0.00000000E+00  0.00000000E+00
  0.00000000E+00  0.00000000E+00  0.00000000E+00
  0.00000000E+00  0.00000000E+00  0.00000000E+00
  0.00000000E+00  0.00000000E+00  0.00000000E+00
  0.00000000E+00  0.00000000E+00  0.00000000E+00
  0.00000000E+00  0.00000000E+00  0.00000000E+00
  0.00000000E+00  0.00000000E+00  0.00000000E+00
  0.00000000E+00  0.00000000E+00  0.00000000E+00
  0.00000000E+00  0.00000000E+00  0.00000000E+00
  0.00000000E+00  0.00000000E+00  0.00000000E+00
  0.00000000E+00  0.00000000E+00  0.00000000E+00
  0.00000000E+00  0.00000000E+00  0.00000000E+00
  0.00000000E+00  0.00000000E+00  0.00000000E+00
  0.00000000E+00  0.00000000E+00  0.00000000E+00
  0.00000000E+00  0.00000000E+00  0.00000000E+00
  0.00000000E+00  0.00000000E+00  0.00000000E+00
  0.00000000E+00  0.00000000E+00  0.00000000E+00
  0.00000000E+00  0.00000000E+00  0.00000000E+00
  0.00000000E+00  0.00000000E+00  0.00000000E+00
  0.00000000E+00  0.00000000E+00  0.00000000E+00
  0.00000000E+00  0.00000000E+00  0.00000000E+00
  0.00000000E+00  0.00000000E+00  0.00000000E+00
  0.00000000E+00  0.00000000E+00  0.00000000E+00
  0.00000000E+00  0.00000000E+00  0.00000000E+00
  0.00000000E+00  0.00000000E+00  0.00000000E+00
  0.00000000E+00  0.00000000E+00  0.00000000E+00
  0.00000000E+00  0.00000000E+00  0.00000000E+00
  0.00000000E+00  0.00000000E+00  0.00000000E+00
  0.00000000E+00  0.00000000E+00  0.00000000E+00
  0.00000000E+00  0.00000000E+00  0.00000000E+00
  0.00000000E+00  0.00000000E+00  0.00000000E+00
  0.00000000E+00  0.00000000E+00  0.00000000E+00
  0.00000000E+00  0.00000000E+00  0.00000000E+00
  0.00000000E+00  0.00000000E+00  0.00000000E+00
  0.00000000E+00  0.00000000E+00  0.00000000E+00
