Na4 Cr4 O8 F4                           
   1.00000000000000     
     5.4083697045734098    0.5596608120256185   -0.1051535042233556
     0.5576640969592696    5.3591900089356406   -0.0411479669670029
     0.1340936332570975    0.0828850071599238    7.5383624454057205
   Na   Cr   O    F 
     4     4     8     4
Direct
  0.9589060815098379  0.0337476736063842  0.2435289553925010
  0.9905956471847452  0.0010304459699275  0.7499237298503884
  0.5665109617588306  0.4658231469881456  0.7466055592797491
  0.5646784261046889  0.5369988337685963  0.2466251125817003
  0.4753284056306993  0.9824151296960506  0.9808805958897725
  0.0684838509696948  0.5456195875358176  0.0081789560614451
  0.4715754585587743  0.9808975846784662  0.5113849781894824
  0.0764955257435535  0.5449397451209823  0.4749239413227722
  0.2889740241679429  0.7180608805824397  0.9412229057044100
  0.1689873332075449  0.2133066743171355  0.9895748084656738
  0.7727635714582518  0.7479597817346574  0.0483362358262234
  0.2836065967164977  0.7186428688816566  0.5593671367114588
  0.7823631665215321  0.7317026255756487  0.4652790876004870
  0.1584195387722461  0.2267474438325862  0.5217162467808417
  0.1534132039670556  0.5463354543478602  0.2516132042859115
  0.5506236455682698  0.0230367440270027  0.7528931905581507
  0.6567477939785649  0.2445845489502125  0.0387963197418481
  0.6566926094070705  0.2381599514085607  0.4534921891253932
  0.9544933274238365  0.5398840560648354  0.7615303559938551
  0.4003408313503424  0.9601068229130341  0.2541264906379500
 
  0.00000000E+00  0.00000000E+00  0.00000000E+00
  0.00000000E+00  0.00000000E+00  0.00000000E+00
  0.00000000E+00  0.00000000E+00  0.00000000E+00
  0.00000000E+00  0.00000000E+00  0.00000000E+00
  0.00000000E+00  0.00000000E+00  0.00000000E+00
  0.00000000E+00  0.00000000E+00  0.00000000E+00
  0.00000000E+00  0.00000000E+00  0.00000000E+00
  0.00000000E+00  0.00000000E+00  0.00000000E+00
  0.00000000E+00  0.00000000E+00  0.00000000E+00
  0.00000000E+00  0.00000000E+00  0.00000000E+00
  0.00000000E+00  0.00000000E+00  0.00000000E+00
  0.00000000E+00  0.00000000E+00  0.00000000E+00
  0.00000000E+00  0.00000000E+00  0.00000000E+00
  0.00000000E+00  0.00000000E+00  0.00000000E+00
  0.00000000E+00  0.00000000E+00  0.00000000E+00
  0.00000000E+00  0.00000000E+00  0.00000000E+00
  0.00000000E+00  0.00000000E+00  0.00000000E+00
  0.00000000E+00  0.00000000E+00  0.00000000E+00
  0.00000000E+00  0.00000000E+00  0.00000000E+00
  0.00000000E+00  0.00000000E+00  0.00000000E+00
