Na8 V8 O16 F8                           
   1.00000000000000     
     7.6178150885896825   -0.0000000982895982    0.0000018053838248
    -0.0000000921356473    7.4320039348300320    0.0000000721695266
     0.0000017521206366    0.0000001217066071    7.8271744273969901
   Na   V    O    F 
     8     8    16     8
Direct
  0.2603297280619480  0.2506580260808539  0.2395548462667254
  0.2603286081676799  0.2506587393453047  0.7604436840481683
  0.2603296206985483  0.7493418018913335  0.2395550667980373
  0.2603285095203856  0.7493411485360897  0.7604437824508485
  0.7396601094010162  0.2500474851351184  0.2500030056862890
  0.7396602828980706  0.2500481813416797  0.7499956568279135
  0.7396601103454052  0.7499524632127210  0.2500031197983096
  0.7396602762020230  0.7499518393726672  0.7499956792219750
  0.0021625321801154  0.0000000024240726 -0.0000000158227654
  0.0027621457997123  0.0000000452435324  0.4999999532369239
  0.9883767330270807  0.4999999982511029  0.0000003201068888
  0.0046865316391602  0.5000000144088415  0.5000001285671209
  0.5004136498235110  0.0000000049429554  0.0000002332098825
  0.5048550720800165 -0.0000000279527122  0.5000001973054119
  0.5172484922043988  0.5000000098861064  0.9999958801406889
  0.4768110536209385  0.4999999260875087  0.4999962895415799
  0.2431025206124725  0.0000000193659444  0.0000000513684902
  0.2388009318633577  0.0000000184260395  0.5000001862152509
  0.2507278037455646  0.5000000173341532  0.5000014006692098
  0.7639787121773560  0.0000000103505021  0.0000001450678758
  0.7595743309927978  0.0000000238104151  0.4999998977717521
  0.7496194932835748  0.5000000161420336  0.0000005150517887
  0.0080823312105186  0.2599176503259696 -0.0000000841384464
  0.9938822295956600  0.2609606151939846  0.5000002202668042
  0.0080823269022006  0.7400823736560416  0.0000000611946350
  0.9938822368655219  0.7390394182507316  0.4999998180507231
  0.5023764692917139  0.2423524041344335  0.0000002771862372
  0.5001505309606479  0.2437106616009766  0.5000001987223326
  0.5023764665500515  0.7576476189371655 -0.0000000765513051
  0.5001505212709085  0.7562893427214469  0.5000003510164801
  0.4970495857292035  0.5000001066573169  0.2416311863960863
  0.4970490606891745  0.4999999049407022  0.7583733638046625
  0.2520427309947783  0.4999999977572244  0.0000017723182821
  0.7419852153094962  0.5000000178838421  0.5000022764365198
  0.0011335012439801  0.0000002225390432  0.2502148598187027
  0.0011333498300875  0.9999998532326497  0.7497850915424609
  0.9977404510559760  0.4999998149621976  0.2504757758586089
  0.9977402082377052  0.5000002027171619  0.7495245822264988
  0.5010327039927818  0.9999997612925419  0.2496429086105622
  0.5010328319244742  0.0000002695603068  0.7503573937117974
 
  0.00000000E+00  0.00000000E+00  0.00000000E+00
  0.00000000E+00  0.00000000E+00  0.00000000E+00
  0.00000000E+00  0.00000000E+00  0.00000000E+00
  0.00000000E+00  0.00000000E+00  0.00000000E+00
  0.00000000E+00  0.00000000E+00  0.00000000E+00
  0.00000000E+00  0.00000000E+00  0.00000000E+00
  0.00000000E+00  0.00000000E+00  0.00000000E+00
  0.00000000E+00  0.00000000E+00  0.00000000E+00
  0.00000000E+00  0.00000000E+00  0.00000000E+00
  0.00000000E+00  0.00000000E+00  0.00000000E+00
  0.00000000E+00  0.00000000E+00  0.00000000E+00
  0.00000000E+00  0.00000000E+00  0.00000000E+00
  0.00000000E+00  0.00000000E+00  0.00000000E+00
  0.00000000E+00  0.00000000E+00  0.00000000E+00
  0.00000000E+00  0.00000000E+00  0.00000000E+00
  0.00000000E+00  0.00000000E+00  0.00000000E+00
  0.00000000E+00  0.00000000E+00  0.00000000E+00
  0.00000000E+00  0.00000000E+00  0.00000000E+00
  0.00000000E+00  0.00000000E+00  0.00000000E+00
  0.00000000E+00  0.00000000E+00  0.00000000E+00
  0.00000000E+00  0.00000000E+00  0.00000000E+00
  0.00000000E+00  0.00000000E+00  0.00000000E+00
  0.00000000E+00  0.00000000E+00  0.00000000E+00
  0.00000000E+00  0.00000000E+00  0.00000000E+00
  0.00000000E+00  0.00000000E+00  0.00000000E+00
  0.00000000E+00  0.00000000E+00  0.00000000E+00
  0.00000000E+00  0.00000000E+00  0.00000000E+00
  0.00000000E+00  0.00000000E+00  0.00000000E+00
  0.00000000E+00  0.00000000E+00  0.00000000E+00
  0.00000000E+00  0.00000000E+00  0.00000000E+00
  0.00000000E+00  0.00000000E+00  0.00000000E+00
  0.00000000E+00  0.00000000E+00  0.00000000E+00
  0.00000000E+00  0.00000000E+00  0.00000000E+00
  0.00000000E+00  0.00000000E+00  0.00000000E+00
  0.00000000E+00  0.00000000E+00  0.00000000E+00
  0.00000000E+00  0.00000000E+00  0.00000000E+00
  0.00000000E+00  0.00000000E+00  0.00000000E+00
  0.00000000E+00  0.00000000E+00  0.00000000E+00
  0.00000000E+00  0.00000000E+00  0.00000000E+00
  0.00000000E+00  0.00000000E+00  0.00000000E+00
