Na8 Ni8 O16 F8                          
   1.00000000000000     
     8.2319125980601164   -0.0010541183673545    0.2474450237640862
    -0.0578593832039272    7.1383127211170985    0.1923511729677486
    -0.2037801667470370   -0.1593364266078416    7.0321966883815570
   Na   Ni   O    F 
     8     8    16     8
Direct
  0.2617714710135468  0.2329430388050263  0.2312942093428911
  0.2575080360373945  0.2251326899734951  0.7204907217285496
  0.2510009489695643  0.7500950259409096  0.2589770431418854
  0.2483818969653785  0.7475113242604634  0.7623632178884509
  0.7364232796472457  0.2699219503824687  0.2482714917450645
  0.7499177505221063  0.2478052104273868  0.7593940300081810
  0.7511196978563568  0.7680549499670800  0.2633577330876833
  0.7491628457920676  0.7502805834350641  0.7698335261886555
  0.9971294193770817  0.9996324766173077  0.0015251037705622
  0.9812007503685606 -0.0000726610007292  0.4995872059005882
  0.0034814267025110  0.4961881815151347  0.0047435019748404
  0.9828374201621858  0.4997325991529944  0.5054096635657404
  0.5045188396699968  0.9922617218233483  0.9986530894454435
  0.5294801349544632  0.9934807635805164  0.4895359128322559
  0.4966311802075298  0.5002020133127497  0.9869948537683599
  0.5039301741704163  0.5096302662021738  0.5010831367987273
  0.2834123759648031  0.5006592216328096  0.5232220023680849
  0.7589566035614085  0.9717276627692421  0.5294560661458863
  0.7310914775620260  0.5049193502135028  0.4960119427516350
  0.0448572594062203  0.2524785065191856  0.9448432080665298
  0.9639713575750519  0.7424563991616202  0.0591799880231123
  0.4685454402624800  0.2410524534961544  0.9279154376574202
  0.5246251079995307  0.2576562695668155  0.5801173748735104
  0.5398519516337758  0.7504734499790021  0.0636908526845868
  0.4970841812472133  0.7513909808726814  0.4008480044654832
  0.9519412918047324  0.0819956143789932  0.2551309816799514
  0.0248229452635938  0.9224788203036559  0.7451039584306670
  0.0181345329708940  0.4081414093311765  0.2618069828753529
  0.9990214463292726  0.5924706163938284  0.7507833619961464
  0.5185942045044201  0.0765531493208708  0.2463424444795953
  0.4756443740992004  0.9329396819247281  0.7404163331347883
  0.4921952042579409  0.5985505332652052  0.7351026362244368
  0.2465560457967730  0.9683751112071056  0.0304909401713679
  0.2184240393339598  0.0203585487016955  0.4710436610107346
  0.2532923240869780  0.5374737542045034  0.0165864048791835
  0.7526681052522137  0.0192300965357375  0.9665955925075048
  0.7487161363692116  0.4628042253966142  0.9928842161562816
  0.9886700972834863  0.2594073372249069  0.6055165324407593
  0.0048923990404959  0.7394118238062136  0.4021734803802571
  0.4895358259778985  0.4241948493983624  0.2532231554088601
 
  0.00000000E+00  0.00000000E+00  0.00000000E+00
  0.00000000E+00  0.00000000E+00  0.00000000E+00
  0.00000000E+00  0.00000000E+00  0.00000000E+00
  0.00000000E+00  0.00000000E+00  0.00000000E+00
  0.00000000E+00  0.00000000E+00  0.00000000E+00
  0.00000000E+00  0.00000000E+00  0.00000000E+00
  0.00000000E+00  0.00000000E+00  0.00000000E+00
  0.00000000E+00  0.00000000E+00  0.00000000E+00
  0.00000000E+00  0.00000000E+00  0.00000000E+00
  0.00000000E+00  0.00000000E+00  0.00000000E+00
  0.00000000E+00  0.00000000E+00  0.00000000E+00
  0.00000000E+00  0.00000000E+00  0.00000000E+00
  0.00000000E+00  0.00000000E+00  0.00000000E+00
  0.00000000E+00  0.00000000E+00  0.00000000E+00
  0.00000000E+00  0.00000000E+00  0.00000000E+00
  0.00000000E+00  0.00000000E+00  0.00000000E+00
  0.00000000E+00  0.00000000E+00  0.00000000E+00
  0.00000000E+00  0.00000000E+00  0.00000000E+00
  0.00000000E+00  0.00000000E+00  0.00000000E+00
  0.00000000E+00  0.00000000E+00  0.00000000E+00
  0.00000000E+00  0.00000000E+00  0.00000000E+00
  0.00000000E+00  0.00000000E+00  0.00000000E+00
  0.00000000E+00  0.00000000E+00  0.00000000E+00
  0.00000000E+00  0.00000000E+00  0.00000000E+00
  0.00000000E+00  0.00000000E+00  0.00000000E+00
  0.00000000E+00  0.00000000E+00  0.00000000E+00
  0.00000000E+00  0.00000000E+00  0.00000000E+00
  0.00000000E+00  0.00000000E+00  0.00000000E+00
  0.00000000E+00  0.00000000E+00  0.00000000E+00
  0.00000000E+00  0.00000000E+00  0.00000000E+00
  0.00000000E+00  0.00000000E+00  0.00000000E+00
  0.00000000E+00  0.00000000E+00  0.00000000E+00
  0.00000000E+00  0.00000000E+00  0.00000000E+00
  0.00000000E+00  0.00000000E+00  0.00000000E+00
  0.00000000E+00  0.00000000E+00  0.00000000E+00
  0.00000000E+00  0.00000000E+00  0.00000000E+00
  0.00000000E+00  0.00000000E+00  0.00000000E+00
  0.00000000E+00  0.00000000E+00  0.00000000E+00
  0.00000000E+00  0.00000000E+00  0.00000000E+00
  0.00000000E+00  0.00000000E+00  0.00000000E+00
