Ni4 O4 F8                               
   1.00000000000000     
     4.6500215537998342   -0.0708667562975119    0.0035227733095323
    -0.0855617463060521    4.8830485810701845    0.0286066371024523
    -0.0268594147567694   -0.0731169237349763    7.0385830702262142
   Ni   O    F 
     4     4     8
Direct
  0.5014003575995032  0.9990198636529184  0.9969227191356282
  0.0014613732927164  0.4998104623093538  0.9972010334868430
  0.4949334848418798  0.9972543933685803  0.5022898463922097
  0.0036079439199530  0.5053873086345461  0.5014819804343793
  0.6590177630811892  0.3351805087534971  0.0617724886732379
  0.3463803048228786  0.6602392075593667  0.9362190744834317
  0.3510171847125676  0.6584319682270110  0.5734329908812700
  0.6525957997430614  0.3403951209040927  0.4300365572934893
  0.1248092244633951  0.4514576434347429  0.2502260375524361
  0.8698422428224263  0.5497655920485869  0.7492185979418959
  0.6402749809923532  0.0463931137871865  0.7360153963237271
  0.3591684415227544  0.9551217949454005  0.2647432470955292
  0.1722948078565157  0.1644863185650758  0.9297797605063052
  0.8283369433995631  0.8333779633253580  0.0688595384550214
  0.8200574098221121  0.8424376306573950  0.4299123146043233
  0.1748017371071309  0.1612411098268881  0.5718884167402654
 
  0.00000000E+00  0.00000000E+00  0.00000000E+00
  0.00000000E+00  0.00000000E+00  0.00000000E+00
  0.00000000E+00  0.00000000E+00  0.00000000E+00
  0.00000000E+00  0.00000000E+00  0.00000000E+00
  0.00000000E+00  0.00000000E+00  0.00000000E+00
  0.00000000E+00  0.00000000E+00  0.00000000E+00
  0.00000000E+00  0.00000000E+00  0.00000000E+00
  0.00000000E+00  0.00000000E+00  0.00000000E+00
  0.00000000E+00  0.00000000E+00  0.00000000E+00
  0.00000000E+00  0.00000000E+00  0.00000000E+00
  0.00000000E+00  0.00000000E+00  0.00000000E+00
  0.00000000E+00  0.00000000E+00  0.00000000E+00
  0.00000000E+00  0.00000000E+00  0.00000000E+00
  0.00000000E+00  0.00000000E+00  0.00000000E+00
  0.00000000E+00  0.00000000E+00  0.00000000E+00
  0.00000000E+00  0.00000000E+00  0.00000000E+00
