Na8 Ni8 O16 F8                          
   1.00000000000000     
     7.4907107109875275   -0.0004762169144577   -0.0000012158755953
    -0.0004565908798915    7.2849642695903780   -0.0000106689573358
    -0.0000020562357778   -0.0000082049248380    7.8912304987977766
   Na   Ni   O    F 
     8     8    16     8
Direct
  0.2560213690620386  0.2452240642908818  0.2417863501362998
  0.2560235029880252  0.2452237694616204  0.7582100893747946
  0.2560263197141168  0.7547932751093208  0.2417954777510708
  0.2560245022744604  0.7547915649538602  0.7582079933664111
  0.7438748033209586  0.2451019643646205  0.2584621287759953
  0.7438832043113492  0.2451034141824941  0.7415410624415497
  0.7438802283406500  0.7548829899965974  0.2584685707137144
  0.7438738463029614  0.7548836513874515  0.7415301596674254
  0.9979279910197648  0.0000023337483323  0.0000000896120857
  0.0020197620135132 -0.0000021978163745  0.4999999623642209
  0.9919155968145633  0.4999963263153523  0.0000001927668558
  0.0080784285474328  0.5000035889952701  0.4999998605065366
  0.4997755515937889  0.0000058365821327 -0.0000000744609650
  0.5002304055871549 -0.0000069733307331  0.4999998751010145
  0.5031840665972077  0.5000089778796191 -0.0000041329584725
  0.4968531457469240  0.4999909148960744  0.5000041094028307
  0.2516251887341867  0.9999835911559368  0.0000010775013316
  0.2498957210738696 -0.0000001169470096  0.4999999237050776
  0.2573801551760699  0.4999921413662533  0.4999978950116813
  0.7500886916414801  0.9999988814415939  0.9999992849590109
  0.7483279859197657  0.0000143358626144  0.4999989807003092
  0.7429525930373911  0.5000069425256289 -0.0000012282400957
  0.0076424366125027  0.2449392228257629  0.0000034904455247
  0.9925646106811336  0.2449042102641542  0.5000013594970089
  0.0076528730623333  0.7550707711576971 -0.0000000066785054
  0.9925784643837058  0.7550892871399056  0.4999989248506477
  0.5155750688379153  0.2534457635098794 -0.0000020796432116
  0.4843367290520674  0.2535351766624626  0.4999998919367968
  0.5155860631969892  0.7465724021393368  0.0000004994218530
  0.4843407714725986  0.7464507668922495  0.4999971500580858
  0.5000690723414944  0.4999998014759415  0.2505146832262868
  0.5000675215992290  0.5000003122620957  0.7494846393923518
  0.2537255102257950  0.5000071480982463  0.0000014870359308
  0.7460251416330037  0.4999991370375800  0.5000017933590177
 -0.0000235476478039 -0.0000008783272613  0.2499731402842349
  0.9999740507927478 -0.0000014429273984  0.7500281186350662
  0.0000081842118848  0.4999960849486210  0.2500332020252279
  0.0000104998614857  0.4999969377727498  0.7499667853209221
  0.5000016635049862  0.0000001794412202  0.2499898281228714
  0.5000018263602513 -0.0000041567947810  0.7500094445112091
 
  0.00000000E+00  0.00000000E+00  0.00000000E+00
  0.00000000E+00  0.00000000E+00  0.00000000E+00
  0.00000000E+00  0.00000000E+00  0.00000000E+00
  0.00000000E+00  0.00000000E+00  0.00000000E+00
  0.00000000E+00  0.00000000E+00  0.00000000E+00
  0.00000000E+00  0.00000000E+00  0.00000000E+00
  0.00000000E+00  0.00000000E+00  0.00000000E+00
  0.00000000E+00  0.00000000E+00  0.00000000E+00
  0.00000000E+00  0.00000000E+00  0.00000000E+00
  0.00000000E+00  0.00000000E+00  0.00000000E+00
  0.00000000E+00  0.00000000E+00  0.00000000E+00
  0.00000000E+00  0.00000000E+00  0.00000000E+00
  0.00000000E+00  0.00000000E+00  0.00000000E+00
  0.00000000E+00  0.00000000E+00  0.00000000E+00
  0.00000000E+00  0.00000000E+00  0.00000000E+00
  0.00000000E+00  0.00000000E+00  0.00000000E+00
  0.00000000E+00  0.00000000E+00  0.00000000E+00
  0.00000000E+00  0.00000000E+00  0.00000000E+00
  0.00000000E+00  0.00000000E+00  0.00000000E+00
  0.00000000E+00  0.00000000E+00  0.00000000E+00
  0.00000000E+00  0.00000000E+00  0.00000000E+00
  0.00000000E+00  0.00000000E+00  0.00000000E+00
  0.00000000E+00  0.00000000E+00  0.00000000E+00
  0.00000000E+00  0.00000000E+00  0.00000000E+00
  0.00000000E+00  0.00000000E+00  0.00000000E+00
  0.00000000E+00  0.00000000E+00  0.00000000E+00
  0.00000000E+00  0.00000000E+00  0.00000000E+00
  0.00000000E+00  0.00000000E+00  0.00000000E+00
  0.00000000E+00  0.00000000E+00  0.00000000E+00
  0.00000000E+00  0.00000000E+00  0.00000000E+00
  0.00000000E+00  0.00000000E+00  0.00000000E+00
  0.00000000E+00  0.00000000E+00  0.00000000E+00
  0.00000000E+00  0.00000000E+00  0.00000000E+00
  0.00000000E+00  0.00000000E+00  0.00000000E+00
  0.00000000E+00  0.00000000E+00  0.00000000E+00
  0.00000000E+00  0.00000000E+00  0.00000000E+00
  0.00000000E+00  0.00000000E+00  0.00000000E+00
  0.00000000E+00  0.00000000E+00  0.00000000E+00
  0.00000000E+00  0.00000000E+00  0.00000000E+00
  0.00000000E+00  0.00000000E+00  0.00000000E+00
