Trisodium hexafluoroferrate(III)        
   1.00000000000000     
     5.4091327901695960   -0.0000211252009713   -0.0098848481450794
    -0.0000001808811358    5.6916036377634143   -0.0000046804939509
    -0.0716658610910835   -0.0000109444462168    7.8238852245774719
   Fe   Na   F 
     2     6    12
Direct
  0.2471710347755336  0.4881209551338019  0.2494896802397061
  0.7528292579245962  0.9881193146194245  0.7505093858525694
  0.7489239773694362  0.9867564397095009  0.2503596990165199
  0.2510833806590638  0.4867558139921873  0.7496345276312331
  0.7296241771718653  0.5515465857792159  0.0056239749326290
  0.2703697637684879  0.0515536019312999  0.9943800878952040
  0.7679713709364020  0.4239492575585458  0.4949824953547942
  0.2319940541529512  0.9239695136423988  0.5050274677325142
  0.3719413715510396  0.5462414691300598  0.4786009982431456
  0.6280611096151836  0.0462430962506668  0.5213962852715208
  0.5385298392572744  0.3097677989325423  0.1953873439328443
  0.4614799938074314  0.8097544448539621  0.8046170970255320
  0.0796769849399678  0.2053148258785897  0.3242156353435623
  0.9203287915607120  0.7053143367025152  0.6757813234717588
  0.1256471061250337  0.4299191207594590  0.0198207327083088
  0.8743649398810809  0.9299206328754107  0.9801758432420715
  0.9569987850012951  0.6662933727814538  0.3049110937337399
  0.0430036003844526  0.1662923259901257  0.6950881717797139
  0.4169638988023319  0.7700860899806653  0.1758990005854113
  0.5830365253158687  0.2700811954981557  0.8240991610072390
 
  0.00000000E+00  0.00000000E+00  0.00000000E+00
  0.00000000E+00  0.00000000E+00  0.00000000E+00
  0.00000000E+00  0.00000000E+00  0.00000000E+00
  0.00000000E+00  0.00000000E+00  0.00000000E+00
  0.00000000E+00  0.00000000E+00  0.00000000E+00
  0.00000000E+00  0.00000000E+00  0.00000000E+00
  0.00000000E+00  0.00000000E+00  0.00000000E+00
  0.00000000E+00  0.00000000E+00  0.00000000E+00
  0.00000000E+00  0.00000000E+00  0.00000000E+00
  0.00000000E+00  0.00000000E+00  0.00000000E+00
  0.00000000E+00  0.00000000E+00  0.00000000E+00
  0.00000000E+00  0.00000000E+00  0.00000000E+00
  0.00000000E+00  0.00000000E+00  0.00000000E+00
  0.00000000E+00  0.00000000E+00  0.00000000E+00
  0.00000000E+00  0.00000000E+00  0.00000000E+00
  0.00000000E+00  0.00000000E+00  0.00000000E+00
  0.00000000E+00  0.00000000E+00  0.00000000E+00
  0.00000000E+00  0.00000000E+00  0.00000000E+00
  0.00000000E+00  0.00000000E+00  0.00000000E+00
  0.00000000E+00  0.00000000E+00  0.00000000E+00
