Co4 O4 F8                               
   1.00000000000000     
     4.9767983174002151   -0.0105873145622721   -0.0205035948468486
     0.0105421295453536    5.1996956412252926    0.0512204110304326
    -0.0799815187989084   -0.0146166902878952    7.2227761596361368
   Co   O    F 
     4     4     8
Direct
  0.5136677405458708  0.9922831273931048  0.0046809551411292
  0.0083284453249056  0.4944354487432115  0.0090671196535014
  0.5015353263992649  0.0009064645256064  0.5078634950461830
  0.0024093897727672  0.4917666759505924  0.5050035221850800
  0.8202251536939728  0.8058863856951766  0.0536080159567824
  0.1788675033884800  0.1835741602356021  0.5565713095419387
  0.1195035990179874  0.4742461151226564  0.2534553374140134
  0.6072751383659343  0.0338126201852535  0.7518260048250489
  0.6834563124973223  0.3082343012533735  0.0592263248266167
  0.3157115288841223  0.6938705759200251  0.9417167482874023
  0.1920393092866553  0.1954075535157767  0.9289565133286484
  0.3200886414362709  0.6872353212521334  0.5563996244683177
  0.6795055660938109  0.3095528842566853  0.4392754968524650
  0.8123261850039616  0.8075135506831648  0.4313771951265161
  0.8770415621874964  0.5397148929063793  0.7508200375038878
  0.3680185981011775  0.9815599223612582  0.2501522998424621
 
  0.00000000E+00  0.00000000E+00  0.00000000E+00
  0.00000000E+00  0.00000000E+00  0.00000000E+00
  0.00000000E+00  0.00000000E+00  0.00000000E+00
  0.00000000E+00  0.00000000E+00  0.00000000E+00
  0.00000000E+00  0.00000000E+00  0.00000000E+00
  0.00000000E+00  0.00000000E+00  0.00000000E+00
  0.00000000E+00  0.00000000E+00  0.00000000E+00
  0.00000000E+00  0.00000000E+00  0.00000000E+00
  0.00000000E+00  0.00000000E+00  0.00000000E+00
  0.00000000E+00  0.00000000E+00  0.00000000E+00
  0.00000000E+00  0.00000000E+00  0.00000000E+00
  0.00000000E+00  0.00000000E+00  0.00000000E+00
  0.00000000E+00  0.00000000E+00  0.00000000E+00
  0.00000000E+00  0.00000000E+00  0.00000000E+00
  0.00000000E+00  0.00000000E+00  0.00000000E+00
  0.00000000E+00  0.00000000E+00  0.00000000E+00
