Fe8 O8 F16                              
    1.000000000000000     
     7.8451847425249026   -0.0007169124266916    0.0077293033046873
    -0.0006287655826427    7.8263466640924113   -0.0075930714756356
    -0.0004643709473994   -0.0219693581603227    7.7412244261501524
   Fe   O    F 
     8     8    16
Direct
  0.0014864657994865  0.9987298798115323  0.0016410802791087
  0.9988060532383416  0.0010739097878651  0.5019805173234435
  0.0014404957600592  0.5012827915724155  0.9984953774102957
  0.9991103196549302  0.4988949374366093  0.4981953766984571
  0.5018987549275012  0.0011224810766019  0.9998094004801199
  0.4987877582499747  0.9978436268164759  0.4997198111774114
  0.5019362545225688  0.4990257511830942  0.0000176158373994
  0.4992443933879698  0.5023642707901957  0.4998652901002287
  0.2486095609609495  0.9908048431789018  0.5009884812573709
  0.2490520566276117  0.5087345284850447  0.4996007174568973
  0.7494177143548303  0.5090617520339431  0.4990504166080008
  0.5005515754189085  0.2500642889376138  0.9999606666435782
  0.7490171206918402  0.9911230212261379  0.5003702164662851
  0.0007152714921659  0.2500287560287989  0.0001131997237357
  0.9989381754747603  0.7499703078993466  0.5000907822604941
  0.5000637494206513  0.7500480035593724  0.9998547438807212
  0.0003719750133551  0.0006319755057594  0.2503178682115627
  0.5006433118512449  0.9851132290417678  0.7496620635322462
  0.7513469435129618  0.4809926906801024  0.9988447397733281
  0.0001252352450616  0.7499886854914021  0.0001401226682644
  0.9992020976878481  0.9971982562723719  0.7525398287242745
  0.0005136584290105  0.5026958608072779  0.2477195732372485
  0.9993141601359133  0.4993008787884519  0.7498681434957926
  0.4990849526244925  0.9877599445200869  0.2500299819401340
  0.4992781997366647  0.5149121575960888  0.2501176053479530
  0.5007086069690901  0.5121758320407065  0.7497487750443800
  0.2506542108870221  0.0190549797527709  0.0012704677614763
  0.2506481234633777  0.4809466217469230  0.0008032013114797
  0.7513373520302919  0.0190423716684912  0.9993314458282386
  0.9992713908360030  0.2499397273105207  0.5000965084371154
  0.4992116355740394  0.2500215795542790  0.4998602445724959
  0.4992124260210732  0.7500520593990363  0.4998957365104413
 
  0.00000000E+00  0.00000000E+00  0.00000000E+00
  0.00000000E+00  0.00000000E+00  0.00000000E+00
  0.00000000E+00  0.00000000E+00  0.00000000E+00
  0.00000000E+00  0.00000000E+00  0.00000000E+00
  0.00000000E+00  0.00000000E+00  0.00000000E+00
  0.00000000E+00  0.00000000E+00  0.00000000E+00
  0.00000000E+00  0.00000000E+00  0.00000000E+00
  0.00000000E+00  0.00000000E+00  0.00000000E+00
  0.00000000E+00  0.00000000E+00  0.00000000E+00
  0.00000000E+00  0.00000000E+00  0.00000000E+00
  0.00000000E+00  0.00000000E+00  0.00000000E+00
  0.00000000E+00  0.00000000E+00  0.00000000E+00
  0.00000000E+00  0.00000000E+00  0.00000000E+00
  0.00000000E+00  0.00000000E+00  0.00000000E+00
  0.00000000E+00  0.00000000E+00  0.00000000E+00
  0.00000000E+00  0.00000000E+00  0.00000000E+00
  0.00000000E+00  0.00000000E+00  0.00000000E+00
  0.00000000E+00  0.00000000E+00  0.00000000E+00
  0.00000000E+00  0.00000000E+00  0.00000000E+00
  0.00000000E+00  0.00000000E+00  0.00000000E+00
  0.00000000E+00  0.00000000E+00  0.00000000E+00
  0.00000000E+00  0.00000000E+00  0.00000000E+00
  0.00000000E+00  0.00000000E+00  0.00000000E+00
  0.00000000E+00  0.00000000E+00  0.00000000E+00
  0.00000000E+00  0.00000000E+00  0.00000000E+00
  0.00000000E+00  0.00000000E+00  0.00000000E+00
  0.00000000E+00  0.00000000E+00  0.00000000E+00
  0.00000000E+00  0.00000000E+00  0.00000000E+00
  0.00000000E+00  0.00000000E+00  0.00000000E+00
  0.00000000E+00  0.00000000E+00  0.00000000E+00
  0.00000000E+00  0.00000000E+00  0.00000000E+00
  0.00000000E+00  0.00000000E+00  0.00000000E+00
