Na4 Mn4 O8 F4                           
   1.00000000000000     
     5.3820301530522894   -0.0035190010775777   -0.0195943349603935
    -2.6940658912941018    4.6654013299932116    0.0393614565499556
    -0.0414472309125292    0.0721708101839499    9.0863067329378282
   Na   Mn   O    F 
     4     4     8     4
Direct
  0.9999904839051794  0.9999957489443005  0.9999772063459815
  0.0000013878698084  0.0000026289942383  0.4999769847131859
  0.3387640068052491  0.6693191041697943  0.2500654709686074
  0.6612279947785993  0.3306466502235565  0.7499168356443775
  0.3149118608890120  0.6371912431246329  0.6121701052037452
  0.6852923273500835  0.3629736556462007  0.3878886175478513
  0.6851138493106390  0.3223024298079196  0.1121726498080520
  0.3147018078804962  0.6776733758313682  0.8878866913889425
  0.4999634211930086  0.9999516102073187  0.9999824762371006
  0.9999092687371913  0.4998990492065261  0.0000009740573574
  0.0000915640072705  0.4999913283895765  0.5000020255566540
  0.5000356829092070  0.4999839563539865  0.4999794345753372
  0.8082961591191307  0.6305164808538919  0.2441191147678268
  0.1917288775809851  0.3694867299427500  0.7558774543225582
  0.8082107093579225  0.1777442115299053  0.2558753235675297
  0.1917629399738345  0.8222310767099472  0.7441225727428105
  0.4999311152010222  0.4999574238745268  0.9999908812145506
  0.5000666955583597  0.0000257306701812  0.4999896337649332
  0.3497039626141216  0.1748718665787194  0.2500193265408370
  0.6502958849588723  0.8252356989406522  0.7499862210317687
 
  0.00000000E+00  0.00000000E+00  0.00000000E+00
  0.00000000E+00  0.00000000E+00  0.00000000E+00
  0.00000000E+00  0.00000000E+00  0.00000000E+00
  0.00000000E+00  0.00000000E+00  0.00000000E+00
  0.00000000E+00  0.00000000E+00  0.00000000E+00
  0.00000000E+00  0.00000000E+00  0.00000000E+00
  0.00000000E+00  0.00000000E+00  0.00000000E+00
  0.00000000E+00  0.00000000E+00  0.00000000E+00
  0.00000000E+00  0.00000000E+00  0.00000000E+00
  0.00000000E+00  0.00000000E+00  0.00000000E+00
  0.00000000E+00  0.00000000E+00  0.00000000E+00
  0.00000000E+00  0.00000000E+00  0.00000000E+00
  0.00000000E+00  0.00000000E+00  0.00000000E+00
  0.00000000E+00  0.00000000E+00  0.00000000E+00
  0.00000000E+00  0.00000000E+00  0.00000000E+00
  0.00000000E+00  0.00000000E+00  0.00000000E+00
  0.00000000E+00  0.00000000E+00  0.00000000E+00
  0.00000000E+00  0.00000000E+00  0.00000000E+00
  0.00000000E+00  0.00000000E+00  0.00000000E+00
  0.00000000E+00  0.00000000E+00  0.00000000E+00
