Na4 V4 O8 F4                            
   1.00000000000000     
     5.2379126402505580    0.0733797974131095    0.0383366746330645
     0.0742061199603791    5.2708702344611034    0.0109287086004302
     0.0222272375767750    0.0040992564492616    7.8035651656061740
   Na   V    O    F 
     4     4     8     4
Direct
  0.9809581035129398  0.0257819636067325  0.2585738320296826
  0.0109391186734555  0.9737044075110290  0.7400849194917072
  0.4911328529545216  0.4707994597895180  0.7340559794486268
  0.5246676106348502  0.5330629227654669  0.2659406499061987
  0.4881671571640211  0.9916903046579932  0.9983772411513172
  0.0353041721472920  0.5182749479663755  0.0232178610697318
  0.5003881571075155  0.0024739872746906  0.4998830740878546
  0.0084102026653667  0.5038767276891107  0.4923555789679668
  0.2839424117302158  0.7077586289463653  0.9560891737987376
  0.1927581981136441  0.2200052407101865  0.9612243539447576
  0.7874661404986014  0.7657226771123220  0.0331188541360490
  0.2877725397728597  0.7372536394719447  0.5335767476197120
  0.7132802745665856  0.2584568896922192  0.4627212836831731
  0.7835155275666708  0.7618346197485550  0.4635662600019259
  0.2138826406956014  0.2356174110803124  0.5362043813087567
  0.0837413935248748  0.4897854336978327  0.2422132088241042
  0.7031764877679763  0.2833062320272788  0.0495558049108880
  0.9166176162967972  0.5164858452467342  0.7492774670885822
  0.5840890756605859  0.0245569263659462  0.7493562691593638
  0.4097903189456247  0.9795517346393865  0.2506070593708642
 
  0.00000000E+00  0.00000000E+00  0.00000000E+00
  0.00000000E+00  0.00000000E+00  0.00000000E+00
  0.00000000E+00  0.00000000E+00  0.00000000E+00
  0.00000000E+00  0.00000000E+00  0.00000000E+00
  0.00000000E+00  0.00000000E+00  0.00000000E+00
  0.00000000E+00  0.00000000E+00  0.00000000E+00
  0.00000000E+00  0.00000000E+00  0.00000000E+00
  0.00000000E+00  0.00000000E+00  0.00000000E+00
  0.00000000E+00  0.00000000E+00  0.00000000E+00
  0.00000000E+00  0.00000000E+00  0.00000000E+00
  0.00000000E+00  0.00000000E+00  0.00000000E+00
  0.00000000E+00  0.00000000E+00  0.00000000E+00
  0.00000000E+00  0.00000000E+00  0.00000000E+00
  0.00000000E+00  0.00000000E+00  0.00000000E+00
  0.00000000E+00  0.00000000E+00  0.00000000E+00
  0.00000000E+00  0.00000000E+00  0.00000000E+00
  0.00000000E+00  0.00000000E+00  0.00000000E+00
  0.00000000E+00  0.00000000E+00  0.00000000E+00
  0.00000000E+00  0.00000000E+00  0.00000000E+00
  0.00000000E+00  0.00000000E+00  0.00000000E+00
