Na4 Ti4 O8 F4                           
   1.00000000000000     
     5.3208367779799257   -0.0025733566094754    0.0161870592824989
    -0.0031167661037924    5.4139077974928487    0.0105549766133445
     0.0245291605672405    0.0154873813485262    7.7558923159080360
   Na   Ti   O    F 
     4     4     8     4
Direct
  0.9891707744540748  0.0240918251470439  0.2458153620246339
  0.0140821942021248  0.9600112052000568  0.7566489107008134
  0.4851489545491483  0.4714553541645650  0.7444569409724677
  0.5193894558483546  0.5416191586211054  0.2553895879444867
  0.4956526189614113  0.9840387525927211  0.9815068451138701
  0.0210323265295645  0.5075208310591294  0.0131577271582601
  0.4889696101159269  0.0139322832083582  0.5180967976284118
  0.0145156792077270  0.4834247060409619  0.4880393048248667
  0.2837411757779638  0.7155198772862480  0.9509564651110435
  0.2130368478637427  0.2162186321393604  0.9639980928139266
  0.7795904501493471  0.7802670938098578  0.0388435041723329
  0.2795638916940036  0.7210066183334308  0.5355271663395298
  0.7146352892627617  0.2837949592557204  0.4604387398371308
  0.2108601230103862  0.2157053821302578  0.5493284957299188
  0.0818302543656346  0.4860890167856212  0.2500471657382605
  0.5877707928856609  0.0178938763663567  0.7496555507800440
  0.7083309415426563  0.2864320604114403  0.0473980449347186
  0.7825232489329463  0.7856017322373793  0.4517500148932448
  0.9084108458032787  0.5212177094697955  0.7489072941667257
  0.4217445248433004  0.9841589257405824  0.2500379891153129
 
  0.00000000E+00  0.00000000E+00  0.00000000E+00
  0.00000000E+00  0.00000000E+00  0.00000000E+00
  0.00000000E+00  0.00000000E+00  0.00000000E+00
  0.00000000E+00  0.00000000E+00  0.00000000E+00
  0.00000000E+00  0.00000000E+00  0.00000000E+00
  0.00000000E+00  0.00000000E+00  0.00000000E+00
  0.00000000E+00  0.00000000E+00  0.00000000E+00
  0.00000000E+00  0.00000000E+00  0.00000000E+00
  0.00000000E+00  0.00000000E+00  0.00000000E+00
  0.00000000E+00  0.00000000E+00  0.00000000E+00
  0.00000000E+00  0.00000000E+00  0.00000000E+00
  0.00000000E+00  0.00000000E+00  0.00000000E+00
  0.00000000E+00  0.00000000E+00  0.00000000E+00
  0.00000000E+00  0.00000000E+00  0.00000000E+00
  0.00000000E+00  0.00000000E+00  0.00000000E+00
  0.00000000E+00  0.00000000E+00  0.00000000E+00
  0.00000000E+00  0.00000000E+00  0.00000000E+00
  0.00000000E+00  0.00000000E+00  0.00000000E+00
  0.00000000E+00  0.00000000E+00  0.00000000E+00
  0.00000000E+00  0.00000000E+00  0.00000000E+00
