Ni4 O4 F8                               
   1.00000000000000     
     5.5918815043673389   -0.0162862059938148   -0.0002066038530858
    -2.8127150037694322    4.6338773404536786    0.0000406789371300
     0.0004371435172828    0.0001784930973154    9.4698037290784249
   Ni   O    F 
     4     4     8
Direct
  0.3229926605981560  0.6523753822875095  0.6078964192446634
  0.6772400537279623  0.3477950750565232  0.3920719502323247
  0.6772278819912292  0.3477995284860874  0.1079237115719358
  0.3229901370483628  0.6523758500636542  0.8920992037128207
  0.0002400862974719  0.5003408263918341  0.0002232970651235
  0.0002844204560481  0.5003027675169738  0.4997542859223222
  0.8192220760272851  0.1930429135119469  0.2499943821015076
  0.1790823682789202  0.8051727086257073  0.7499984770283696
  0.5003821468412432  0.0004943631508808  0.9995970967354688
  0.5001929842215314  0.5002142519700592  0.9999882429221416
  0.5004001773808013  0.0005099087932466  0.5004128630095149
  0.5002738023163129  0.5002629061292554  0.5000316718529733
  0.8460041829830881  0.6558742608347242  0.2499968814143793
  0.1533936436229581  0.3439958508881112  0.7499995873301423
  0.3875114028812460  0.1839890908408394  0.2500106501743871
  0.6125619753273756  0.8154543154526395  0.7500012796819249
 
  0.00000000E+00  0.00000000E+00  0.00000000E+00
  0.00000000E+00  0.00000000E+00  0.00000000E+00
  0.00000000E+00  0.00000000E+00  0.00000000E+00
  0.00000000E+00  0.00000000E+00  0.00000000E+00
  0.00000000E+00  0.00000000E+00  0.00000000E+00
  0.00000000E+00  0.00000000E+00  0.00000000E+00
  0.00000000E+00  0.00000000E+00  0.00000000E+00
  0.00000000E+00  0.00000000E+00  0.00000000E+00
  0.00000000E+00  0.00000000E+00  0.00000000E+00
  0.00000000E+00  0.00000000E+00  0.00000000E+00
  0.00000000E+00  0.00000000E+00  0.00000000E+00
  0.00000000E+00  0.00000000E+00  0.00000000E+00
  0.00000000E+00  0.00000000E+00  0.00000000E+00
  0.00000000E+00  0.00000000E+00  0.00000000E+00
  0.00000000E+00  0.00000000E+00  0.00000000E+00
  0.00000000E+00  0.00000000E+00  0.00000000E+00
