V4 O4 F8                                
   1.00000000000000     
     5.4626014446875599    0.0101117131816190    0.1275926397692587
    -2.7225434875247201    4.7358264245677466    0.1275998254563931
     0.2240343757747844    0.3880532942907874    9.3419935941691250
   V    O    F 
     4     4     8
Direct
  0.3014897800152549  0.6219992159289400  0.6177921660218485
  0.7186134911841915  0.3549623207371378  0.3995916898461844
  0.6219999448139124  0.3014898633747096  0.1177919162593053
  0.3549633477584653  0.7186147550373171  0.8995920723197932
  0.4942573188108999  0.9979509381512907  0.9968204163952977
  0.9979486094308370  0.4942561104508560  0.4968202665065964
  0.1807796409621157  0.3784235106191887  0.7523898128723591
  0.3784241716416516  0.1807801580844954  0.2523898111502039
  0.9964830321800907  0.4919669890090491  0.0030692101899297
  0.4989188169797009  0.4966672604854809  0.9897537352878597
  0.4919651539653163  0.9964808833845584  0.5030696127376195
  0.4966661378443400  0.4989183233882073  0.4897544289827364
  0.8255266741204897  0.6318884345296777  0.2387556721069772
  0.6318884889542064  0.8255272340452785  0.7387564783277338
  0.8275788741650100  0.1824975165876088  0.2518260329813852
  0.1824965171735249  0.8275764861861971  0.7518266780141630
 
  0.00000000E+00  0.00000000E+00  0.00000000E+00
  0.00000000E+00  0.00000000E+00  0.00000000E+00
  0.00000000E+00  0.00000000E+00  0.00000000E+00
  0.00000000E+00  0.00000000E+00  0.00000000E+00
  0.00000000E+00  0.00000000E+00  0.00000000E+00
  0.00000000E+00  0.00000000E+00  0.00000000E+00
  0.00000000E+00  0.00000000E+00  0.00000000E+00
  0.00000000E+00  0.00000000E+00  0.00000000E+00
  0.00000000E+00  0.00000000E+00  0.00000000E+00
  0.00000000E+00  0.00000000E+00  0.00000000E+00
  0.00000000E+00  0.00000000E+00  0.00000000E+00
  0.00000000E+00  0.00000000E+00  0.00000000E+00
  0.00000000E+00  0.00000000E+00  0.00000000E+00
  0.00000000E+00  0.00000000E+00  0.00000000E+00
  0.00000000E+00  0.00000000E+00  0.00000000E+00
  0.00000000E+00  0.00000000E+00  0.00000000E+00
