Ti4 O4 F8                               
   1.00000000000000     
     5.2729600613165069    0.0498342466785835   -0.0004686135761287
     0.0538825949417354    5.4362753317384662    0.0003391206252925
     0.0005916254948514   -0.0002726799288809    7.4131056959382446
   Ti   O    F 
     4     4     8
Direct
  0.5001817736048171  0.0001525215420545  0.9847677850769558
  0.0170484835618247  0.4735024549428109  0.9988763062881546
  0.4998278194916402  0.9998474784408593  0.4847763248460752
  0.9829538562404271  0.5265189357056778  0.4988770474018935
  0.2081399803959431  0.2169988243168021  0.9609354272323409
  0.7919034044302519  0.7830224289699912  0.4609168913911726
  0.5722500345773646  0.0112247090905682  0.7520126485363406
  0.4277192231516074  0.9887635100860783  0.2520033847742765
  0.7161681389984432  0.2881597185728977  0.0499052542019512
  0.2819015144501400  0.7073614711390551  0.9561241776536626
  0.7902630876002432  0.7721143490713784  0.0441555191192168
  0.2838512719565288  0.7117927192355590  0.5498955339524894
  0.7180780095500831  0.2926670217858324  0.4561205244146171
  0.2097146751516428  0.2278598011948798  0.5441423960441478
  0.1012229650747729  0.4889668268477287  0.2532429478775734
  0.8987757617642700  0.5110472290578268  0.7532478311891390
 
  0.00000000E+00  0.00000000E+00  0.00000000E+00
  0.00000000E+00  0.00000000E+00  0.00000000E+00
  0.00000000E+00  0.00000000E+00  0.00000000E+00
  0.00000000E+00  0.00000000E+00  0.00000000E+00
  0.00000000E+00  0.00000000E+00  0.00000000E+00
  0.00000000E+00  0.00000000E+00  0.00000000E+00
  0.00000000E+00  0.00000000E+00  0.00000000E+00
  0.00000000E+00  0.00000000E+00  0.00000000E+00
  0.00000000E+00  0.00000000E+00  0.00000000E+00
  0.00000000E+00  0.00000000E+00  0.00000000E+00
  0.00000000E+00  0.00000000E+00  0.00000000E+00
  0.00000000E+00  0.00000000E+00  0.00000000E+00
  0.00000000E+00  0.00000000E+00  0.00000000E+00
  0.00000000E+00  0.00000000E+00  0.00000000E+00
  0.00000000E+00  0.00000000E+00  0.00000000E+00
  0.00000000E+00  0.00000000E+00  0.00000000E+00
