Na8 Mn8 O16 F8                          
   1.00000000000000     
     7.8272547273398283    0.0000000053631453    0.0000000128890481
     0.0000000074349005    7.4227701693238428   -0.0000000339348107
     0.0000000194104858   -0.0000000347812062    7.4146628594709156
   Na   Mn   O    F 
     8     8    16     8
Direct
  0.2500168684872667  0.2499995292158426  0.2499997695606159
  0.2500163372598653  0.2499995119717516  0.7500002147535423
  0.2500166422827994  0.7500004788327511  0.2499997675319267
  0.2500162962461317  0.7500005190381069  0.7500001922700783
  0.7500157325881863  0.2499995444016229  0.2499997387001509
  0.7500160516923053  0.2499995313086931  0.7500002293971132
  0.7500159688986826  0.7500004344329010  0.2499997789014558
  0.7500162737884294  0.7500004723291170  0.7500002376304546
 -0.0000283549133503 -0.0000003838465805  0.0000000759729921
 -0.0000284644000480  0.0000003210470096  0.4999999472125459
 -0.0000292750732385  0.5000003226151161  0.0000002921829351
 -0.0000277717925049  0.4999996895221214  0.4999997240432760
  0.4999716299005289 -0.0000016148485029 -0.0000010186930362
  0.4999718346393305  0.0000012869936794  0.5000009869776467
  0.4999724526132081  0.5000015965165173  0.0000012608736990
  0.4999713639856675  0.4999986974674255  0.4999987795052942
  0.0000030788971561  0.2500064433359507  0.9999999515226190
  0.0000030020487503  0.2499967963160611  0.5000000560149527
  0.0000030720425823  0.7499935461595049  0.9999999517069214
  0.0000030125805917  0.7500032045807218  0.5000000497392305
  0.5000030145054009  0.2499954492029657  0.0000000193512369
  0.5000030760650780  0.2500041025675844  0.4999999926833370
  0.5000030104622849  0.7500045670945923  0.0000000188766447
  0.5000030923379110  0.7499959123946798  0.4999999823558918
  0.9999940404579559  0.0000000254528184  0.2500033962003254
  0.9999940255710345  0.0000000268287633  0.7499965970360319
  0.9999940680923909  0.4999999739843553  0.2499941365540361
  0.9999940759460565  0.4999999840699765  0.7500058913816674
  0.4999940816554025  0.0000000207049035  0.2499972371865997
  0.4999940562411903  0.0000000284528771  0.7500027648945334
  0.4999940700453976  0.4999999781172971  0.2500053879031654
  0.4999940718721259  0.4999999789124929  0.7499945962083751
  0.2500234900493404  0.9999999123060390  0.9999998544117273
  0.2500096619850429  0.0000001098235665  0.5000001400805559
  0.2499934727391050  0.5000000834439646  0.0000001945806622
  0.2500273693697384  0.4999999056302679  0.4999998086793601
  0.7500063795224985  0.9999999084320059  0.9999998474511592
  0.7500202375210825  0.0000000982967973  0.5000001459024482
  0.7500364223982284  0.5000000915250903  0.0000001853494934
  0.7500025313904015  0.4999999153691516  0.4999998171083491
 
  0.00000000E+00  0.00000000E+00  0.00000000E+00
  0.00000000E+00  0.00000000E+00  0.00000000E+00
  0.00000000E+00  0.00000000E+00  0.00000000E+00
  0.00000000E+00  0.00000000E+00  0.00000000E+00
  0.00000000E+00  0.00000000E+00  0.00000000E+00
  0.00000000E+00  0.00000000E+00  0.00000000E+00
  0.00000000E+00  0.00000000E+00  0.00000000E+00
  0.00000000E+00  0.00000000E+00  0.00000000E+00
  0.00000000E+00  0.00000000E+00  0.00000000E+00
  0.00000000E+00  0.00000000E+00  0.00000000E+00
  0.00000000E+00  0.00000000E+00  0.00000000E+00
  0.00000000E+00  0.00000000E+00  0.00000000E+00
  0.00000000E+00  0.00000000E+00  0.00000000E+00
  0.00000000E+00  0.00000000E+00  0.00000000E+00
  0.00000000E+00  0.00000000E+00  0.00000000E+00
  0.00000000E+00  0.00000000E+00  0.00000000E+00
  0.00000000E+00  0.00000000E+00  0.00000000E+00
  0.00000000E+00  0.00000000E+00  0.00000000E+00
  0.00000000E+00  0.00000000E+00  0.00000000E+00
  0.00000000E+00  0.00000000E+00  0.00000000E+00
  0.00000000E+00  0.00000000E+00  0.00000000E+00
  0.00000000E+00  0.00000000E+00  0.00000000E+00
  0.00000000E+00  0.00000000E+00  0.00000000E+00
  0.00000000E+00  0.00000000E+00  0.00000000E+00
  0.00000000E+00  0.00000000E+00  0.00000000E+00
  0.00000000E+00  0.00000000E+00  0.00000000E+00
  0.00000000E+00  0.00000000E+00  0.00000000E+00
  0.00000000E+00  0.00000000E+00  0.00000000E+00
  0.00000000E+00  0.00000000E+00  0.00000000E+00
  0.00000000E+00  0.00000000E+00  0.00000000E+00
  0.00000000E+00  0.00000000E+00  0.00000000E+00
  0.00000000E+00  0.00000000E+00  0.00000000E+00
  0.00000000E+00  0.00000000E+00  0.00000000E+00
  0.00000000E+00  0.00000000E+00  0.00000000E+00
  0.00000000E+00  0.00000000E+00  0.00000000E+00
  0.00000000E+00  0.00000000E+00  0.00000000E+00
  0.00000000E+00  0.00000000E+00  0.00000000E+00
  0.00000000E+00  0.00000000E+00  0.00000000E+00
  0.00000000E+00  0.00000000E+00  0.00000000E+00
  0.00000000E+00  0.00000000E+00  0.00000000E+00
