Na4 Mn4 O8 F4                           
   1.00000000000000     
     5.2172757566075827    0.0000026769925649   -0.0000029830219731
     0.0000028764521574    5.3771394522414502    0.0040456290322526
    -0.0000042586926279   -0.0059061782369042    7.2017047662957561
   Na   Mn   O    F 
     4     4     8     4
Direct
  0.0009380683654456  0.0209353975482957  0.2499569464191965
  0.0060265067077031  0.9385439414941440  0.7498621633695928
  0.5009380205018754  0.4790642790640017  0.7500430641829331
  0.5060264887032403  0.5614557317915163  0.2501380480604215
  0.5019205646542042  0.0352533065541695  0.0010757552639573
  0.0019204282658327  0.4647468408355365  0.9989244895162318
  0.5017910267623542  0.0353455461716438  0.4989146971043907
  0.0017911560855250  0.4646536417800472  0.5010854408364095
  0.0754651398538724  0.4905891430385479  0.2500196857811193
  0.9340099021458791  0.5184556148500974  0.7499849584248814
  0.5754651794678167  0.0094108054136694  0.7499805803439220
  0.4340099238098921  0.9815439787961400  0.2500151824140404
  0.6981538600689209  0.3051086236360973  0.0433648387011322
  0.1981538499387115  0.1948913669434960  0.9566355084351105
  0.6975920594948173  0.3055475258177834  0.4568949008042099
  0.1975920281726882  0.1944517753082373  0.5431052340746996
  0.2920396171414899  0.7038583720396020  0.9649798278127472
  0.7920400712394082  0.7961408986878671  0.0350202567561923
  0.2920618116478317  0.7035496702451854  0.5349830357741632
  0.7920642969724989  0.7964535399839151  0.4650153859246562
 
  0.00000000E+00  0.00000000E+00  0.00000000E+00
  0.00000000E+00  0.00000000E+00  0.00000000E+00
  0.00000000E+00  0.00000000E+00  0.00000000E+00
  0.00000000E+00  0.00000000E+00  0.00000000E+00
  0.00000000E+00  0.00000000E+00  0.00000000E+00
  0.00000000E+00  0.00000000E+00  0.00000000E+00
  0.00000000E+00  0.00000000E+00  0.00000000E+00
  0.00000000E+00  0.00000000E+00  0.00000000E+00
  0.00000000E+00  0.00000000E+00  0.00000000E+00
  0.00000000E+00  0.00000000E+00  0.00000000E+00
  0.00000000E+00  0.00000000E+00  0.00000000E+00
  0.00000000E+00  0.00000000E+00  0.00000000E+00
  0.00000000E+00  0.00000000E+00  0.00000000E+00
  0.00000000E+00  0.00000000E+00  0.00000000E+00
  0.00000000E+00  0.00000000E+00  0.00000000E+00
  0.00000000E+00  0.00000000E+00  0.00000000E+00
  0.00000000E+00  0.00000000E+00  0.00000000E+00
  0.00000000E+00  0.00000000E+00  0.00000000E+00
  0.00000000E+00  0.00000000E+00  0.00000000E+00
  0.00000000E+00  0.00000000E+00  0.00000000E+00
