Sodium chromate                         
   1.00000000000000     
     8.9323241105362587    0.0000000222940638   -0.0000256304722756
     0.0000000057236695    2.9142936804689801    0.0000000022566667
    -0.0000327117960321    0.0000000040201278   10.3980020761814274
   Na   Cr   O 
     4     8    16
Direct
  0.2419289358298045  0.2500000137893466  0.3466868093796620
  0.7580604977934087  0.7499999869704013  0.6533177192101789
  0.2580596047174879  0.7499999922239269  0.8466830949346758
  0.7419295678034601  0.2500000166037992  0.1533119452838037
  0.0823417036754890  0.2500000030057734  0.6040879185190846
  0.9176285391285219  0.7500000052870348  0.3959132159705021
  0.4176277326054390  0.7500000094340251  0.1040910349699686
  0.5823430481320173  0.2499999995240714  0.8959082137551633
  0.0621187499742888  0.2500000022397728  0.1135703427473445
  0.9378946058897171  0.7500000033932253  0.8864311581166220
  0.4378952256577122  0.7499999792271552  0.6135671156358242
  0.5621285340013884  0.2500000110354819  0.3864310520896055
  0.2956368857017964  0.2500000016178845  0.6492060466061176
  0.7044147844970183  0.7499999981069863  0.3507758428150680
  0.2044103700785556  0.7500000001056435  0.1492268397891507
  0.7956398941144087  0.2500000075391142  0.8507934101427921
  0.3874325664990081  0.2499999927836996  0.9811024904859025
  0.6125334626665619  0.7499999944338924  0.0188958805310477
  0.1125364899611085  0.7500000074620559  0.4811020766596954
  0.8874291276903037  0.2499999870852179  0.5188987048506206
  0.4754193749848454  0.2499999891134905  0.2156727805161367
  0.5245927952577532  0.7500000113325314  0.7843309007264736
  0.0245927243938695  0.7499999815864484  0.7156703374887101
  0.9754193233476229  0.2500000063915451  0.2843257968631434
  0.0761315231234079  0.2500000187658102  0.9283623277984887
  0.9238606377711207  0.7499999843188832  0.0716582748790486
  0.4238613354525569  0.7499999843187197  0.4283406679270243
  0.5761319592513345  0.2500000123040635  0.5716380163081425
 
  0.00000000E+00  0.00000000E+00  0.00000000E+00
  0.00000000E+00  0.00000000E+00  0.00000000E+00
  0.00000000E+00  0.00000000E+00  0.00000000E+00
  0.00000000E+00  0.00000000E+00  0.00000000E+00
  0.00000000E+00  0.00000000E+00  0.00000000E+00
  0.00000000E+00  0.00000000E+00  0.00000000E+00
  0.00000000E+00  0.00000000E+00  0.00000000E+00
  0.00000000E+00  0.00000000E+00  0.00000000E+00
  0.00000000E+00  0.00000000E+00  0.00000000E+00
  0.00000000E+00  0.00000000E+00  0.00000000E+00
  0.00000000E+00  0.00000000E+00  0.00000000E+00
  0.00000000E+00  0.00000000E+00  0.00000000E+00
  0.00000000E+00  0.00000000E+00  0.00000000E+00
  0.00000000E+00  0.00000000E+00  0.00000000E+00
  0.00000000E+00  0.00000000E+00  0.00000000E+00
  0.00000000E+00  0.00000000E+00  0.00000000E+00
  0.00000000E+00  0.00000000E+00  0.00000000E+00
  0.00000000E+00  0.00000000E+00  0.00000000E+00
  0.00000000E+00  0.00000000E+00  0.00000000E+00
  0.00000000E+00  0.00000000E+00  0.00000000E+00
  0.00000000E+00  0.00000000E+00  0.00000000E+00
  0.00000000E+00  0.00000000E+00  0.00000000E+00
  0.00000000E+00  0.00000000E+00  0.00000000E+00
  0.00000000E+00  0.00000000E+00  0.00000000E+00
  0.00000000E+00  0.00000000E+00  0.00000000E+00
  0.00000000E+00  0.00000000E+00  0.00000000E+00
  0.00000000E+00  0.00000000E+00  0.00000000E+00
  0.00000000E+00  0.00000000E+00  0.00000000E+00
