Na4 Cr4 O8 F4                           
   1.00000000000000     
     5.1875489298757644    0.1703052128680138    0.0018457777235302
     0.1741937259024013    5.2531181448046738    0.0042373654455576
    -0.0025370391113761   -0.0068447254890952    7.6015270606708105
   Na   Cr   O    F 
     4     4     8     4
Direct
  0.9807389447869665  0.0308436632225603  0.2547068502736081
  0.0195851298589334  0.9691927440722038  0.7546107970673834
  0.4859271972593275  0.4610176369510921  0.7521713949298564
  0.5140518687397188  0.5389781213798839  0.2520734910732469
  0.4833808065202601  0.9818095919213684  0.9953979598193046
  0.0217742144137215  0.5168490427048982  0.0211173290671244
  0.5165081408065497  0.0182621312992103  0.4954208946037242
  0.9779322463222048  0.4833231078130381  0.5210853728382442
  0.0785712622309940  0.4923965781854901  0.2445044886065411
  0.9213783935869964  0.5074895568267965  0.7444847232699612
  0.2941700835525839  0.7238211996528459  0.9565696823088495
  0.2320370164344326  0.2309860660715201  0.9557619310834092
  0.7873726413879079  0.7966604315572953  0.0314178111862800
  0.7055823607886479  0.2764078850067589  0.4565714156455562
  0.7681967095429175  0.7691221311989992  0.4558307598430488
  0.2124300070512924  0.2030968074648004  0.5313164086433245
  0.5871573297161282  0.0131826304092594  0.7453172347836109
  0.4129571016783377  0.9867731651975334  0.2453138218745830
  0.7180142772474667  0.2913495586938038  0.0431644291744796
  0.2822342680746066  0.7084379503706562  0.5431632039078637
 
  0.00000000E+00  0.00000000E+00  0.00000000E+00
  0.00000000E+00  0.00000000E+00  0.00000000E+00
  0.00000000E+00  0.00000000E+00  0.00000000E+00
  0.00000000E+00  0.00000000E+00  0.00000000E+00
  0.00000000E+00  0.00000000E+00  0.00000000E+00
  0.00000000E+00  0.00000000E+00  0.00000000E+00
  0.00000000E+00  0.00000000E+00  0.00000000E+00
  0.00000000E+00  0.00000000E+00  0.00000000E+00
  0.00000000E+00  0.00000000E+00  0.00000000E+00
  0.00000000E+00  0.00000000E+00  0.00000000E+00
  0.00000000E+00  0.00000000E+00  0.00000000E+00
  0.00000000E+00  0.00000000E+00  0.00000000E+00
  0.00000000E+00  0.00000000E+00  0.00000000E+00
  0.00000000E+00  0.00000000E+00  0.00000000E+00
  0.00000000E+00  0.00000000E+00  0.00000000E+00
  0.00000000E+00  0.00000000E+00  0.00000000E+00
  0.00000000E+00  0.00000000E+00  0.00000000E+00
  0.00000000E+00  0.00000000E+00  0.00000000E+00
  0.00000000E+00  0.00000000E+00  0.00000000E+00
  0.00000000E+00  0.00000000E+00  0.00000000E+00
