Na4 Co4 O8 F4                           
   1.00000000000000     
     5.3644696205605937    0.0497266637327588    0.0691661922958663
    -2.6441738836530795    4.6362642439427209   -0.0615219985506110
     0.1707253486553850   -0.0410552524109675    9.0968907246766957
   Na   Co   O    F 
     4     4     8     4
Direct
  0.9902324979884147  0.0000632228054326  0.0587506820124978
  0.9605693475613694  0.0034229982950073  0.4453234585867071
  0.3089116091418477  0.6646092793414635  0.2563290666680458
  0.7154760352751696  0.3153607180706565  0.7712420044750283
  0.3088204816656074  0.6606867071569414  0.6011734174823128
  0.6274258155384854  0.3059739218125819  0.4259514774040699
  0.6850257385871127  0.3489928381750270  0.1107467440140702
  0.4123908747126029  0.6866238606383733  0.8905108866892351
  0.5558272654931677 -0.0011379222590654  0.9884216368294252
  0.6296027487911054  0.5468331178134668  0.9709165605683897
  0.3537221079617133  0.9565508780822097  0.4941046183507010
  0.9242556965832891  0.4409704173526585  0.5383376055624992
  0.4290158918495364  0.4990284950484269  0.4627536365406672
  0.2453758395370192  0.3995475336232226  0.7524494975900055
  0.7463981522455366  0.1644008527448289  0.2691479142974912
  0.1701352258726432  0.7539226267738824  0.7728992911413337
  0.0856399183451269  0.4693778405874774  0.0376594276230320
  0.8575673922815336  0.6813623829290953  0.2532627205456667
  0.3200804141987490  0.2292073938712675  0.2160683492262629
  0.6735269463699486  0.8742028371370593  0.6839510043925441
 
  0.00000000E+00  0.00000000E+00  0.00000000E+00
  0.00000000E+00  0.00000000E+00  0.00000000E+00
  0.00000000E+00  0.00000000E+00  0.00000000E+00
  0.00000000E+00  0.00000000E+00  0.00000000E+00
  0.00000000E+00  0.00000000E+00  0.00000000E+00
  0.00000000E+00  0.00000000E+00  0.00000000E+00
  0.00000000E+00  0.00000000E+00  0.00000000E+00
  0.00000000E+00  0.00000000E+00  0.00000000E+00
  0.00000000E+00  0.00000000E+00  0.00000000E+00
  0.00000000E+00  0.00000000E+00  0.00000000E+00
  0.00000000E+00  0.00000000E+00  0.00000000E+00
  0.00000000E+00  0.00000000E+00  0.00000000E+00
  0.00000000E+00  0.00000000E+00  0.00000000E+00
  0.00000000E+00  0.00000000E+00  0.00000000E+00
  0.00000000E+00  0.00000000E+00  0.00000000E+00
  0.00000000E+00  0.00000000E+00  0.00000000E+00
  0.00000000E+00  0.00000000E+00  0.00000000E+00
  0.00000000E+00  0.00000000E+00  0.00000000E+00
  0.00000000E+00  0.00000000E+00  0.00000000E+00
  0.00000000E+00  0.00000000E+00  0.00000000E+00
