Na4 V4 O8 F4                            
   1.00000000000000     
     5.2780703089528567   -0.1497312329823365   -0.0149233146649788
    -0.1511684054411441    5.3242353326374161    0.0152998084158250
    -0.0178756807671608    0.0163454272594391    7.6536628393332125
   Na   V    O    F 
     4     4     8     4
Direct
  0.9923572292368803  0.0270649728870609  0.2489504285177802
  0.0202752798360635  0.9555902836066750  0.7502610244012828
  0.4889008097862444  0.4754902738671092  0.7548508680283774
  0.5124894360928280  0.5271830001268398  0.2510932320162667
  0.5349322671116852  0.9822091334143508  0.9787615664718174
  0.9959757205922912  0.5106074134747018  0.0182654342548290
  0.4917073057142929  0.0105653568277333  0.5086458320467528
  0.0252868150226178  0.4732390429831739  0.4883563294211015
  0.6961436697793602  0.2812436860144558  0.0329211116847219
  0.2800270246500034  0.7345205603824638  0.9658822611257278
  0.7745298332255857  0.7916192829265256  0.0406619244846311
  0.2871966365485648  0.7261227294896528  0.5306048109529939
  0.7153252150778968  0.2721511503504530  0.4650780420223697
  0.2133020314946990  0.2230960426849293  0.5453452040099265
  0.0672874287911966  0.4860138736777344  0.2527653181078406
  0.5778587752760416  0.0087526796602617  0.7544250902226537
  0.2051001687490270  0.2171666480505721  0.9561256702346270
  0.7872881991553342  0.7805997824708655  0.4607962133425190
  0.9192777396471143  0.5246632359605954  0.7484590130560917
  0.4147384142122732  0.9921008511438458  0.2477506255977033
 
  0.00000000E+00  0.00000000E+00  0.00000000E+00
  0.00000000E+00  0.00000000E+00  0.00000000E+00
  0.00000000E+00  0.00000000E+00  0.00000000E+00
  0.00000000E+00  0.00000000E+00  0.00000000E+00
  0.00000000E+00  0.00000000E+00  0.00000000E+00
  0.00000000E+00  0.00000000E+00  0.00000000E+00
  0.00000000E+00  0.00000000E+00  0.00000000E+00
  0.00000000E+00  0.00000000E+00  0.00000000E+00
  0.00000000E+00  0.00000000E+00  0.00000000E+00
  0.00000000E+00  0.00000000E+00  0.00000000E+00
  0.00000000E+00  0.00000000E+00  0.00000000E+00
  0.00000000E+00  0.00000000E+00  0.00000000E+00
  0.00000000E+00  0.00000000E+00  0.00000000E+00
  0.00000000E+00  0.00000000E+00  0.00000000E+00
  0.00000000E+00  0.00000000E+00  0.00000000E+00
  0.00000000E+00  0.00000000E+00  0.00000000E+00
  0.00000000E+00  0.00000000E+00  0.00000000E+00
  0.00000000E+00  0.00000000E+00  0.00000000E+00
  0.00000000E+00  0.00000000E+00  0.00000000E+00
  0.00000000E+00  0.00000000E+00  0.00000000E+00
