Na4 Ti4 O8 F4                           
   1.00000000000000     
     5.4674919529767330   -0.0000000055648476    0.0000343767873688
    -0.0000000128705265    5.4875000906862779    0.0000000484058970
     0.0000206561842320    0.0000000610540712    7.4657945400224026
   Na   Ti   O    F 
     4     4     8     4
Direct
  0.0048693360288692  0.0364314227692279  0.2484128538604724
  0.9951292251981653  0.9635702410648351  0.7484097056611501
  0.5048688955294806  0.4635684333979372  0.7484130056259073
  0.4951288228267570  0.5364296966380263  0.2484095636104297
  0.4688137682237195  0.9915797108780837  0.9959698851970376
  0.0311482181861461  0.4915859265865793  0.9959907370300899
  0.5311478583559338  0.0084141136642680  0.4959911939843927
  0.9688137258909560  0.5084203384430439  0.4959703257194014
  0.3034577689528874  0.6955465294204984  0.9650707495014350
  0.1966306762914245  0.1954812850233753  0.9650587531652018
  0.6966306278916826  0.3045190805150769  0.4650586966946119
  0.8034578915464172  0.8044533825370893  0.4650706662176287
  0.0656872793478792  0.4813692577388643  0.2517920703406205
  0.9342838989322449  0.5186333648038048  0.7517383135475435
  0.5656873156358222  0.0186307146583105  0.7517918251794469
  0.4342837963986614  0.9813665955338858  0.2517385271652152
  0.7002831638767278  0.2975559648380942  0.0387772621188584
  0.7996974620918618  0.7975659372417735  0.0387793260453562
  0.2996973574380049  0.7024340524100198  0.5387793154232738
  0.2002829113563516  0.2024439518372199  0.5387772239119274
 
  0.00000000E+00  0.00000000E+00  0.00000000E+00
  0.00000000E+00  0.00000000E+00  0.00000000E+00
  0.00000000E+00  0.00000000E+00  0.00000000E+00
  0.00000000E+00  0.00000000E+00  0.00000000E+00
  0.00000000E+00  0.00000000E+00  0.00000000E+00
  0.00000000E+00  0.00000000E+00  0.00000000E+00
  0.00000000E+00  0.00000000E+00  0.00000000E+00
  0.00000000E+00  0.00000000E+00  0.00000000E+00
  0.00000000E+00  0.00000000E+00  0.00000000E+00
  0.00000000E+00  0.00000000E+00  0.00000000E+00
  0.00000000E+00  0.00000000E+00  0.00000000E+00
  0.00000000E+00  0.00000000E+00  0.00000000E+00
  0.00000000E+00  0.00000000E+00  0.00000000E+00
  0.00000000E+00  0.00000000E+00  0.00000000E+00
  0.00000000E+00  0.00000000E+00  0.00000000E+00
  0.00000000E+00  0.00000000E+00  0.00000000E+00
  0.00000000E+00  0.00000000E+00  0.00000000E+00
  0.00000000E+00  0.00000000E+00  0.00000000E+00
  0.00000000E+00  0.00000000E+00  0.00000000E+00
  0.00000000E+00  0.00000000E+00  0.00000000E+00
