Vanadium(IV) fluoride                   
   1.00000000000000     
     5.3009872886494716    0.0000010976046183   -0.0315869672588142
     0.0000010977202243    5.1573539995334983    0.0000006454574162
     2.6298144155268437    0.0000011224319975    4.5715131100781603
   V    F 
     2     8
Direct
  0.0000718871317176  0.0000204172375646  0.9999437643722331
  0.5000719858751026  0.4999795360988557  0.4999438212387588
  0.6649652476128551  0.4090558404710265  0.7018373392186703
  0.3349268567641914  0.5909477347474308  0.2982446535910270
  0.8349266660562620  0.9090524214248674  0.7982446947685702
  0.1649651720101986  0.0909440484640669  0.2018369554704762
  0.1595437936419586  0.3047088056035534  0.7612272783838492
  0.8404923060008116  0.6953000413069503  0.2387471109351083
  0.3404922705344333  0.8046999119504221  0.7387469532744149
  0.6595437993724573  0.1952912426952622  0.2612274287468779
 
  0.00000000E+00  0.00000000E+00  0.00000000E+00
  0.00000000E+00  0.00000000E+00  0.00000000E+00
  0.00000000E+00  0.00000000E+00  0.00000000E+00
  0.00000000E+00  0.00000000E+00  0.00000000E+00
  0.00000000E+00  0.00000000E+00  0.00000000E+00
  0.00000000E+00  0.00000000E+00  0.00000000E+00
  0.00000000E+00  0.00000000E+00  0.00000000E+00
  0.00000000E+00  0.00000000E+00  0.00000000E+00
  0.00000000E+00  0.00000000E+00  0.00000000E+00
  0.00000000E+00  0.00000000E+00  0.00000000E+00
