Cr4 O4 F8                               
   1.00000000000000     
     4.8319253299120888    0.0013957713536797   -0.0045618683316094
     0.0023313631854533    5.0701795837601820    0.0048374715888329
     0.0067039312641821   -0.0061691887966157    7.2131789378205866
   Cr   O    F 
     4     4     8
Direct
  0.5042058714263318  0.9762116459683240  0.9994219668570254
  0.0079259791116256  0.5293826579493888  0.9967930633497245
  0.4958214185771140  0.0239354311064618  0.4994874227606239
  0.9921785713234292  0.4707440554657948  0.4967936865733184
  0.3134193497408108  0.6837488304903175  0.9403788954609524
  0.8126820240133118  0.7982037394715924  0.0638757432122269
  0.6864657006017288  0.3162057195741598  0.4403855602813660
  0.1873903690693694  0.2017859619411814  0.5638434315641216
  0.1259369400998357  0.4693546625131438  0.2500697654300020
  0.8739942815865159  0.5305879776556665  0.7500704683587609
  0.6242813487820155  0.0262508340984298  0.7497723713960106
  0.3758497356846426  0.9734813071498624  0.2498099703732809
  0.6919888727387439  0.3010931776584526  0.0536134332082680
  0.1836650860205077  0.1892744211241981  0.9460318336821228
  0.3079285441741320  0.6989858737732911  0.5536413964935075
  0.8162659070498782  0.8107537040597352  0.4460109909986885
 
  0.00000000E+00  0.00000000E+00  0.00000000E+00
  0.00000000E+00  0.00000000E+00  0.00000000E+00
  0.00000000E+00  0.00000000E+00  0.00000000E+00
  0.00000000E+00  0.00000000E+00  0.00000000E+00
  0.00000000E+00  0.00000000E+00  0.00000000E+00
  0.00000000E+00  0.00000000E+00  0.00000000E+00
  0.00000000E+00  0.00000000E+00  0.00000000E+00
  0.00000000E+00  0.00000000E+00  0.00000000E+00
  0.00000000E+00  0.00000000E+00  0.00000000E+00
  0.00000000E+00  0.00000000E+00  0.00000000E+00
  0.00000000E+00  0.00000000E+00  0.00000000E+00
  0.00000000E+00  0.00000000E+00  0.00000000E+00
  0.00000000E+00  0.00000000E+00  0.00000000E+00
  0.00000000E+00  0.00000000E+00  0.00000000E+00
  0.00000000E+00  0.00000000E+00  0.00000000E+00
  0.00000000E+00  0.00000000E+00  0.00000000E+00
