Na4 Cr4 O8 F4                           
   1.00000000000000     
     5.5109515434005383   -0.5340551145742045    0.1996101889765557
    -2.8969444704929885    5.3685683663437880   -0.0506204220437800
    -0.3385649572404982   -0.0975933229347065    8.9963684773800967
   Na   Cr   O    F 
     4     4     8     4
Direct
  0.9774867570278418  0.9103762821422900  0.1176730705901943
  0.0224535233633010  0.0898386585316585  0.6178950189724149
  0.3323150215938174  0.5916601019417566  0.2453557651995476
  0.6671677929306328  0.4054497926170402  0.7442344974651137
  0.2878718114432953  0.6801481303510035  0.5761864488065680
  0.6431192788404473  0.2060605022604390  0.3718031825060668
  0.7123605973034646  0.3204307547615248  0.0760266774280254
  0.3569179680734305  0.7937400755248175  0.8722980627810841
  0.4047088937113751  0.0991692370790415  0.9835099663892140
  0.9800703702750204  0.5616027102886003  0.9694253899280704
  0.5954476638399905  0.9014322359725603  0.4835979531009044
  0.0188735317271420  0.4390064334148667  0.4701174731046832
  0.6484611902087605  0.4523000077192530  0.2302444599369845
  0.3518981515937184  0.5481263322972109  0.7302401730096604
  0.8333778784035597  0.1754571345940351  0.1943776819064504
  0.1680896540638383  0.8261160545288615  0.6946316553239261
  0.5336457121740263  0.7077192611707552  0.0200870457782057
  0.4644582653640276  0.2916696397375542  0.5189528577518704
  0.2725956090395638  0.9374688652673795  0.2911125105743178
  0.7286803290227473  0.0622277897993657  0.7922301094466967
 
  0.00000000E+00  0.00000000E+00  0.00000000E+00
  0.00000000E+00  0.00000000E+00  0.00000000E+00
  0.00000000E+00  0.00000000E+00  0.00000000E+00
  0.00000000E+00  0.00000000E+00  0.00000000E+00
  0.00000000E+00  0.00000000E+00  0.00000000E+00
  0.00000000E+00  0.00000000E+00  0.00000000E+00
  0.00000000E+00  0.00000000E+00  0.00000000E+00
  0.00000000E+00  0.00000000E+00  0.00000000E+00
  0.00000000E+00  0.00000000E+00  0.00000000E+00
  0.00000000E+00  0.00000000E+00  0.00000000E+00
  0.00000000E+00  0.00000000E+00  0.00000000E+00
  0.00000000E+00  0.00000000E+00  0.00000000E+00
  0.00000000E+00  0.00000000E+00  0.00000000E+00
  0.00000000E+00  0.00000000E+00  0.00000000E+00
  0.00000000E+00  0.00000000E+00  0.00000000E+00
  0.00000000E+00  0.00000000E+00  0.00000000E+00
  0.00000000E+00  0.00000000E+00  0.00000000E+00
  0.00000000E+00  0.00000000E+00  0.00000000E+00
  0.00000000E+00  0.00000000E+00  0.00000000E+00
  0.00000000E+00  0.00000000E+00  0.00000000E+00
