Fe2 O2 F4                               
   1.00000000000000     
     3.7704684234902874    0.0000000235228403    0.0000661692516785
     0.0000000316330804    3.7708733347931691    0.0000004694424486
     0.0000666678066919   -0.0000001604910795    7.7231928387712987
   Fe   O    F 
     2     2     4
Direct
  0.5000047609530014  0.4999999447853479  0.2557299343671578
  0.5000327970538470  0.5000002602864176  0.7559669455529624
  0.5003151858119391  0.9999998968041627  0.2550878024846691
  0.9998014143398389  0.4999998736422141  0.2550876470743076
  0.4999014964667451  0.4999998932650588  0.0030143418473620
  0.4999063908477241  0.4999999480602741  0.5080244680408982
  0.5000143226117891  0.0000002082178199  0.7550477326267596
  0.0000236319151153  0.4999999749387046  0.7550411280058751
 
  0.00000000E+00  0.00000000E+00  0.00000000E+00
  0.00000000E+00  0.00000000E+00  0.00000000E+00
  0.00000000E+00  0.00000000E+00  0.00000000E+00
  0.00000000E+00  0.00000000E+00  0.00000000E+00
  0.00000000E+00  0.00000000E+00  0.00000000E+00
  0.00000000E+00  0.00000000E+00  0.00000000E+00
  0.00000000E+00  0.00000000E+00  0.00000000E+00
  0.00000000E+00  0.00000000E+00  0.00000000E+00
