Na2 V2 O4 F2                            
   1.00000000000000     
     3.7154759518610980    0.0000000572005838   -0.0001285974901509
     0.0000000568885823    3.7151681633632947    0.0000000408559542
    -0.0002845633382725    0.0000001250028622    8.0351388637744332
   Na   V    O    F 
     2     2     4     2
Direct
  0.0000081506865499  0.0000000172713979  0.0022464370152123
  0.0000085225226081  0.9999999917790900  0.5022835562225932
  0.5001206464538783  0.4999999849180484  0.2543495507371992
  0.5001194833393394  0.5000000257666398  0.7543470448815093
  0.4999267755761299  0.9999999943080583  0.2549744525060589
  0.4999265741904657  0.0000000062546602  0.7549759049784539
  0.9999550630101641  0.4999999966049087  0.2549771053320892
  0.9999547429933971  0.5000000026953556  0.7549748573765558
  0.4999900598617321  0.4999999946937063  0.0049402292292014
  0.4999899813657350  0.4999999857081421  0.5049308617211188
 
  0.00000000E+00  0.00000000E+00  0.00000000E+00
  0.00000000E+00  0.00000000E+00  0.00000000E+00
  0.00000000E+00  0.00000000E+00  0.00000000E+00
  0.00000000E+00  0.00000000E+00  0.00000000E+00
  0.00000000E+00  0.00000000E+00  0.00000000E+00
  0.00000000E+00  0.00000000E+00  0.00000000E+00
  0.00000000E+00  0.00000000E+00  0.00000000E+00
  0.00000000E+00  0.00000000E+00  0.00000000E+00
  0.00000000E+00  0.00000000E+00  0.00000000E+00
  0.00000000E+00  0.00000000E+00  0.00000000E+00
