Disodium tetrafluorochromate(II)        
   1.00000000000000     
     3.3363924880844245   -0.0000005337449585    0.0024827810146887
    -0.0000014745110850    9.2814024497368415    0.0000010014468360
    -0.2785785060235633    0.0000007748517075    5.6067485201937579
   Na   Cr   F 
     4     2     8
Direct
  0.5109121079378269  0.1812888603506622  0.4244873596137211
  0.4890859986463454  0.8187366423313023  0.5755055447298290
  0.4890859083640464  0.6812633337475802  0.0755055596465013
  0.5109121255881206  0.3187112415123963  0.9244872920529161
  0.9999550540383737  0.9999908397227912  0.0000737096922308
  0.9999549050982353  0.5000091615198272  0.5000735194439514
  0.5670197595647437  0.4515001098816001  0.2588274533763837
  0.4330284637263730  0.5485395785194953  0.7411488084381901
  0.4330281636479967  0.9514603604661787  0.2411488911673985
  0.5670198448093302  0.0484999244432984  0.7588275154567299
  0.0040247760964434  0.1959122399118698  0.1364473230616454
  0.9959739998348027  0.8040116604505059  0.8635099066734284
  0.9959742126863418  0.6959882574206162  0.3635098588591603
  0.0040246819610203  0.3040877747218929  0.6364472577879070
 
  0.00000000E+00  0.00000000E+00  0.00000000E+00
  0.00000000E+00  0.00000000E+00  0.00000000E+00
  0.00000000E+00  0.00000000E+00  0.00000000E+00
  0.00000000E+00  0.00000000E+00  0.00000000E+00
  0.00000000E+00  0.00000000E+00  0.00000000E+00
  0.00000000E+00  0.00000000E+00  0.00000000E+00
  0.00000000E+00  0.00000000E+00  0.00000000E+00
  0.00000000E+00  0.00000000E+00  0.00000000E+00
  0.00000000E+00  0.00000000E+00  0.00000000E+00
  0.00000000E+00  0.00000000E+00  0.00000000E+00
  0.00000000E+00  0.00000000E+00  0.00000000E+00
  0.00000000E+00  0.00000000E+00  0.00000000E+00
  0.00000000E+00  0.00000000E+00  0.00000000E+00
  0.00000000E+00  0.00000000E+00  0.00000000E+00
