Na2 Ti2 O4 F2                           
   1.00000000000000     
     3.7999455213462632    0.0000000272934351    0.0000253905696555
     0.0000000296567181    3.9064016236484740   -0.0000000391949739
    -0.0000655844891867   -0.0000000832794990    7.9170905320747975
   Na   Ti   O    F 
     2     2     4     2
Direct
  0.0000249989625234  0.9999999709171133  0.0417282942800453
  0.0000025097181704  0.0000000010904627  0.4545311659659728
  0.5000118670224374  0.4999999622939381  0.2629703745860071
  0.5000122411068580  0.5000000133992846  0.7393800617637050
  0.4999968377864314  0.5000000395831851  0.5104524750511696
  0.4999969283372388 -0.0000000050355552  0.2524609977907730
  0.9999826069942133  0.5000000050551102  0.2450260074879976
  0.9999928511508562  0.4999999920294605  0.7649062974605058
  0.4999765283947555  0.5000000068123157  0.0007485352233455
  0.5000026305265012  0.0000000138546849  0.7707957903904776
 
  0.00000000E+00  0.00000000E+00  0.00000000E+00
  0.00000000E+00  0.00000000E+00  0.00000000E+00
  0.00000000E+00  0.00000000E+00  0.00000000E+00
  0.00000000E+00  0.00000000E+00  0.00000000E+00
  0.00000000E+00  0.00000000E+00  0.00000000E+00
  0.00000000E+00  0.00000000E+00  0.00000000E+00
  0.00000000E+00  0.00000000E+00  0.00000000E+00
  0.00000000E+00  0.00000000E+00  0.00000000E+00
  0.00000000E+00  0.00000000E+00  0.00000000E+00
  0.00000000E+00  0.00000000E+00  0.00000000E+00
