Na2 Ti2 O4 F2                           
   1.00000000000000     
    -2.7286231491685564   -4.6465289937788867    0.0389282847347274
    -5.4584428375311269    0.0014495488063147    0.0006461014182842
    -2.7281240384928513   -1.5061319487799223   -4.4457473499504170
   Na   Ti   O    F 
     2     2     4     2
Direct
  0.2552742429105975  0.2727947864879700  0.2379235161393730
  0.7520277793012199  0.7413622999170272  0.7374448221412867
  0.9749758413502424  0.0092435811113574  0.0181359970688209
  0.5358991966510080  0.5099012847285712  0.4559663577520829
  0.2579799274194582  0.7109354518077421  0.2324594223491502
  0.6771633058696843  0.8297689797325141  0.2787749512358993
  0.7525199847575543  0.2859453959411991  0.7381383333244788
  0.8343261877568892  0.2926536717886398  0.1956231452849410
  0.3278424783055265  0.1780175277080445  0.6960746214451672
  0.1779910556778192  0.7153770207769413  0.7714588332587944
 
  0.00000000E+00  0.00000000E+00  0.00000000E+00
  0.00000000E+00  0.00000000E+00  0.00000000E+00
  0.00000000E+00  0.00000000E+00  0.00000000E+00
  0.00000000E+00  0.00000000E+00  0.00000000E+00
  0.00000000E+00  0.00000000E+00  0.00000000E+00
  0.00000000E+00  0.00000000E+00  0.00000000E+00
  0.00000000E+00  0.00000000E+00  0.00000000E+00
  0.00000000E+00  0.00000000E+00  0.00000000E+00
  0.00000000E+00  0.00000000E+00  0.00000000E+00
  0.00000000E+00  0.00000000E+00  0.00000000E+00
