Na8 Ni8 O16 F8                          
   1.00000000000000     
     8.0767185721794110   -0.1234137561181339    0.0240365428952879
     0.0300179097913005    7.0210354768703747   -0.1162110822189264
     0.0056989317655352   -0.0306594242265485    7.2760607858986779
   Na   Ni   O    F 
     8     8    16     8
Direct
  0.2467733394322722  0.2561267087634003  0.2208892815410598
  0.2579934152827525  0.2672177497130129  0.7312633618118417
  0.2623305324856612  0.7404436843778228  0.2585652679845334
  0.2590717267789496  0.7506289348329941  0.7781974017757042
  0.7254695408765914  0.2505569664666153  0.2328384601582592
  0.7467522860914585  0.2287379381484861  0.7504444082372672
  0.7379895704582965  0.7574486780498214  0.2705040376790890
  0.7700169903833927  0.7417238161831098  0.7789282949815620
 -0.0005491732854015 -0.0002517050721531  0.0084514181092184
  0.0014035526007331  0.0019404409359602  0.4990304373240518
  0.9894185291414395  0.4893170526392038  0.0092834120132895
 -0.0077205660955389  0.5021417576513139  0.4849876026634618
  0.5003236234042282 -0.0088449388862976  0.0063343537059716
  0.5030163955076055  0.0153531193032101  0.5112607227608409
  0.5219529764404737  0.4846478376213013  0.9859981948688354
  0.5080235626247156  0.5135462262563039  0.5069326709926921
  0.7589313904504194  0.4540050915649017  0.9712435205109681
  0.7524952760687545  0.5383917112134436  0.5171054934068662
  0.0391546477602625  0.2460207054214063 -0.0720525149670865
  0.9637575519943121  0.2573466421492888  0.5647180975357196
  0.9531665917797730  0.7457309343313383  0.0758459257097960
  0.0217221574899855  0.7475403855207685  0.4114797501527252
  0.4510869712467719  0.2424515798485183  0.9821878803941636
  0.5702574260273082  0.2655712348601367  0.5121970781225498
  0.5510765264141104  0.7403633394599246 -0.0221367253796554
  0.4524599938344189  0.7628730037115874  0.4793781959003121
 -0.0402110576846536  0.0662900480664475  0.2507047634428105
  0.0345908970234398  0.9529021597328143  0.7552392093844937
 -0.0187883017367733  0.3994898998290040  0.2429026487155369
  0.5430066596310912 -0.0094038057683844  0.2561764246150678
  0.4514180578123063  0.0097277993602337  0.7574943514292014
  0.4631727982957384  0.5289769688914367  0.7530325073348046
  0.2492562503352388 -0.0437096030457542  0.0480273163145496
  0.2509632626899038  0.0593570344109920  0.4676433655752500
  0.2343055572828105  0.5321443405074124  0.0284574363453515
  0.2523029886810689  0.4655228431208565  0.4760403841892709
  0.7496655891756671  0.0250107219130339  0.9681947368047812
  0.7497559221308489  0.9505670154386116  0.5469256021219211
  0.0215418498371966  0.5807442212760445  0.7515768870508892
  0.5226446913323570  0.4913514612018147  0.2437083386820313
 
  0.00000000E+00  0.00000000E+00  0.00000000E+00
  0.00000000E+00  0.00000000E+00  0.00000000E+00
  0.00000000E+00  0.00000000E+00  0.00000000E+00
  0.00000000E+00  0.00000000E+00  0.00000000E+00
  0.00000000E+00  0.00000000E+00  0.00000000E+00
  0.00000000E+00  0.00000000E+00  0.00000000E+00
  0.00000000E+00  0.00000000E+00  0.00000000E+00
  0.00000000E+00  0.00000000E+00  0.00000000E+00
  0.00000000E+00  0.00000000E+00  0.00000000E+00
  0.00000000E+00  0.00000000E+00  0.00000000E+00
  0.00000000E+00  0.00000000E+00  0.00000000E+00
  0.00000000E+00  0.00000000E+00  0.00000000E+00
  0.00000000E+00  0.00000000E+00  0.00000000E+00
  0.00000000E+00  0.00000000E+00  0.00000000E+00
  0.00000000E+00  0.00000000E+00  0.00000000E+00
  0.00000000E+00  0.00000000E+00  0.00000000E+00
  0.00000000E+00  0.00000000E+00  0.00000000E+00
  0.00000000E+00  0.00000000E+00  0.00000000E+00
  0.00000000E+00  0.00000000E+00  0.00000000E+00
  0.00000000E+00  0.00000000E+00  0.00000000E+00
  0.00000000E+00  0.00000000E+00  0.00000000E+00
  0.00000000E+00  0.00000000E+00  0.00000000E+00
  0.00000000E+00  0.00000000E+00  0.00000000E+00
  0.00000000E+00  0.00000000E+00  0.00000000E+00
  0.00000000E+00  0.00000000E+00  0.00000000E+00
  0.00000000E+00  0.00000000E+00  0.00000000E+00
  0.00000000E+00  0.00000000E+00  0.00000000E+00
  0.00000000E+00  0.00000000E+00  0.00000000E+00
  0.00000000E+00  0.00000000E+00  0.00000000E+00
  0.00000000E+00  0.00000000E+00  0.00000000E+00
  0.00000000E+00  0.00000000E+00  0.00000000E+00
  0.00000000E+00  0.00000000E+00  0.00000000E+00
  0.00000000E+00  0.00000000E+00  0.00000000E+00
  0.00000000E+00  0.00000000E+00  0.00000000E+00
  0.00000000E+00  0.00000000E+00  0.00000000E+00
  0.00000000E+00  0.00000000E+00  0.00000000E+00
  0.00000000E+00  0.00000000E+00  0.00000000E+00
  0.00000000E+00  0.00000000E+00  0.00000000E+00
  0.00000000E+00  0.00000000E+00  0.00000000E+00
  0.00000000E+00  0.00000000E+00  0.00000000E+00
