Na4 Ni4 O8 F4                           
   1.00000000000000     
     4.8481270415702529    0.0004065050598714   -0.0028607046789859
    -0.0058209364900880    4.8511963308853314    0.0859275784833377
     0.0102153887079790   -0.1582911717896440    8.6997059380048469
   Na   Ni   O    F 
     4     4     8     4
Direct
  0.9977611768457044  0.0038909852720401  0.2597259160258591
  0.9962328799706782 -0.0047182430488660  0.7375923898608768
  0.4969926439366549  0.4962596454886850  0.7403718203054287
  0.4948356988645211  0.4995819495947394  0.2616159147528264
  0.5020018972109521  0.0025924125734721 -0.0001119851903206
  0.0026535143328340  0.5019659065609867 -0.0000341947183976
  0.5000431563927870  0.9967246284175112  0.4984609654704156
  0.9981478765311250  0.4979863459930007  0.4989443946269891
  0.6098581378336163  0.3948072450462127  0.0020703340677798
  0.3949618611233116  0.6099728256192253 -0.0002475700444582
  0.1099822658048128  0.1099687524809643 -0.0010816435845971
  0.8948676250893978  0.8945961980886408  0.0005978438992919
  0.3490535165385028  0.6477956108408000  0.5034819047201818
  0.6484520331866930  0.3478221349939434  0.4989072619660152
  0.8506494844690126  0.8486977758144560  0.4965690029964216
  0.1507031720157219  0.1490255097723245  0.5012173187671114
  0.0026878459229515  0.5006087274464804  0.2400278377852153
  0.9986482369084740  0.5008911706364287  0.7609454348797360
  0.5024904416760082  0.0012111328766692  0.7609472268380408
  0.4989765353462539  0.0003192855322794  0.2399998265755761
 
  0.00000000E+00  0.00000000E+00  0.00000000E+00
  0.00000000E+00  0.00000000E+00  0.00000000E+00
  0.00000000E+00  0.00000000E+00  0.00000000E+00
  0.00000000E+00  0.00000000E+00  0.00000000E+00
  0.00000000E+00  0.00000000E+00  0.00000000E+00
  0.00000000E+00  0.00000000E+00  0.00000000E+00
  0.00000000E+00  0.00000000E+00  0.00000000E+00
  0.00000000E+00  0.00000000E+00  0.00000000E+00
  0.00000000E+00  0.00000000E+00  0.00000000E+00
  0.00000000E+00  0.00000000E+00  0.00000000E+00
  0.00000000E+00  0.00000000E+00  0.00000000E+00
  0.00000000E+00  0.00000000E+00  0.00000000E+00
  0.00000000E+00  0.00000000E+00  0.00000000E+00
  0.00000000E+00  0.00000000E+00  0.00000000E+00
  0.00000000E+00  0.00000000E+00  0.00000000E+00
  0.00000000E+00  0.00000000E+00  0.00000000E+00
  0.00000000E+00  0.00000000E+00  0.00000000E+00
  0.00000000E+00  0.00000000E+00  0.00000000E+00
  0.00000000E+00  0.00000000E+00  0.00000000E+00
  0.00000000E+00  0.00000000E+00  0.00000000E+00
