Mn4 O4 F8                               
   1.00000000000000     
     4.9263154910581832   -0.1504446601293803   -0.0239549577604461
    -0.1297635894972592    5.2071431837830886   -0.0362374233815548
    -0.0240292831173210   -0.0831244167140315    7.2484929357159826
   Mn   O    F 
     4     4     8
Direct
  0.4909338982348129  0.9902330276549928  0.0002671141581059
  0.0181242460335074  0.5142464337201849  0.9995733879132769
  0.5056370071777072  0.0055151543515520  0.5010071942799557
  0.9826318895323645  0.4785174248024481  0.5005233967356347
  0.6218010104932988  0.0347291344053998  0.7464777368097157
  0.3841539831506038  0.9806329996257532  0.2527824090419731
  0.3192751503572303  0.6844937970029331  0.9338625841709420
  0.6724712361174109  0.3008002640084551  0.4357502350791473
  0.1277011278516213  0.4843926896688616  0.2407937524523600
  0.8727889941391731  0.5300919852003504  0.7627738872610115
  0.6955954008481124  0.3055382834338112  0.0570298148531083
  0.1710077880787243  0.2098660063399853  0.9390649194077457
  0.8419796296441160  0.7996578828671328  0.0644170681171427
  0.3017142278884660  0.6920630033356164  0.5511265604183430
  0.7983209828422720  0.8124817525207466  0.4524129898768602
  0.1958634276105866  0.1767401610617981  0.5621369494246703
 
  0.00000000E+00  0.00000000E+00  0.00000000E+00
  0.00000000E+00  0.00000000E+00  0.00000000E+00
  0.00000000E+00  0.00000000E+00  0.00000000E+00
  0.00000000E+00  0.00000000E+00  0.00000000E+00
  0.00000000E+00  0.00000000E+00  0.00000000E+00
  0.00000000E+00  0.00000000E+00  0.00000000E+00
  0.00000000E+00  0.00000000E+00  0.00000000E+00
  0.00000000E+00  0.00000000E+00  0.00000000E+00
  0.00000000E+00  0.00000000E+00  0.00000000E+00
  0.00000000E+00  0.00000000E+00  0.00000000E+00
  0.00000000E+00  0.00000000E+00  0.00000000E+00
  0.00000000E+00  0.00000000E+00  0.00000000E+00
  0.00000000E+00  0.00000000E+00  0.00000000E+00
  0.00000000E+00  0.00000000E+00  0.00000000E+00
  0.00000000E+00  0.00000000E+00  0.00000000E+00
  0.00000000E+00  0.00000000E+00  0.00000000E+00
