Na4 Mn4 O8 F4                           
   1.00000000000000     
     5.2721586096898543   -0.2096907791795863    0.0090215921811862
    -0.1942963330468569    5.3467628929271314    0.0313903703868866
     0.0471434059657451   -0.0026316955315326    7.4271792935190000
   Na   Mn   O    F 
     4     4     8     4
Direct
  0.0109428089466071  0.0433467511296598  0.2448213224047041
  0.0173730787226867  0.9578519164736126  0.7627020561851532
  0.4886108651427877  0.4621150414451619  0.7558938587326286
  0.5005795355321048  0.5076896242074729  0.2491629953349764
  0.5302478140293985  0.9762367464104779  0.0118226029284689
  0.9864547079777343  0.5133439931107100  0.0134935602672749
  0.4993659415149713  0.9944733744292539  0.4910468783802769
  0.0004823578024214  0.5007830901072564  0.4890934370430420
  0.0661926474696585  0.4709144314945390  0.2433771403204716
  0.5560893622976989  0.9929056383811062  0.7504968474175190
  0.4319023688125820  0.0004568261803310  0.2486324637402173
  0.7002412507965743  0.2963937118583231  0.0151365101495259
  0.2923250264800727  0.7216636137020097  0.9637500428786163
  0.8059437037328545  0.7979204346565214  0.0445510429813435
  0.3030211604146741  0.6999907059411418  0.5299649236700820
  0.6944020235568491  0.2957023103756455  0.4877831178440725
  0.9301022196854138  0.5380020374738838  0.7500071839426069
  0.1901122816531723  0.2344024783333657  0.9551000987865979
  0.7884342115694581  0.8184099583746232  0.4567492795234775
  0.2071766338622726  0.1773973159149116  0.5364146374689596
 
  0.00000000E+00  0.00000000E+00  0.00000000E+00
  0.00000000E+00  0.00000000E+00  0.00000000E+00
  0.00000000E+00  0.00000000E+00  0.00000000E+00
  0.00000000E+00  0.00000000E+00  0.00000000E+00
  0.00000000E+00  0.00000000E+00  0.00000000E+00
  0.00000000E+00  0.00000000E+00  0.00000000E+00
  0.00000000E+00  0.00000000E+00  0.00000000E+00
  0.00000000E+00  0.00000000E+00  0.00000000E+00
  0.00000000E+00  0.00000000E+00  0.00000000E+00
  0.00000000E+00  0.00000000E+00  0.00000000E+00
  0.00000000E+00  0.00000000E+00  0.00000000E+00
  0.00000000E+00  0.00000000E+00  0.00000000E+00
  0.00000000E+00  0.00000000E+00  0.00000000E+00
  0.00000000E+00  0.00000000E+00  0.00000000E+00
  0.00000000E+00  0.00000000E+00  0.00000000E+00
  0.00000000E+00  0.00000000E+00  0.00000000E+00
  0.00000000E+00  0.00000000E+00  0.00000000E+00
  0.00000000E+00  0.00000000E+00  0.00000000E+00
  0.00000000E+00  0.00000000E+00  0.00000000E+00
  0.00000000E+00  0.00000000E+00  0.00000000E+00
