Na4 Co4 O8 F4                           
    1.000000000000000     
     5.2204816106966430   -0.0155000453001888    0.0625821771202923
    -0.0260345309896750    5.2313565172615455    0.0244420742064200
     0.0870767337025107    0.0298851222637853    7.7408845198549763
   Na   Co   O    F 
     4     4     8     4
Direct
  0.9872789522533054  0.0409035321054319  0.2447489386522932
  0.9981899463353159  0.9826262241901560  0.7523934265185730
  0.4902367395949838  0.4583918062293222  0.7344288080426296
  0.5163282838843415  0.5262415261972819  0.2594718562723131
  0.4897117548797496  0.9936376685290753  0.0000134146877784
  0.0152174103343441  0.5116486171628409  0.9987235698308723
  0.5051693999111890  0.9900784475162396  0.5052518421627497
  0.9840598293554237  0.5214124780305625  0.4973012307094606
  0.3106617834141971  0.6933293591752374  0.9474157167850521
  0.1894832021045119  0.2331395627904200  0.9697298389221416
  0.8304514728746000  0.7774433953692537  0.0321352528604564
  0.2947082819431799  0.7368415342606554  0.5316417716873119
  0.6984868387235394  0.2572385700149411  0.4733593698635588
  0.7828497036845832  0.7763255886228677  0.4595014072839660
  0.5535951437471027  0.0176541073605563  0.7777026263093774
  0.4355561294583552  0.9727006456764400  0.2185506382845119
  0.7089892712904202  0.3024493178884811  0.0490060621484929
  0.2032772231465643  0.2236813508133721  0.5444894404012643
  0.0913706465989179  0.4690722830998979  0.2574822309368940
  0.9143779864653752  0.5151839849669670  0.7466525576403100
 
  0.00000000E+00  0.00000000E+00  0.00000000E+00
  0.00000000E+00  0.00000000E+00  0.00000000E+00
  0.00000000E+00  0.00000000E+00  0.00000000E+00
  0.00000000E+00  0.00000000E+00  0.00000000E+00
  0.00000000E+00  0.00000000E+00  0.00000000E+00
  0.00000000E+00  0.00000000E+00  0.00000000E+00
  0.00000000E+00  0.00000000E+00  0.00000000E+00
  0.00000000E+00  0.00000000E+00  0.00000000E+00
  0.00000000E+00  0.00000000E+00  0.00000000E+00
  0.00000000E+00  0.00000000E+00  0.00000000E+00
  0.00000000E+00  0.00000000E+00  0.00000000E+00
  0.00000000E+00  0.00000000E+00  0.00000000E+00
  0.00000000E+00  0.00000000E+00  0.00000000E+00
  0.00000000E+00  0.00000000E+00  0.00000000E+00
  0.00000000E+00  0.00000000E+00  0.00000000E+00
  0.00000000E+00  0.00000000E+00  0.00000000E+00
  0.00000000E+00  0.00000000E+00  0.00000000E+00
  0.00000000E+00  0.00000000E+00  0.00000000E+00
  0.00000000E+00  0.00000000E+00  0.00000000E+00
  0.00000000E+00  0.00000000E+00  0.00000000E+00
