Iron(II) Iron(III) Oxide (3/4/9)        
   1.00000000000000     
     9.7477313682531843    0.0000000077790970    0.0051829524044331
     0.0000000048261079    2.9098927527294158   -0.0000000091412806
    -2.3205890712744490   -0.0000000291269542   11.1805515545328333
   Fe   O 
    14    18
Direct
  0.5000159021353312  0.0000000001715463  0.5000042892601471
  0.0000158875964686  0.4999999991251443  0.5000043079874885
  0.2718698752553834  0.0000000042786965  0.6316277705543882
  0.7281163047654786  0.9999999966163529  0.3684065154568472
  0.7718698998523621  0.5000000054746820  0.6316277682973634
  0.2281162746732335  0.4999999958670287  0.3684065201525470
  0.3549239594420044  0.9999999993204156  0.9348943721423382
  0.6450993809902386  0.0000000005257093  0.0651112564164436
  0.8549239594993239  0.5000000001657909  0.9348943754857331
  0.1450993921389170  0.5000000015347084  0.0651112622326195
  0.0706251216270317  0.0000000011883401  0.7888571679372589
  0.9293594856918546  0.0000000009546213  0.2112426943672219
  0.5706251263840869  0.5000000000451550  0.7888571682015098
  0.4293594944570600  0.4999999963835506  0.2112426812841761
  0.4115340602825270  0.9999999905346826  0.7783574537470415
  0.5885529479407339  0.9999999986653094  0.2216487612535829
  0.9115340487036363  0.4999999927157646  0.7783574549536425
  0.0885529502206310  0.5000000050484914  0.2216487613512612
  0.0000413290975132  0.9999999999869473  0.0000259600055017
  0.5000413347841501  0.4999999999659437  0.0000259564175806
  0.1327385704420863  0.9999999994206021  0.4502158877665750
  0.8672369418773229  0.9999999995227711  0.5497460771358291
  0.6327385449730656  0.4999999988790833  0.4502158895397912
  0.3672369726381461  0.4999999998707807  0.5497460689261970
  0.3643039327045230  0.9999999926232377  0.3402913384190711
  0.6356827459785919  0.0000000118396954  0.6596638389207214
  0.8643039115996061  0.4999999962759887  0.3402913314131624
  0.1356827642550442  0.5000000079437470  0.6596638537700699
  0.2977556638050700  0.0000000043049226  0.1000351179708048
  0.7021437816898839  0.0000000013551471  0.8998715315395955
  0.7977556535503325  0.5000000010790657  0.1000351140001143
  0.2021437729483537  0.4999999983160777  0.8998715430933757
 
  0.00000000E+00  0.00000000E+00  0.00000000E+00
  0.00000000E+00  0.00000000E+00  0.00000000E+00
  0.00000000E+00  0.00000000E+00  0.00000000E+00
  0.00000000E+00  0.00000000E+00  0.00000000E+00
  0.00000000E+00  0.00000000E+00  0.00000000E+00
  0.00000000E+00  0.00000000E+00  0.00000000E+00
  0.00000000E+00  0.00000000E+00  0.00000000E+00
  0.00000000E+00  0.00000000E+00  0.00000000E+00
  0.00000000E+00  0.00000000E+00  0.00000000E+00
  0.00000000E+00  0.00000000E+00  0.00000000E+00
  0.00000000E+00  0.00000000E+00  0.00000000E+00
  0.00000000E+00  0.00000000E+00  0.00000000E+00
  0.00000000E+00  0.00000000E+00  0.00000000E+00
  0.00000000E+00  0.00000000E+00  0.00000000E+00
  0.00000000E+00  0.00000000E+00  0.00000000E+00
  0.00000000E+00  0.00000000E+00  0.00000000E+00
  0.00000000E+00  0.00000000E+00  0.00000000E+00
  0.00000000E+00  0.00000000E+00  0.00000000E+00
  0.00000000E+00  0.00000000E+00  0.00000000E+00
  0.00000000E+00  0.00000000E+00  0.00000000E+00
  0.00000000E+00  0.00000000E+00  0.00000000E+00
  0.00000000E+00  0.00000000E+00  0.00000000E+00
  0.00000000E+00  0.00000000E+00  0.00000000E+00
  0.00000000E+00  0.00000000E+00  0.00000000E+00
  0.00000000E+00  0.00000000E+00  0.00000000E+00
  0.00000000E+00  0.00000000E+00  0.00000000E+00
  0.00000000E+00  0.00000000E+00  0.00000000E+00
  0.00000000E+00  0.00000000E+00  0.00000000E+00
  0.00000000E+00  0.00000000E+00  0.00000000E+00
  0.00000000E+00  0.00000000E+00  0.00000000E+00
  0.00000000E+00  0.00000000E+00  0.00000000E+00
  0.00000000E+00  0.00000000E+00  0.00000000E+00
