Ni4 O4 F8                               
   1.00000000000000     
     4.8390209798303960    0.0025458272710327    0.0726377938311668
     0.0551438551372485    5.0067380927961507    0.0244167091984139
     0.0719930600443759    0.0226052851060895    7.0279611848410566
   Ni   O    F 
     4     4     8
Direct
  0.4982233714994179  0.0018414676215224  0.9989709310722560
  0.0070957094187017  0.4904555648869323  0.9970303779226736
  0.5015290486362151  0.0114837422110609  0.4988555758576470
  0.9940588663953229  0.5030105645923635  0.4977068470733851
  0.6364461604683948  0.0288837246613705  0.7546037795333980
  0.3634053378400645  0.9736792818248240  0.2430078610552638
  0.1716911014655716  0.1758211290005524  0.9357200744510121
  0.6496757000244904  0.3213619627288197  0.4363008950886477
  0.1480390308743764  0.4527587775548909  0.2571902115499056
  0.8452945159303000  0.5355689362636989  0.7432015059794380
  0.6972360586733030  0.3131159579493629  0.0748857834695205
  0.3203063739279111  0.6688488396606002  0.9322249294315371
  0.8243061407295208  0.8050809589927087  0.0605256235567055
  0.3352323333205218  0.6976810263494719  0.5586462343361583
  0.8369520126606194  0.8267914535471830  0.4293756918007938
  0.1705082381352689  0.1936166121546310  0.5817536778216653
 
  0.00000000E+00  0.00000000E+00  0.00000000E+00
  0.00000000E+00  0.00000000E+00  0.00000000E+00
  0.00000000E+00  0.00000000E+00  0.00000000E+00
  0.00000000E+00  0.00000000E+00  0.00000000E+00
  0.00000000E+00  0.00000000E+00  0.00000000E+00
  0.00000000E+00  0.00000000E+00  0.00000000E+00
  0.00000000E+00  0.00000000E+00  0.00000000E+00
  0.00000000E+00  0.00000000E+00  0.00000000E+00
  0.00000000E+00  0.00000000E+00  0.00000000E+00
  0.00000000E+00  0.00000000E+00  0.00000000E+00
  0.00000000E+00  0.00000000E+00  0.00000000E+00
  0.00000000E+00  0.00000000E+00  0.00000000E+00
  0.00000000E+00  0.00000000E+00  0.00000000E+00
  0.00000000E+00  0.00000000E+00  0.00000000E+00
  0.00000000E+00  0.00000000E+00  0.00000000E+00
  0.00000000E+00  0.00000000E+00  0.00000000E+00
