Cr4 O4 F8                               
   1.00000000000000     
     5.3647361497998665    0.0124277745108679   -0.0656104858506913
    -2.6634936231045616    4.6645205468665809    0.0559024048505980
    -0.0955916156605658    0.0840860006235959    9.2159024083708641
   Cr   O    F 
     4     4     8
Direct
  0.3440571847196578  0.6785840303161751  0.6090787280497021
  0.6521373977118906  0.2925823273360961  0.3912200832765957
  0.6573899435117952  0.3455314745118318  0.1077552888215794
  0.3394226103406333  0.6633824837525988  0.8910015847639040
  0.4943279285361200  0.5038618894728137  0.9977356169726634
  0.4873185798158444  0.0073715578048653  0.4992849295664080
  0.8157946869441959  0.2136361873407474  0.2591476725177405
  0.2017440025061099  0.7977098706547566  0.7562113540419420
  0.5050727648744552  0.0007848797368002  0.0009029225710794
  0.0016983529315076  0.5053196647771543  0.0010472445132909
  0.9914769835597599  0.4914297508967349  0.5030623789022559
  0.5128106857216537  0.5144879735580093  0.4884439401393700
  0.7845150677856221  0.6368376204126717  0.2483977652663363
  0.2099342719665789  0.3610408127974394  0.7483269120052338
  0.3516228900487861  0.1754399263853950  0.2476425609545196
  0.6506766490254037  0.8119995502459249  0.7507410176373793
 
  0.00000000E+00  0.00000000E+00  0.00000000E+00
  0.00000000E+00  0.00000000E+00  0.00000000E+00
  0.00000000E+00  0.00000000E+00  0.00000000E+00
  0.00000000E+00  0.00000000E+00  0.00000000E+00
  0.00000000E+00  0.00000000E+00  0.00000000E+00
  0.00000000E+00  0.00000000E+00  0.00000000E+00
  0.00000000E+00  0.00000000E+00  0.00000000E+00
  0.00000000E+00  0.00000000E+00  0.00000000E+00
  0.00000000E+00  0.00000000E+00  0.00000000E+00
  0.00000000E+00  0.00000000E+00  0.00000000E+00
  0.00000000E+00  0.00000000E+00  0.00000000E+00
  0.00000000E+00  0.00000000E+00  0.00000000E+00
  0.00000000E+00  0.00000000E+00  0.00000000E+00
  0.00000000E+00  0.00000000E+00  0.00000000E+00
  0.00000000E+00  0.00000000E+00  0.00000000E+00
  0.00000000E+00  0.00000000E+00  0.00000000E+00
