Mn4 O4 F8                               
   1.00000000000000     
     5.4213780728947514    0.0004452166899128   -0.0796117057331997
    -2.7110399273477079    4.3706392260108116    0.0403895439781522
    -0.1188965433359835    0.0010201568334923    8.9696646965264364
   Mn   O    F 
     4     4     8
Direct
  0.3962630020059212  0.7830796971337040  0.6022118357766648
  0.7008095393236774  0.4038731853171604  0.3921657497141758
  0.6127605986173712  0.2169488146326568  0.1021485201542524
  0.2964281971851223  0.5962354455684060  0.8922917558752417
  0.4150165154819542  0.8106080568079495  0.0597263130291601
  0.6050828654433911  0.1893280925008091  0.5595967744564804
  0.7961651106231712  0.6049600476228346  0.1948515699137801
  0.1911528162449336  0.3950486490145422  0.6949563748488929
  0.9231576417771534  0.3452331734652841  0.9569589576936369
  0.3907299649020256  0.3211685692257948  0.9625387125223046
  0.0703931428283614  0.6788465192259996  0.4623621791225746
  0.5785198521471722  0.6547005268825440  0.4571580862137444
  0.3596008027802809  0.1599192581816274  0.2875630270929088
  0.6420793681565412  0.8198956319005308  0.7941274287289654
  0.8224814836189267  0.1800323504044123  0.2939945418392220
  0.1993590988639893  0.8401219821157443  0.7873481730179878
 
  0.00000000E+00  0.00000000E+00  0.00000000E+00
  0.00000000E+00  0.00000000E+00  0.00000000E+00
  0.00000000E+00  0.00000000E+00  0.00000000E+00
  0.00000000E+00  0.00000000E+00  0.00000000E+00
  0.00000000E+00  0.00000000E+00  0.00000000E+00
  0.00000000E+00  0.00000000E+00  0.00000000E+00
  0.00000000E+00  0.00000000E+00  0.00000000E+00
  0.00000000E+00  0.00000000E+00  0.00000000E+00
  0.00000000E+00  0.00000000E+00  0.00000000E+00
  0.00000000E+00  0.00000000E+00  0.00000000E+00
  0.00000000E+00  0.00000000E+00  0.00000000E+00
  0.00000000E+00  0.00000000E+00  0.00000000E+00
  0.00000000E+00  0.00000000E+00  0.00000000E+00
  0.00000000E+00  0.00000000E+00  0.00000000E+00
  0.00000000E+00  0.00000000E+00  0.00000000E+00
  0.00000000E+00  0.00000000E+00  0.00000000E+00
