Na4 Co4 O8 F4                           
    1.000000000000000     
     5.2801704641956029   -0.1556945217359698   -0.0348479568757940
    -0.1552351492198288    5.2897112608209440   -0.0092435641521521
    -0.0397486614269086   -0.0023739419354084    7.6907217805404819
   Na   Co   O    F 
     4     4     8     4
Direct
  0.9909543314765372  0.0290912842907289  0.2646185548594531
  0.0192359335905650  0.9545560470214838  0.7397451243440614
  0.4901334561366113  0.4749722146118600  0.7504035643805693
  0.5095209313714975  0.5315656823615313  0.2645811308610249
  0.5048773842697187  0.0000166660365792  0.9909285805906691
  0.9984513441121550  0.5129447836594281  0.0205470704458079
  0.4878633736748270  0.0145851651962943  0.5052837575572440
  0.0168842100708702  0.4806402922809951  0.4984970783408471
  0.6984871743471857  0.2695292455651952  0.0250300032030708
  0.3065574607698238  0.7313880140479654  0.9582002717063887
  0.7785873988441168  0.7837095537326206  0.0428902008536909
  0.2978492573797382  0.7422633543345398  0.5360769227148054
  0.7010453608129197  0.2666741011211045  0.4690002062170677
  0.2084728609962667  0.2307962748164343  0.5388556073712252
  0.0693700071939105  0.4790043289564920  0.2411712197021316
  0.5871164566328773  0.0020422078555029  0.7458972560528778
  0.2038983115854691  0.2142954525138379  0.9450537608979417
  0.7967008262159752  0.7696342430721828  0.4589174862821963
  0.9235402130210204  0.5271876920873666  0.7573701150365508
  0.4104537074979149  0.9851033964378644  0.2469320885823834
 
  0.00000000E+00  0.00000000E+00  0.00000000E+00
  0.00000000E+00  0.00000000E+00  0.00000000E+00
  0.00000000E+00  0.00000000E+00  0.00000000E+00
  0.00000000E+00  0.00000000E+00  0.00000000E+00
  0.00000000E+00  0.00000000E+00  0.00000000E+00
  0.00000000E+00  0.00000000E+00  0.00000000E+00
  0.00000000E+00  0.00000000E+00  0.00000000E+00
  0.00000000E+00  0.00000000E+00  0.00000000E+00
  0.00000000E+00  0.00000000E+00  0.00000000E+00
  0.00000000E+00  0.00000000E+00  0.00000000E+00
  0.00000000E+00  0.00000000E+00  0.00000000E+00
  0.00000000E+00  0.00000000E+00  0.00000000E+00
  0.00000000E+00  0.00000000E+00  0.00000000E+00
  0.00000000E+00  0.00000000E+00  0.00000000E+00
  0.00000000E+00  0.00000000E+00  0.00000000E+00
  0.00000000E+00  0.00000000E+00  0.00000000E+00
  0.00000000E+00  0.00000000E+00  0.00000000E+00
  0.00000000E+00  0.00000000E+00  0.00000000E+00
  0.00000000E+00  0.00000000E+00  0.00000000E+00
  0.00000000E+00  0.00000000E+00  0.00000000E+00
