Na8 Mn8 O16 F8                          
   1.00000000000000     
     7.7334218438485038    0.0000096744180586    0.0289092945756265
     0.0000064476447536    7.3878977559792096   -0.0000607997733293
     0.0027164323310583   -0.0000658257720418    7.3606458118718150
   Na   Mn   O    F 
     8     8    16     8
Direct
  0.2548413151709853  0.2460107984256706  0.2332417339666386
  0.2257364455341995  0.2447593620096404  0.7495048997013547
  0.2548419087867725  0.7539788646160274  0.2332199452696534
  0.2257352591245163  0.7552100464532363  0.7494380510632379
  0.7271565226913816  0.2473113204383188  0.2498014325614451
  0.7558360413943586  0.2448132355070188  0.7639678150105264
  0.7271569436909868  0.7526929405153941  0.2497997039114101
  0.7557833735351804  0.7551384869795081  0.7639579714115007
  0.9908065510649102 -0.0000063588311469  0.0179731367518349
  0.9961339868597420  0.0000201354098710  0.4854816955133618
  0.9984114221461282  0.5000063605119368  0.0114363494942605
  0.0001256373973995  0.4999886221650655  0.4904351241355246
  0.4912714467617031  0.0000151729592150  0.9816863160779227
  0.4961225629457247  0.0000047439650327  0.5125343239223927
  0.4981884955505085  0.4999900742834548  0.9893426139170313
  0.5000358093282611  0.4999897216601646  0.5092214678852373
  0.2621731197243256 -0.0000045555412906  0.9451743597502269
  0.7635085903755033  0.0000130788735108  0.0576810639107886
  0.0085117148191399  0.2537104497783167  0.9869868152297613
  0.9889489698016430  0.2472740427341386  0.5128019410545906
  0.0085041299551545  0.7462944650221547  0.9869670201238189
  0.9889537538883607  0.7527318429605628  0.5128046119744659
  0.5092518242307478  0.2545778541328263  0.0131679834600856
  0.4912445894733361  0.2531964263030795  0.4863229754699084
  0.5092688045463520  0.7454294392420182  0.0131642279002491
  0.4912266017665929  0.7468145184537581  0.4863372132031072
  0.0666519338013955 -0.0000024124724280  0.2524788348746143
  0.0662564450023789  0.5000131843052388  0.2448051547157716
  0.9591176979260637  0.4999984280382765  0.7565303672532115
  0.5658280955528416  0.0000039696416023  0.7509804429733440
  0.4532823511194922  0.5000061998745553  0.2476973996354968
  0.5677051497909337  0.4999929485817044  0.7511838975056485
  0.2291204761481261  0.0000040892026628  0.5566167107740232
  0.2606344359474239  0.5000172151132605  0.9397388679478760
  0.2659514571808821  0.4999936665823709  0.5706640356061510
  0.7611292158595405  0.0000057781764739  0.4353338543743528
  0.7589702655816831  0.4999964024032338  0.0611622423486071
  0.7340766243208579  0.5000096365268352  0.4397074406949676
  0.9442990268149897  0.0000019197979374  0.7517301094021995
  0.4472010043894762 -0.0000021147992074  0.2489198492233797
 
  0.00000000E+00  0.00000000E+00  0.00000000E+00
  0.00000000E+00  0.00000000E+00  0.00000000E+00
  0.00000000E+00  0.00000000E+00  0.00000000E+00
  0.00000000E+00  0.00000000E+00  0.00000000E+00
  0.00000000E+00  0.00000000E+00  0.00000000E+00
  0.00000000E+00  0.00000000E+00  0.00000000E+00
  0.00000000E+00  0.00000000E+00  0.00000000E+00
  0.00000000E+00  0.00000000E+00  0.00000000E+00
  0.00000000E+00  0.00000000E+00  0.00000000E+00
  0.00000000E+00  0.00000000E+00  0.00000000E+00
  0.00000000E+00  0.00000000E+00  0.00000000E+00
  0.00000000E+00  0.00000000E+00  0.00000000E+00
  0.00000000E+00  0.00000000E+00  0.00000000E+00
  0.00000000E+00  0.00000000E+00  0.00000000E+00
  0.00000000E+00  0.00000000E+00  0.00000000E+00
  0.00000000E+00  0.00000000E+00  0.00000000E+00
  0.00000000E+00  0.00000000E+00  0.00000000E+00
  0.00000000E+00  0.00000000E+00  0.00000000E+00
  0.00000000E+00  0.00000000E+00  0.00000000E+00
  0.00000000E+00  0.00000000E+00  0.00000000E+00
  0.00000000E+00  0.00000000E+00  0.00000000E+00
  0.00000000E+00  0.00000000E+00  0.00000000E+00
  0.00000000E+00  0.00000000E+00  0.00000000E+00
  0.00000000E+00  0.00000000E+00  0.00000000E+00
  0.00000000E+00  0.00000000E+00  0.00000000E+00
  0.00000000E+00  0.00000000E+00  0.00000000E+00
  0.00000000E+00  0.00000000E+00  0.00000000E+00
  0.00000000E+00  0.00000000E+00  0.00000000E+00
  0.00000000E+00  0.00000000E+00  0.00000000E+00
  0.00000000E+00  0.00000000E+00  0.00000000E+00
  0.00000000E+00  0.00000000E+00  0.00000000E+00
  0.00000000E+00  0.00000000E+00  0.00000000E+00
  0.00000000E+00  0.00000000E+00  0.00000000E+00
  0.00000000E+00  0.00000000E+00  0.00000000E+00
  0.00000000E+00  0.00000000E+00  0.00000000E+00
  0.00000000E+00  0.00000000E+00  0.00000000E+00
  0.00000000E+00  0.00000000E+00  0.00000000E+00
  0.00000000E+00  0.00000000E+00  0.00000000E+00
  0.00000000E+00  0.00000000E+00  0.00000000E+00
  0.00000000E+00  0.00000000E+00  0.00000000E+00
