V4 O4 F8                                
   1.00000000000000     
     5.1606051698683251    0.0354383440468552    0.0149509444691889
     0.0447394863778350    5.2971556069502519   -0.0145113459818021
     0.0126128130827280   -0.0329569637690783    7.3701207743191937
   V    O    F 
     4     4     8
Direct
  0.4830232597576440  0.0006835378591177  0.0203959745717484
  0.0097066708615117  0.4785173145290287  0.9938331453212825
  0.5304768134714095  0.9753087272237693  0.4965964326496035
  0.0238885756462821  0.4706376769759970  0.5034331400203342
  0.1983895453440638  0.2226807261851818  0.9658360507168879
  0.7788547681242619  0.7801477008559914  0.4680998523577244
  0.2181643709309000  0.2248663127464710  0.5309411134857811
  0.4290462074792174  0.9787581234336002  0.2431179233699297
  0.6961562026133876  0.3017412077274031  0.0488424635381293
  0.2860808472950183  0.7137997137805598  0.9412652041247043
  0.7961253737616119  0.7895810193952713  0.0290391462901383
  0.2766431288717470  0.7256977929705926  0.5591901978902598
  0.7140995640151360  0.2857524702777638  0.4463835192739438
  0.0925888195342921  0.5202535727173085  0.2476767919181810
  0.8907914678543349  0.5013265525383446  0.7483906252504084
  0.5759643844391675  0.0302475507835851  0.7569584192209291
 
  0.00000000E+00  0.00000000E+00  0.00000000E+00
  0.00000000E+00  0.00000000E+00  0.00000000E+00
  0.00000000E+00  0.00000000E+00  0.00000000E+00
  0.00000000E+00  0.00000000E+00  0.00000000E+00
  0.00000000E+00  0.00000000E+00  0.00000000E+00
  0.00000000E+00  0.00000000E+00  0.00000000E+00
  0.00000000E+00  0.00000000E+00  0.00000000E+00
  0.00000000E+00  0.00000000E+00  0.00000000E+00
  0.00000000E+00  0.00000000E+00  0.00000000E+00
  0.00000000E+00  0.00000000E+00  0.00000000E+00
  0.00000000E+00  0.00000000E+00  0.00000000E+00
  0.00000000E+00  0.00000000E+00  0.00000000E+00
  0.00000000E+00  0.00000000E+00  0.00000000E+00
  0.00000000E+00  0.00000000E+00  0.00000000E+00
  0.00000000E+00  0.00000000E+00  0.00000000E+00
  0.00000000E+00  0.00000000E+00  0.00000000E+00
