Na4 Mn4 O8 F4                           
   1.00000000000000     
     5.3745503826700132   -0.0431493607660270   -0.0000014405391023
    -2.7246431783780007    4.6329208613402546   -0.0000007238762671
    -0.0000024604152802   -0.0000028900417114    9.0235277477452538
   Na   Mn   O    F 
     4     4     8     4
Direct
  0.9999845903832636  0.9999844343771613  0.0000002399281698
  0.9999843274661657  0.9999843459221438  0.4999999461900799
  0.3393762944537357  0.6606052083110328  0.2500002291108814
  0.6606052768905784  0.3393762294555032  0.7500001104887914
  0.3303554484158937  0.6696570899741161  0.6033353224987792
  0.6696571827210676  0.3303554159940560  0.3966621533531978
  0.6696539482170678  0.3303524221708116  0.1033378407456809
  0.3303556344703082  0.6696575070356090  0.8966642722706837
  0.5000148231640580  0.0000391395346355  0.9999555831210003
  0.0000447707470030  0.5000180330356940  0.0000426884077172
  0.5000110516531535  0.5000130430354588  0.9999993197405672
  0.5000161820589355  0.0000416084300312  0.5000439561405017
  0.0000427521054007  0.5000167845343597  0.4999570106968250
  0.5000112264882262  0.5000120674975221  0.5000005632902997
  0.8078357405933758  0.1917933114222876  0.2500001476480236
  0.1917930569901429  0.8078362611099337  0.7499999840396683
  0.8155343829182371  0.6526927955990729  0.2500002445043563
  0.1847495087535052  0.3472795465779299  0.7500000892149217
  0.3472805556964644  0.1847500235357060  0.2499999869939131
  0.6526932458134453  0.8155347324469346  0.7500003116159562
 
  0.00000000E+00  0.00000000E+00  0.00000000E+00
  0.00000000E+00  0.00000000E+00  0.00000000E+00
  0.00000000E+00  0.00000000E+00  0.00000000E+00
  0.00000000E+00  0.00000000E+00  0.00000000E+00
  0.00000000E+00  0.00000000E+00  0.00000000E+00
  0.00000000E+00  0.00000000E+00  0.00000000E+00
  0.00000000E+00  0.00000000E+00  0.00000000E+00
  0.00000000E+00  0.00000000E+00  0.00000000E+00
  0.00000000E+00  0.00000000E+00  0.00000000E+00
  0.00000000E+00  0.00000000E+00  0.00000000E+00
  0.00000000E+00  0.00000000E+00  0.00000000E+00
  0.00000000E+00  0.00000000E+00  0.00000000E+00
  0.00000000E+00  0.00000000E+00  0.00000000E+00
  0.00000000E+00  0.00000000E+00  0.00000000E+00
  0.00000000E+00  0.00000000E+00  0.00000000E+00
  0.00000000E+00  0.00000000E+00  0.00000000E+00
  0.00000000E+00  0.00000000E+00  0.00000000E+00
  0.00000000E+00  0.00000000E+00  0.00000000E+00
  0.00000000E+00  0.00000000E+00  0.00000000E+00
  0.00000000E+00  0.00000000E+00  0.00000000E+00
