Na4 Ni4 O8 F4                           
   1.00000000000000     
     5.1481851790616577   -0.1352494658620166    0.2954129613200149
    -2.6480660006662640    4.7520555270362470   -0.1413350086894833
     0.1805702860295698    0.3167293254702337    9.0302883230374036
   Na   Ni   O    F 
     4     4     8     4
Direct
  0.9677821414341322  0.9969483360159255  0.9498133965606985
  0.0679281498377968  0.0032133167525908  0.5470826521127934
  0.3580985306259045  0.7185474331407090  0.2350986299197012
  0.6524917548894313  0.3178259942200645  0.7625721481342254
  0.3802529022958469  0.6632603112056499  0.5913852681622238
  0.7196461467785282  0.3387609825642937  0.3820524562043581
  0.6147781514191014  0.3297977543906275  0.1211706366541700
  0.2926403987585727  0.6631915343297501  0.9035498842548916
  0.4619220502195373  0.0106729915154229  0.0058353324445997
  0.8781017954986109  0.5315768130486346  0.9706872263870069
  0.3570311383511319  0.4290774608837832  0.0362396928829923
  0.6608395780882982  0.0205125797865413  0.4880603866945649
  0.0645371647037971  0.5833103152206708  0.4610471599149631
  0.5609668475880782  0.4361888595998713  0.5405525915990194
  0.7586369759362751  0.6127563071242672  0.2509879372561179
  0.8563817357984221  0.2317422099030277  0.2116000645038055
  0.1195348234830620  0.3445043243986993  0.7476507903767060
  0.3394928851592608  0.1212517686468101  0.2986023522289737
  0.6569300223879343  0.7780091705186518  0.7644657192497619
  0.2320068067462710  0.8688515367340232  0.7315456744584267
 
  0.00000000E+00  0.00000000E+00  0.00000000E+00
  0.00000000E+00  0.00000000E+00  0.00000000E+00
  0.00000000E+00  0.00000000E+00  0.00000000E+00
  0.00000000E+00  0.00000000E+00  0.00000000E+00
  0.00000000E+00  0.00000000E+00  0.00000000E+00
  0.00000000E+00  0.00000000E+00  0.00000000E+00
  0.00000000E+00  0.00000000E+00  0.00000000E+00
  0.00000000E+00  0.00000000E+00  0.00000000E+00
  0.00000000E+00  0.00000000E+00  0.00000000E+00
  0.00000000E+00  0.00000000E+00  0.00000000E+00
  0.00000000E+00  0.00000000E+00  0.00000000E+00
  0.00000000E+00  0.00000000E+00  0.00000000E+00
  0.00000000E+00  0.00000000E+00  0.00000000E+00
  0.00000000E+00  0.00000000E+00  0.00000000E+00
  0.00000000E+00  0.00000000E+00  0.00000000E+00
  0.00000000E+00  0.00000000E+00  0.00000000E+00
  0.00000000E+00  0.00000000E+00  0.00000000E+00
  0.00000000E+00  0.00000000E+00  0.00000000E+00
  0.00000000E+00  0.00000000E+00  0.00000000E+00
  0.00000000E+00  0.00000000E+00  0.00000000E+00
