V8 O8 F16                               
   1.00000000000000     
     7.4599372535160970   -0.1123376287294465   -0.0016084645952442
    -0.1590016020519185    7.4923905332583738    0.0012705559921195
    -0.0015508753544914    0.0020210985180015    7.3171547543156157
   V    O    F 
     8     8    16
Direct
  0.9686010143438535  0.9978374726281637  0.9940692478401133
  0.0049694558062687  0.0352275254846972  0.4919634544686646
  0.9685606318385654  0.4978035989692632  0.0059379345945924
  0.0051380370993983  0.5351964974724968  0.5080574190580006
  0.4686546588508378  0.9974383156897553  0.0099213546362002
  0.4996386095107527  0.9911540768657392  0.5270101880358534
  0.4686449167710827  0.4974405431218383  0.9901267864642620
  0.4996435747701488  0.4911601805693790  0.4730058554728049
  0.4578188358962852  0.9555565236093573  0.7475044205069081
  0.7518400099627802  0.4997421768442297  0.0397954863047138
  0.4579334390512363  0.4553050721417584  0.2525302817096455
  0.2514286153955597  0.9976710495360690  0.0438624544573119
  0.2513982100243262  0.4979970171100260  0.9561426106950610
  0.7518074153453611  0.0000951059799459  0.9602558199805969
  0.0043212976261188  0.2501106834237913  0.4539688600756794
  0.0062497689765493  0.7501071125407385  0.5459882137848029
  0.9557243705536449  0.9417808688632092  0.2510800579426724
  0.2551511195610117  0.9974952426900976  0.4447276311094018
  0.2550567244161845  0.4952590212827259  0.5552621049104701
  0.7558639413517289  0.4980774905440715  0.4491196382883933
  0.0053469381699654  0.7477266773875078  0.9433623887791409
  0.5077702837934381  0.2482601346092968  0.9482789655824619
  0.0565618489718686  0.0487891378984839  0.7502295910990686
  0.0566872253172678  0.5486143352453882  0.2497997251774455
  0.9554437331828620  0.4419446447475290  0.7489461060039495
  0.5477837167479355  0.0470148858153994  0.2603292752395979
  0.5476069021668531  0.5471700928811593  0.7396718503340477
  0.7559099004987418  0.9957143300280572  0.5506089189396127
  0.0057045167357738  0.2476859639346335  0.0565830195559942
  0.5086202002444153  0.2482237438336962  0.5531057574384368
  0.5081684954505715  0.7482274363677934  0.0518184507699837
  0.5059515915686055  0.7481730418836799  0.4469361307441187
 
  0.00000000E+00  0.00000000E+00  0.00000000E+00
  0.00000000E+00  0.00000000E+00  0.00000000E+00
  0.00000000E+00  0.00000000E+00  0.00000000E+00
  0.00000000E+00  0.00000000E+00  0.00000000E+00
  0.00000000E+00  0.00000000E+00  0.00000000E+00
  0.00000000E+00  0.00000000E+00  0.00000000E+00
  0.00000000E+00  0.00000000E+00  0.00000000E+00
  0.00000000E+00  0.00000000E+00  0.00000000E+00
  0.00000000E+00  0.00000000E+00  0.00000000E+00
  0.00000000E+00  0.00000000E+00  0.00000000E+00
  0.00000000E+00  0.00000000E+00  0.00000000E+00
  0.00000000E+00  0.00000000E+00  0.00000000E+00
  0.00000000E+00  0.00000000E+00  0.00000000E+00
  0.00000000E+00  0.00000000E+00  0.00000000E+00
  0.00000000E+00  0.00000000E+00  0.00000000E+00
  0.00000000E+00  0.00000000E+00  0.00000000E+00
  0.00000000E+00  0.00000000E+00  0.00000000E+00
  0.00000000E+00  0.00000000E+00  0.00000000E+00
  0.00000000E+00  0.00000000E+00  0.00000000E+00
  0.00000000E+00  0.00000000E+00  0.00000000E+00
  0.00000000E+00  0.00000000E+00  0.00000000E+00
  0.00000000E+00  0.00000000E+00  0.00000000E+00
  0.00000000E+00  0.00000000E+00  0.00000000E+00
  0.00000000E+00  0.00000000E+00  0.00000000E+00
  0.00000000E+00  0.00000000E+00  0.00000000E+00
  0.00000000E+00  0.00000000E+00  0.00000000E+00
  0.00000000E+00  0.00000000E+00  0.00000000E+00
  0.00000000E+00  0.00000000E+00  0.00000000E+00
  0.00000000E+00  0.00000000E+00  0.00000000E+00
  0.00000000E+00  0.00000000E+00  0.00000000E+00
  0.00000000E+00  0.00000000E+00  0.00000000E+00
  0.00000000E+00  0.00000000E+00  0.00000000E+00
