Sodium tetrafluoroferrate(III)          
   1.00000000000000     
     7.8078873905781219   -0.0000164995181072    0.0424419602070192
    -0.0000112141991285    5.2823406847036116    0.0000032737821569
    -1.4967570152308705    0.0000077828049763    7.3098436994551061
   Na   Fe   F 
     4     4    16
Direct
  0.3655861513968617  0.7838357350702267  0.1087134183059035
  0.6344123510672901  0.2161854056439552  0.8912857257587703
  0.6344123429180186  0.2838146240718373  0.3912867527870034
  0.3655856905328747  0.7161624899507828  0.6087119414684992
  0.1740940495368264  0.2575689221965831  0.2989908677405282
  0.8259078958728026  0.7424281405400208  0.7010090867428147
  0.8259067888098812  0.7575718760252457  0.2010086970569134
  0.1740942017879732  0.2424311471691141  0.7989910127824373
  0.1694325336826807  0.1349660050029087  0.0492269954109474
  0.8305737899369205  0.8650455679948124  0.9507735937476269
  0.8305736008121869  0.6349526374682313  0.4507749704635131
  0.1694334891226035  0.3650342241428959  0.5492264695760340
  0.0381625764622271  0.5588584597999358  0.2022316678788272
  0.9618383554920271  0.4411583093344049  0.7977648533627857
  0.9618385374661287  0.0588394903558154  0.2977653711658448
  0.0381625174191953  0.9411414964000144  0.7022310873126187
  0.3735747360338948  0.4658488673815455  0.3122494874377537
  0.6264245207978263  0.5341522593056851  0.6877621583898943
  0.6264247293613110  0.9658533911298690  0.1877587128297051
  0.3735735585474700  0.0341520299148428  0.8122504679945948
  0.3177785373381923  0.9803696916310187  0.3765762059293465
  0.6822138867316809  0.0196105088909775  0.6234177903454139
  0.6822155732089215  0.4803852277702063  0.1234175666918134
  0.3177797276642025  0.5196335078090897  0.8765750908204168
 
  0.00000000E+00  0.00000000E+00  0.00000000E+00
  0.00000000E+00  0.00000000E+00  0.00000000E+00
  0.00000000E+00  0.00000000E+00  0.00000000E+00
  0.00000000E+00  0.00000000E+00  0.00000000E+00
  0.00000000E+00  0.00000000E+00  0.00000000E+00
  0.00000000E+00  0.00000000E+00  0.00000000E+00
  0.00000000E+00  0.00000000E+00  0.00000000E+00
  0.00000000E+00  0.00000000E+00  0.00000000E+00
  0.00000000E+00  0.00000000E+00  0.00000000E+00
  0.00000000E+00  0.00000000E+00  0.00000000E+00
  0.00000000E+00  0.00000000E+00  0.00000000E+00
  0.00000000E+00  0.00000000E+00  0.00000000E+00
  0.00000000E+00  0.00000000E+00  0.00000000E+00
  0.00000000E+00  0.00000000E+00  0.00000000E+00
  0.00000000E+00  0.00000000E+00  0.00000000E+00
  0.00000000E+00  0.00000000E+00  0.00000000E+00
  0.00000000E+00  0.00000000E+00  0.00000000E+00
  0.00000000E+00  0.00000000E+00  0.00000000E+00
  0.00000000E+00  0.00000000E+00  0.00000000E+00
  0.00000000E+00  0.00000000E+00  0.00000000E+00
  0.00000000E+00  0.00000000E+00  0.00000000E+00
  0.00000000E+00  0.00000000E+00  0.00000000E+00
  0.00000000E+00  0.00000000E+00  0.00000000E+00
  0.00000000E+00  0.00000000E+00  0.00000000E+00
