Na4 V4 O8 F4                            
   1.00000000000000     
     5.4509977193542669    0.0163914163894039    0.0001956724909889
    -2.7113024709517561    4.7292665315257878    0.0001584993335935
     0.0004322941825564    0.0006490491573768    9.2204926391745783
   Na   V    O    F 
     4     4     8     4
Direct
  0.0132095909551404  0.0144251599608852  0.9989599797258590
  0.0144282945074348  0.0132612638628098  0.4989218510975338
  0.3363944990533244  0.6527003573114692  0.2500621411695745
  0.6526629396898097  0.3362565907498318  0.7498739748145666
  0.3276456856560943  0.7023018490414031  0.6098570612948041
  0.7027575344062246  0.3271789495674383  0.3904405249089054
  0.7022934218608535  0.3276398916770868  0.1098580070282204
  0.3271113647710081  0.7026995044007756  0.8904621916424310
  0.5764917381140581  0.0213066942929241  0.9955591851741368
  0.0204797150286505  0.5772498058255641  0.0044197223323455
  0.5772738407933263  0.0205257413327901  0.5044380794006901
  0.0213285804719667  0.5765578175596320  0.4955656150452841
  0.7053815475426536  0.5744625552911033  0.2502647069503849
  0.5745178903812077  0.7054149154776723  0.7502577470998226
  0.9012118733665002  0.2470213281327102  0.2498951681854623
  0.2470389784540211  0.9012123165537553  0.7499022609492004
  0.4339758397328916  0.4346974660757513  0.0003009290019436
  0.4346648416160828  0.4340175696210647  0.5002383770181255
  0.0696583425517855  0.3614795695829514  0.7503486904433737
  0.3614734810469586  0.0695906536823818  0.2503737867173358
 
  0.00000000E+00  0.00000000E+00  0.00000000E+00
  0.00000000E+00  0.00000000E+00  0.00000000E+00
  0.00000000E+00  0.00000000E+00  0.00000000E+00
  0.00000000E+00  0.00000000E+00  0.00000000E+00
  0.00000000E+00  0.00000000E+00  0.00000000E+00
  0.00000000E+00  0.00000000E+00  0.00000000E+00
  0.00000000E+00  0.00000000E+00  0.00000000E+00
  0.00000000E+00  0.00000000E+00  0.00000000E+00
  0.00000000E+00  0.00000000E+00  0.00000000E+00
  0.00000000E+00  0.00000000E+00  0.00000000E+00
  0.00000000E+00  0.00000000E+00  0.00000000E+00
  0.00000000E+00  0.00000000E+00  0.00000000E+00
  0.00000000E+00  0.00000000E+00  0.00000000E+00
  0.00000000E+00  0.00000000E+00  0.00000000E+00
  0.00000000E+00  0.00000000E+00  0.00000000E+00
  0.00000000E+00  0.00000000E+00  0.00000000E+00
  0.00000000E+00  0.00000000E+00  0.00000000E+00
  0.00000000E+00  0.00000000E+00  0.00000000E+00
  0.00000000E+00  0.00000000E+00  0.00000000E+00
  0.00000000E+00  0.00000000E+00  0.00000000E+00
