Na4 Co4 O8 F4                           
   1.00000000000000     
     5.3929606315607010    0.3824285308839099    0.0189842370928410
     0.3974583551351409    5.4775707541507908    0.0078674447050876
     0.0379942643283225    0.0059733338140331    7.1106896332614387
   Na   Co   O    F 
     4     4     8     4
Direct
  0.9841465020024074  0.0390673821072125  0.2496742115243428
  0.0160827104432588  0.9609806472401891  0.7501120912292910
  0.5067028311719770  0.4542751763318673  0.7483244433488329
  0.4922826942872562  0.5461088242621005  0.2522035144516418
  0.5002016149991392  0.9999026767698380  0.9997875161538079
  0.9998110334936315  0.5001147707697642  0.0001184079992697
  0.5008535532704119 -0.0006803012159468  0.4995944938701603
  0.9997339908357435  0.4998069331856404  0.5004609084775978
  0.0693503144130368  0.4836983672069466  0.2573107927482765
  0.9301169923438799  0.5168314453021632  0.7429912831482715
  0.5732491506246862  0.0119570289224159  0.7616438053603768
  0.4268331068195326  0.9877511314399348  0.2380145659099760
  0.2001602875139906  0.2218602680102870  0.9617532580446051
  0.7997362044821554  0.7782349623864582  0.0387585068065072
  0.7749635253482352  0.7949465470066979  0.4631643150657380
  0.2259168226629396  0.2047630482772041  0.5361284279614473
  0.7037919417112808  0.2928664445355090  0.0431432356817601
  0.2958584052623064  0.7073665623578506  0.9569177207997248
  0.2924611762758936  0.7093226589374070  0.5382840078223856
  0.7077471420382302  0.2908254261664675  0.4616144935959943
 
  0.00000000E+00  0.00000000E+00  0.00000000E+00
  0.00000000E+00  0.00000000E+00  0.00000000E+00
  0.00000000E+00  0.00000000E+00  0.00000000E+00
  0.00000000E+00  0.00000000E+00  0.00000000E+00
  0.00000000E+00  0.00000000E+00  0.00000000E+00
  0.00000000E+00  0.00000000E+00  0.00000000E+00
  0.00000000E+00  0.00000000E+00  0.00000000E+00
  0.00000000E+00  0.00000000E+00  0.00000000E+00
  0.00000000E+00  0.00000000E+00  0.00000000E+00
  0.00000000E+00  0.00000000E+00  0.00000000E+00
  0.00000000E+00  0.00000000E+00  0.00000000E+00
  0.00000000E+00  0.00000000E+00  0.00000000E+00
  0.00000000E+00  0.00000000E+00  0.00000000E+00
  0.00000000E+00  0.00000000E+00  0.00000000E+00
  0.00000000E+00  0.00000000E+00  0.00000000E+00
  0.00000000E+00  0.00000000E+00  0.00000000E+00
  0.00000000E+00  0.00000000E+00  0.00000000E+00
  0.00000000E+00  0.00000000E+00  0.00000000E+00
  0.00000000E+00  0.00000000E+00  0.00000000E+00
  0.00000000E+00  0.00000000E+00  0.00000000E+00
