Ni4 O4 F8                               
   1.00000000000000     
     4.7722392791427106    0.0775742284904024   -0.0715558756902019
    -2.5257430191649015    4.0395780343551939   -0.0326821974771216
     0.1427257485025002    0.1815583695907068    9.2597292934279309
   Ni   O    F 
     4     4     8
Direct
  0.3421607502864333  0.6619332942713148  0.6158093103654803
  0.6685732902352107  0.2987111979450277  0.4009667580908223
  0.6642253005061544  0.3447032695616983  0.1166666264894535
  0.3011803489233165  0.6715153746482684  0.8991848547787468
  0.9750172748967297  0.6740860204235278  0.0087829743885082
  0.6726752166145958  0.9721846576465335  0.5088671892584721
  0.9539455393915793  0.3261415880384495  0.2364602318416667
  0.3252742000325940  0.9535519610064616  0.7349164945191157
  0.6658731397827571  0.0474016525006163  0.9984933998157210
  0.3524616780288666  0.3498668961626690  0.0050172886317633
  0.0464637290637466  0.6650784854415682  0.4977639393116545
  0.3456141804738194  0.3488565074544296  0.5045321920683169
  0.6785451319490881  0.6271877164063617  0.2491722390098279
  0.0251690945187916  0.3569987195408925  0.7374730216273537
  0.3583966846395879  0.0270933234622118  0.2379286415731914
  0.6244244406567355  0.6746893354899680  0.7479648382299130
 
  0.00000000E+00  0.00000000E+00  0.00000000E+00
  0.00000000E+00  0.00000000E+00  0.00000000E+00
  0.00000000E+00  0.00000000E+00  0.00000000E+00
  0.00000000E+00  0.00000000E+00  0.00000000E+00
  0.00000000E+00  0.00000000E+00  0.00000000E+00
  0.00000000E+00  0.00000000E+00  0.00000000E+00
  0.00000000E+00  0.00000000E+00  0.00000000E+00
  0.00000000E+00  0.00000000E+00  0.00000000E+00
  0.00000000E+00  0.00000000E+00  0.00000000E+00
  0.00000000E+00  0.00000000E+00  0.00000000E+00
  0.00000000E+00  0.00000000E+00  0.00000000E+00
  0.00000000E+00  0.00000000E+00  0.00000000E+00
  0.00000000E+00  0.00000000E+00  0.00000000E+00
  0.00000000E+00  0.00000000E+00  0.00000000E+00
  0.00000000E+00  0.00000000E+00  0.00000000E+00
  0.00000000E+00  0.00000000E+00  0.00000000E+00
