Co8 O8 F16                              
   1.00000000000000     
     7.6230637198671536   -0.0041904801066392   -0.0076324466353754
     0.0041993195977440    7.6453298690815688   -0.0049820774406363
     0.0066595557746074    0.0047834767957193    7.6122078476184836
   Co   O    F 
     8     8    16
Direct
 -0.0121130993433700  0.0019419301832906  0.9967679992567189
  0.0061947715831037  0.0014153563728357  0.4976143325376824
  0.9977505467937877  0.5015676131374025 -0.0014219056596665
  0.9930884334803977  0.5011900273063773  0.4919081518943338
  0.4886564725627259  0.0015011747007717  0.0000814243934106
  0.5071288662973794  0.9963285394385080  0.5000290831328799
  0.4989977327251317  0.5015038241972979  0.0012674583253688
  0.4941652199668569  0.4965024580792868  0.5030050816719240
  0.9969837644148936  0.5008084713338887  0.2515419565267624
  0.4964236760554667  0.4985502655161251  0.2506193793443300
  0.4949859906674234  0.4993577531336643  0.7553403137102414
  0.2539091504838319  0.0016951258670338  0.9988992317028923
  0.7517474354374045  0.0021538876547956  0.9979813715053338
  0.7601987386744748  0.9988701744216066  0.4988075171859510
  0.9905313831922857  0.2504905814865557  0.4960074978224872
  0.9870871673737320  0.7504508584013064  0.4944790928917389
  0.0247337617156663  0.0029537702175331  0.2402062791051007
  0.4933208812746077  0.9974952301204664  0.7427677548161458
  0.2504801560172924  0.9952935333379695  0.4992294777287932
  0.2469353369081937  0.4990844177461926  0.5066477853731313
  0.7510486511896163  0.5012208562505440  0.9988700682822382
  0.7421575397574461  0.4960763261888610  0.5088540890147987
  0.9937553365735851  0.7495430131140947  0.0041356635892617
  0.5146367050727446  0.2471099229302904  0.0012100343558984
  0.0244782621222631  0.0003691694554686  0.7552620083462898
  0.9985643307073293  0.5025653982004004  0.7467894850796696
  0.4940453148937252  0.9987434137100893  0.2575340796272301
  0.2466944567665042  0.5022349271995881  0.0002199543858227
  0.9948353954159670  0.2541590315322926  0.0012612101034979
  0.5004578545279663  0.2469105936366296  0.5013026052745587
  0.5151500967007797  0.7555229303813330  0.0023384899020579
  0.5029696699907880  0.7463894247474769  0.5004430287731028
 
  0.00000000E+00  0.00000000E+00  0.00000000E+00
  0.00000000E+00  0.00000000E+00  0.00000000E+00
  0.00000000E+00  0.00000000E+00  0.00000000E+00
  0.00000000E+00  0.00000000E+00  0.00000000E+00
  0.00000000E+00  0.00000000E+00  0.00000000E+00
  0.00000000E+00  0.00000000E+00  0.00000000E+00
  0.00000000E+00  0.00000000E+00  0.00000000E+00
  0.00000000E+00  0.00000000E+00  0.00000000E+00
  0.00000000E+00  0.00000000E+00  0.00000000E+00
  0.00000000E+00  0.00000000E+00  0.00000000E+00
  0.00000000E+00  0.00000000E+00  0.00000000E+00
  0.00000000E+00  0.00000000E+00  0.00000000E+00
  0.00000000E+00  0.00000000E+00  0.00000000E+00
  0.00000000E+00  0.00000000E+00  0.00000000E+00
  0.00000000E+00  0.00000000E+00  0.00000000E+00
  0.00000000E+00  0.00000000E+00  0.00000000E+00
  0.00000000E+00  0.00000000E+00  0.00000000E+00
  0.00000000E+00  0.00000000E+00  0.00000000E+00
  0.00000000E+00  0.00000000E+00  0.00000000E+00
  0.00000000E+00  0.00000000E+00  0.00000000E+00
  0.00000000E+00  0.00000000E+00  0.00000000E+00
  0.00000000E+00  0.00000000E+00  0.00000000E+00
  0.00000000E+00  0.00000000E+00  0.00000000E+00
  0.00000000E+00  0.00000000E+00  0.00000000E+00
  0.00000000E+00  0.00000000E+00  0.00000000E+00
  0.00000000E+00  0.00000000E+00  0.00000000E+00
  0.00000000E+00  0.00000000E+00  0.00000000E+00
  0.00000000E+00  0.00000000E+00  0.00000000E+00
  0.00000000E+00  0.00000000E+00  0.00000000E+00
  0.00000000E+00  0.00000000E+00  0.00000000E+00
  0.00000000E+00  0.00000000E+00  0.00000000E+00
  0.00000000E+00  0.00000000E+00  0.00000000E+00
