Na4 V4 O8 F4                            
   1.00000000000000     
     5.3230634063880347    0.1410197975910569    0.0240190080177055
     0.1497177460630083    5.3741916602974742    0.0092180288860610
     0.0180972307838865   -0.0033892854641849    7.5023477122210558
   Na   V    O    F 
     4     4     8     4
Direct
  0.9982645772849106  0.0171865668121662  0.2464188194205941
  0.0151862623662350  0.9706222769177674  0.7575950318603641
  0.4967225641767959  0.4786180728063735  0.7606711503647987
  0.4994767175342423  0.5472787656414859  0.2425182303574724
  0.5292429183493900  0.0285445920730793  0.9892120734811246
  0.9919928169874653  0.4897341603579382  0.0053052962935338
  0.5015272947036524  0.0003733558659852  0.5113967235042413
  0.9954153567266764  0.4973801399493444  0.5001871372243486
  0.0585286180586664  0.4931569662111495  0.2608509520974026
  0.9378023934317781  0.5022073151887738  0.7361120686667294
  0.5711909285091503  0.0177948547493228  0.7529130735729322
  0.7149830481914099  0.2730873658370944  0.0491760714220600
  0.2212612529190520  0.2324717797618225  0.9694470215550809
  0.7859982691938291  0.7708991169539485  0.0251970302991894
  0.7715876831353509  0.7982976195392223  0.4627844962584209
  0.2160492081106917  0.1922740157883078  0.5228148474781185
  0.4182710525409587  0.9671286771698927  0.2437962100441209
  0.2861374078389083  0.7243715267800879  0.9635618235045731
  0.2991532260392841  0.6982651705009577  0.5438730650101364
  0.6912084039015459  0.3003076610952654  0.4561688775847512
 
  0.00000000E+00  0.00000000E+00  0.00000000E+00
  0.00000000E+00  0.00000000E+00  0.00000000E+00
  0.00000000E+00  0.00000000E+00  0.00000000E+00
  0.00000000E+00  0.00000000E+00  0.00000000E+00
  0.00000000E+00  0.00000000E+00  0.00000000E+00
  0.00000000E+00  0.00000000E+00  0.00000000E+00
  0.00000000E+00  0.00000000E+00  0.00000000E+00
  0.00000000E+00  0.00000000E+00  0.00000000E+00
  0.00000000E+00  0.00000000E+00  0.00000000E+00
  0.00000000E+00  0.00000000E+00  0.00000000E+00
  0.00000000E+00  0.00000000E+00  0.00000000E+00
  0.00000000E+00  0.00000000E+00  0.00000000E+00
  0.00000000E+00  0.00000000E+00  0.00000000E+00
  0.00000000E+00  0.00000000E+00  0.00000000E+00
  0.00000000E+00  0.00000000E+00  0.00000000E+00
  0.00000000E+00  0.00000000E+00  0.00000000E+00
  0.00000000E+00  0.00000000E+00  0.00000000E+00
  0.00000000E+00  0.00000000E+00  0.00000000E+00
  0.00000000E+00  0.00000000E+00  0.00000000E+00
  0.00000000E+00  0.00000000E+00  0.00000000E+00
