Na1 Ti16 O16 F32
1.0
10.880990 0.134113 -0.000115
0.130687 10.961066 0.000342
-0.000071 0.000241 7.628994
Na Ti O F
1 16 16 32
direct
0.495196 0.487871 0.749148 Na
0.240932 0.005096 0.012751 Ti
0.238812 0.505578 0.014656 Ti
0.743594 0.003634 0.013195 Ti
0.743474 0.506579 0.014262 Ti
0.004624 0.241849 0.984579 Ti
0.004904 0.743358 0.984766 Ti
0.505983 0.238083 0.986645 Ti
0.504842 0.743795 0.985752 Ti
0.240959 0.005094 0.486823 Ti
0.238833 0.505551 0.485003 Ti
0.743672 0.003549 0.486449 Ti
0.743527 0.506583 0.485690 Ti
0.004678 0.241849 0.515014 Ti
0.004944 0.743328 0.515015 Ti
0.506070 0.237956 0.513148 Ti
0.504865 0.743823 0.514090 Ti
0.115373 0.115240 0.985250 O
0.113681 0.614297 0.985848 O
0.615321 0.113562 0.985801 O
0.610958 0.610708 0.976538 O
0.115430 0.115289 0.514403 O
0.113676 0.614283 0.513758 O
0.615304 0.113433 0.514184 O
0.610956 0.610686 0.523283 O
0.484188 0.253512 0.749940 O
0.478140 0.746440 0.749922 O
0.980117 0.249606 0.749815 O
0.981594 0.750282 0.749843 O
0.234151 0.490480 0.249851 O
0.234988 0.994094 0.249839 O
0.732200 0.497466 0.250008 O
0.734396 0.992491 0.249924 O
0.363440 0.137282 0.021342 F
0.362922 0.636744 0.023487 F
0.863783 0.135850 0.022750 F
0.861517 0.638725 0.021318 F
0.138142 0.363387 0.973358 F
0.137932 0.862711 0.977571 F
0.636147 0.364559 0.975169 F
0.638820 0.861138 0.976382 F
0.391424 0.392447 0.004424 F
0.388905 0.886588 0.015876 F
0.885845 0.387321 0.015070 F
0.888086 0.887182 0.014431 F
0.138226 0.363358 0.526408 F
0.137868 0.862789 0.522050 F
0.636267 0.364501 0.525030 F
0.638897 0.861070 0.523520 F
0.363427 0.137314 0.478443 F
0.362893 0.636786 0.476509 F
0.863864 0.135789 0.476915 F
0.861499 0.638774 0.478525 F
0.391601 0.392571 0.495419 F
0.388959 0.886648 0.483845 F
0.885896 0.387390 0.484771 F
0.888026 0.887080 0.485218 F
0.014734 0.257553 0.249840 F
0.013574 0.755214 0.249840 F
0.511999 0.258443 0.250052 F
0.518375 0.752297 0.249977 F
0.272365 -0.000406 0.749813 F
0.278056 0.506222 0.749865 F
0.771359 0.999911 0.749899 F
0.769041 0.499142 0.749995 F
