Cr8 O8 F16                              
   1.00000000000000     
     7.0757936987136345    0.0049769291970213    0.0017296011215296
     0.0215225409105510    7.5537856280439213   -0.0013259691004168
    -0.0022926133788266    0.0006210567760419    7.5995460507413517
   Cr   O    F 
     8     8    16
Direct
 -0.0009591152556429  0.9928362142021929 -0.0000726387525875
  0.0000184390603569  0.9996661894306527  0.4999425497779303
  0.0016690894314435  0.4924753663678201  0.0000403319452378
 -0.0001198335540086  0.4996543758813533  0.4999879225915380
  0.4978886482751658  0.0086155376161947 -0.0000802330542734
  0.4999686029094187  0.0082130771886753  0.4999094913554549
  0.4901132511757987  0.5365743442677703  0.9999370210823417
  0.5000274710079448  0.5082748175554470  0.5000315015924992
  0.2453498802500280  0.0052774899517290  0.5004364310219667
  0.2540287464352278  0.5024025693625264  0.5006349878672474
  0.7463058748864010  0.5061088063174646  0.4994922371852080
  0.2611838929006967  0.9586550823676498  0.9994445395945172
  0.2581767876976827  0.5349391248104471  0.9994001215193397
  0.7408136803122826  0.0272708682716860  0.0004709559895132
  0.7547569165166834  0.0018533627362294  0.4994671743157011
  0.5534896484992627  0.7415883582243241  0.9999736021768180
  0.0013679927800895  0.9935785171964372  0.2501980609017474
  0.5011588501418005  0.0033274029429057  0.7498590828200140
  0.7401579143616257  0.4392643142511866  0.0010313391962128
  0.9539147562513446  0.7420571345789115  0.0001107538991103
  0.4537063257384626  0.2475382418161297  0.9997292213783656
 -0.0001075318362606  0.9939106470351164  0.7496320381457385
  0.9977548435677736  0.4952938838067186  0.2503848569296308
  0.9962860456659369  0.4950092694936370  0.7497795664955770
  0.4994695595478326  0.0033129870132779  0.2499894333317077
  0.5028682731333027  0.5031701040022930  0.2473333623058226
  0.5046842701624658  0.5028692651385220  0.7527138235196783
  0.0439678965147188  0.2421631090904378  0.0002146724550837
  0.9980739027080363  0.2502067260930071  0.4999770335820058
  0.0032766615513801  0.7503623449439025  0.5003572078611219
  0.5031845350349921  0.2571300472510299  0.4997133867807242
  0.4975237241277712  0.7564004207943169  0.4999601641890075
 
  0.00000000E+00  0.00000000E+00  0.00000000E+00
  0.00000000E+00  0.00000000E+00  0.00000000E+00
  0.00000000E+00  0.00000000E+00  0.00000000E+00
  0.00000000E+00  0.00000000E+00  0.00000000E+00
  0.00000000E+00  0.00000000E+00  0.00000000E+00
  0.00000000E+00  0.00000000E+00  0.00000000E+00
  0.00000000E+00  0.00000000E+00  0.00000000E+00
  0.00000000E+00  0.00000000E+00  0.00000000E+00
  0.00000000E+00  0.00000000E+00  0.00000000E+00
  0.00000000E+00  0.00000000E+00  0.00000000E+00
  0.00000000E+00  0.00000000E+00  0.00000000E+00
  0.00000000E+00  0.00000000E+00  0.00000000E+00
  0.00000000E+00  0.00000000E+00  0.00000000E+00
  0.00000000E+00  0.00000000E+00  0.00000000E+00
  0.00000000E+00  0.00000000E+00  0.00000000E+00
  0.00000000E+00  0.00000000E+00  0.00000000E+00
  0.00000000E+00  0.00000000E+00  0.00000000E+00
  0.00000000E+00  0.00000000E+00  0.00000000E+00
  0.00000000E+00  0.00000000E+00  0.00000000E+00
  0.00000000E+00  0.00000000E+00  0.00000000E+00
  0.00000000E+00  0.00000000E+00  0.00000000E+00
  0.00000000E+00  0.00000000E+00  0.00000000E+00
  0.00000000E+00  0.00000000E+00  0.00000000E+00
  0.00000000E+00  0.00000000E+00  0.00000000E+00
  0.00000000E+00  0.00000000E+00  0.00000000E+00
  0.00000000E+00  0.00000000E+00  0.00000000E+00
  0.00000000E+00  0.00000000E+00  0.00000000E+00
  0.00000000E+00  0.00000000E+00  0.00000000E+00
  0.00000000E+00  0.00000000E+00  0.00000000E+00
  0.00000000E+00  0.00000000E+00  0.00000000E+00
  0.00000000E+00  0.00000000E+00  0.00000000E+00
  0.00000000E+00  0.00000000E+00  0.00000000E+00
