Na4 V4 O8 F4                            
   1.00000000000000     
     5.2425450273746526    0.0008944578120883    0.0233823089089174
    -0.0004453904346404    5.3077483600053865   -0.0049870445712119
    -0.0030064197880851   -0.0008970159099959    7.7826943349533941
   Na   V    O    F 
     4     4     8     4
Direct
  0.9871594858474282  0.0277507678261131  0.2313020618725048
  0.0210067172707227  0.9723274886247566  0.7498219150291519
  0.4867795797341259  0.4686104976395669  0.7411614409335670
  0.5156401750858635  0.5170290807207962  0.2454603174128636
  0.5002396905847135  0.9776802959220348  0.9765025494934392
  0.0156337217238942  0.5039724464828694  0.0006296640868300
  0.5129087012118703  0.9881159549433178  0.4693533543643156
  0.9910512169792582  0.5159732000604222  0.5012980129122369
  0.2808738153775394  0.7166756773230816  0.9583865554338828
  0.1981349360298523  0.2207729994669734  0.9714442013755260
  0.7770004991713151  0.7548603535761984  0.0415461133489430
  0.2873081914684903  0.7418938005371558  0.5395251455808960
  0.7089548035023867  0.2775031852629084  0.4716588812833820
  0.7782723720739924  0.7909564058348622  0.4550607431182030
  0.5815305504566410  0.0279499472387172  0.7678636336186031
  0.4223823156123387  0.9961355212836267  0.2585845386632712
  0.7150795137651471  0.2697752050049544  0.0588361784882636
  0.2182768899374352  0.2278369694494273  0.5541423514269965
  0.0903726361988859  0.4809468909251535  0.2521251009071719
  0.9113941879681065  0.5232333118770569  0.7552972406499663
 
  0.00000000E+00  0.00000000E+00  0.00000000E+00
  0.00000000E+00  0.00000000E+00  0.00000000E+00
  0.00000000E+00  0.00000000E+00  0.00000000E+00
  0.00000000E+00  0.00000000E+00  0.00000000E+00
  0.00000000E+00  0.00000000E+00  0.00000000E+00
  0.00000000E+00  0.00000000E+00  0.00000000E+00
  0.00000000E+00  0.00000000E+00  0.00000000E+00
  0.00000000E+00  0.00000000E+00  0.00000000E+00
  0.00000000E+00  0.00000000E+00  0.00000000E+00
  0.00000000E+00  0.00000000E+00  0.00000000E+00
  0.00000000E+00  0.00000000E+00  0.00000000E+00
  0.00000000E+00  0.00000000E+00  0.00000000E+00
  0.00000000E+00  0.00000000E+00  0.00000000E+00
  0.00000000E+00  0.00000000E+00  0.00000000E+00
  0.00000000E+00  0.00000000E+00  0.00000000E+00
  0.00000000E+00  0.00000000E+00  0.00000000E+00
  0.00000000E+00  0.00000000E+00  0.00000000E+00
  0.00000000E+00  0.00000000E+00  0.00000000E+00
  0.00000000E+00  0.00000000E+00  0.00000000E+00
  0.00000000E+00  0.00000000E+00  0.00000000E+00
