Dimanganese(VII) oxide                  
   1.00000000000000     
     6.6700439420826854   -0.0000047710641673    0.0484904916584169
    -0.0000119448648598   16.4799496127495715   -0.0000030803788187
    -1.5750294065517516   -0.0000006357108698    8.9545447835996779
   Mn   O 
    16    56
Direct
  0.3591251861857618  0.2540852161154580  0.5479872425342772
  0.6408791838766074  0.7459073126978831  0.4520259598246815
  0.6408781781641570  0.7540918974374641  0.9520240575406765
  0.3591239787000162  0.2459151678609246  0.0479861733674793
  0.9212373013451696  0.2540570994678599  0.3874758058083594
  0.0787353098493123  0.7459532840147649  0.6125166378788820
  0.0787348177576225  0.7540465183703252  0.1125176408866529
  0.9212360717982438  0.2459420639289848  0.8874767328310486
  0.7869802674405049  0.5029133259594768  0.6736809839210629
  0.2130382537964035  0.4970979447691049  0.3262986268562531
  0.2130377034492397  0.0029019422357001  0.8262998168223773
  0.7869819397367128  0.9970871413398340  0.1736798336863448
  0.2246059503816082  0.5022379209817730  0.8318368006995388
  0.7754007242496863  0.4977595599683398  0.1681563522631532
  0.7754022861406068  0.0022413085501940  0.6681553057390175
  0.2246051258789894  0.9977616953486612  0.3318371395060555
  0.1397193766983706  0.2021178457015409  0.4683595871596598
  0.8602614857100924  0.7978941148439403  0.5316131441015600
  0.8602621907099310  0.7021068705763055  0.0316098775817612
  0.1397148841064049  0.2978827461946954  0.9683624936415506
  0.4286188260431157  0.3086827043623797  0.4240821816267333
  0.5715233253802464  0.6912965747330444  0.5759862493361868
  0.5715179434564388  0.8087034554741405  0.0759864784928566
  0.4286137456586118  0.1913169013954130  0.9240754858183479
  0.5254747601777271  0.1897049018795198  0.6083181664486366
  0.4744360918355499  0.8102609164128631  0.3917524719932823
  0.4744336450964678  0.6897372874443434  0.8917507434712847
  0.5254764144647974  0.3102957712921617  0.1083204316615487
  0.3038042588684301  0.3083003041920839  0.6777209770010056
  0.6961673641564770  0.6917044206080711  0.3222697170490987
  0.6961597419391677  0.8082938988352599  0.8222714051901244
  0.3038078070219337  0.1917013946410487  0.1777162730675959
  0.8570862055350985  0.3120203549953439  0.5085881409749142
  0.1429703400814282  0.6880130888445842  0.4913991624069137
  0.1429683882611184  0.8119877351488017  0.9914027216130350
  0.8570851333333188  0.1879801052732009  0.0085879585041828
  0.7514618270147502  0.1900585589594950  0.3323769971145288
  0.2484746237324788  0.8099589255550345  0.6676570276656670
  0.2484760832765658  0.6900412881393678  0.1676548458110274
  0.7514618838391730  0.3099416011710897  0.8323795986435877
  0.9754213605552003  0.3051509801703431  0.2533535861187339
  0.0245222480717839  0.6948396521332665  0.7466103356088732
  0.0245204681152521  0.8051605890168430  0.2466123296761326
  0.9754226886083175  0.1948466940883568  0.7533539465513813
  0.0051624647893795  0.4503268484348055  0.7529438147233145
  0.9948439795358278  0.5496774579535367  0.2470259713517416
  0.9948449116315827  0.9503220843572456  0.7470247403821538
  0.0051628488415876  0.0496736375306060  0.2529439774949373
  0.8399229200389997  0.5545360435280878  0.5397896902243652
  0.1600572185569065  0.4454498714432483  0.4601518982414070
  0.1600559321054367  0.0545499420891173  0.9601545480184819
  0.8399245292104885  0.9454630606216956  0.0397886885578354
  0.6161891975330720  0.4393809052968352  0.6187252429925040
  0.3837895710907978  0.5606398183485567  0.3813075175292960
  0.3837906027459878  0.9393599489727403  0.8813068361741911
  0.6161920201298992  0.0606199674912857  0.1187250579094551
  0.7241751676706215  0.5604579317626693  0.7960452867484031
  0.2759189299293880  0.4395760137558818  0.2039218145934933
  0.2759163629207467  0.0604239822903536  0.7039255480437531
  0.7241735692943022  0.9395452335581154  0.2960431537090736
  0.2944401152983482  0.5565334453357215  0.7077078040586925
  0.7056929507618677  0.4434322485256585  0.2923069370287797
  0.7056950800871415  0.0565687206092275  0.7923082878925033
  0.2944383693341244  0.9434642679390782  0.2077073993462526
  0.3908402654833660  0.4378808251859086  0.8925862227112987
  0.6090547457798470  0.5620867676149441  0.1074644787960148
  0.6090585481929360  0.9379132965259284  0.6074613980301686
  0.3908395214053104  0.0621188053964451  0.3925885544983367
  0.1696917201049749  0.5568985352264518  0.9610805665585506
  0.8302853376275720  0.4431210149378660  0.0388786316751758
  0.8302872518266258  0.0568772797821339  0.5388779015426135
  0.1696903795739833  0.9431029643565614  0.4610805866711215
 
  0.00000000E+00  0.00000000E+00  0.00000000E+00
  0.00000000E+00  0.00000000E+00  0.00000000E+00
  0.00000000E+00  0.00000000E+00  0.00000000E+00
  0.00000000E+00  0.00000000E+00  0.00000000E+00
  0.00000000E+00  0.00000000E+00  0.00000000E+00
  0.00000000E+00  0.00000000E+00  0.00000000E+00
  0.00000000E+00  0.00000000E+00  0.00000000E+00
  0.00000000E+00  0.00000000E+00  0.00000000E+00
  0.00000000E+00  0.00000000E+00  0.00000000E+00
  0.00000000E+00  0.00000000E+00  0.00000000E+00
  0.00000000E+00  0.00000000E+00  0.00000000E+00
  0.00000000E+00  0.00000000E+00  0.00000000E+00
  0.00000000E+00  0.00000000E+00  0.00000000E+00
  0.00000000E+00  0.00000000E+00  0.00000000E+00
  0.00000000E+00  0.00000000E+00  0.00000000E+00
  0.00000000E+00  0.00000000E+00  0.00000000E+00
  0.00000000E+00  0.00000000E+00  0.00000000E+00
  0.00000000E+00  0.00000000E+00  0.00000000E+00
  0.00000000E+00  0.00000000E+00  0.00000000E+00
  0.00000000E+00  0.00000000E+00  0.00000000E+00
  0.00000000E+00  0.00000000E+00  0.00000000E+00
  0.00000000E+00  0.00000000E+00  0.00000000E+00
  0.00000000E+00  0.00000000E+00  0.00000000E+00
  0.00000000E+00  0.00000000E+00  0.00000000E+00
  0.00000000E+00  0.00000000E+00  0.00000000E+00
  0.00000000E+00  0.00000000E+00  0.00000000E+00
  0.00000000E+00  0.00000000E+00  0.00000000E+00
  0.00000000E+00  0.00000000E+00  0.00000000E+00
  0.00000000E+00  0.00000000E+00  0.00000000E+00
  0.00000000E+00  0.00000000E+00  0.00000000E+00
  0.00000000E+00  0.00000000E+00  0.00000000E+00
  0.00000000E+00  0.00000000E+00  0.00000000E+00
  0.00000000E+00  0.00000000E+00  0.00000000E+00
  0.00000000E+00  0.00000000E+00  0.00000000E+00
  0.00000000E+00  0.00000000E+00  0.00000000E+00
  0.00000000E+00  0.00000000E+00  0.00000000E+00
  0.00000000E+00  0.00000000E+00  0.00000000E+00
  0.00000000E+00  0.00000000E+00  0.00000000E+00
  0.00000000E+00  0.00000000E+00  0.00000000E+00
  0.00000000E+00  0.00000000E+00  0.00000000E+00
  0.00000000E+00  0.00000000E+00  0.00000000E+00
  0.00000000E+00  0.00000000E+00  0.00000000E+00
  0.00000000E+00  0.00000000E+00  0.00000000E+00
  0.00000000E+00  0.00000000E+00  0.00000000E+00
  0.00000000E+00  0.00000000E+00  0.00000000E+00
  0.00000000E+00  0.00000000E+00  0.00000000E+00
  0.00000000E+00  0.00000000E+00  0.00000000E+00
  0.00000000E+00  0.00000000E+00  0.00000000E+00
  0.00000000E+00  0.00000000E+00  0.00000000E+00
  0.00000000E+00  0.00000000E+00  0.00000000E+00
  0.00000000E+00  0.00000000E+00  0.00000000E+00
  0.00000000E+00  0.00000000E+00  0.00000000E+00
  0.00000000E+00  0.00000000E+00  0.00000000E+00
  0.00000000E+00  0.00000000E+00  0.00000000E+00
  0.00000000E+00  0.00000000E+00  0.00000000E+00
  0.00000000E+00  0.00000000E+00  0.00000000E+00
  0.00000000E+00  0.00000000E+00  0.00000000E+00
  0.00000000E+00  0.00000000E+00  0.00000000E+00
  0.00000000E+00  0.00000000E+00  0.00000000E+00
  0.00000000E+00  0.00000000E+00  0.00000000E+00
  0.00000000E+00  0.00000000E+00  0.00000000E+00
  0.00000000E+00  0.00000000E+00  0.00000000E+00
  0.00000000E+00  0.00000000E+00  0.00000000E+00
  0.00000000E+00  0.00000000E+00  0.00000000E+00
  0.00000000E+00  0.00000000E+00  0.00000000E+00
  0.00000000E+00  0.00000000E+00  0.00000000E+00
  0.00000000E+00  0.00000000E+00  0.00000000E+00
  0.00000000E+00  0.00000000E+00  0.00000000E+00
  0.00000000E+00  0.00000000E+00  0.00000000E+00
  0.00000000E+00  0.00000000E+00  0.00000000E+00
  0.00000000E+00  0.00000000E+00  0.00000000E+00
  0.00000000E+00  0.00000000E+00  0.00000000E+00
