Na4 Ni4 O8 F4                           
   1.00000000000000     
     5.5428771956818208   -0.0047242955051538   -0.2208297380812644
    -2.7752502397699419    4.5917548849029162    0.1068019278409763
    -0.3877787678896024    0.0042112664919597    8.9772949549961591
   Na   Ni   O    F 
     4     4     8     4
Direct
  0.9912338180679333  0.9891331428049811  0.0832205210954354
  0.0035482439581442  0.0103968899727785  0.5837924367577705
  0.3326329961651766  0.6283411164885822  0.2604912787671889
  0.7058592644504393  0.3719113496874771  0.7566537126176919
  0.3374366725160859  0.6814309957174647  0.5985846362037932
  0.6537408195359078  0.3127837161061159  0.3809894766234387
  0.6496212212617608  0.3188213551364034  0.0976751098114370
  0.3393008598348315  0.6866291904104129  0.8811424779450691
  0.5943856033451493  0.0213780030358741  0.9804353824130683
  0.3779876882740416  0.4253351587223343  0.0005696807168480
  0.5775577157006672  0.9794532909249414  0.4807302958813454
  0.9568782386276546  0.5741252692687601  0.4999630459928824
  0.7253629576507916  0.5947587682751325  0.2375645553547157
  0.1327979876058625  0.4048768518367989  0.7371631298397890
  0.3866103665260964  0.0847928357300587  0.2334939592965017
  0.3040038061180706  0.9145810098406775  0.7326817265823394
  0.9707723766995402  0.5968824323599207  0.9845181794179043
  0.3789208150513627  0.4028366312585133  0.4864800366964398
  0.6699433720319667  0.7564143377085565  0.7428751794539770
  0.9114051765785253  0.2451176547142222  0.2409751785323424
 
  0.00000000E+00  0.00000000E+00  0.00000000E+00
  0.00000000E+00  0.00000000E+00  0.00000000E+00
  0.00000000E+00  0.00000000E+00  0.00000000E+00
  0.00000000E+00  0.00000000E+00  0.00000000E+00
  0.00000000E+00  0.00000000E+00  0.00000000E+00
  0.00000000E+00  0.00000000E+00  0.00000000E+00
  0.00000000E+00  0.00000000E+00  0.00000000E+00
  0.00000000E+00  0.00000000E+00  0.00000000E+00
  0.00000000E+00  0.00000000E+00  0.00000000E+00
  0.00000000E+00  0.00000000E+00  0.00000000E+00
  0.00000000E+00  0.00000000E+00  0.00000000E+00
  0.00000000E+00  0.00000000E+00  0.00000000E+00
  0.00000000E+00  0.00000000E+00  0.00000000E+00
  0.00000000E+00  0.00000000E+00  0.00000000E+00
  0.00000000E+00  0.00000000E+00  0.00000000E+00
  0.00000000E+00  0.00000000E+00  0.00000000E+00
  0.00000000E+00  0.00000000E+00  0.00000000E+00
  0.00000000E+00  0.00000000E+00  0.00000000E+00
  0.00000000E+00  0.00000000E+00  0.00000000E+00
  0.00000000E+00  0.00000000E+00  0.00000000E+00
