Na4 Co4 O8 F4                           
   1.00000000000000     
     5.4982612309878167   -0.0026357825795956   -0.0723222882449600
    -2.7486004411652898    4.5710026722419297    0.0362943954104519
    -0.1700640178443788    0.0015055509812176    9.3064811027496699
   Na   Co   O    F 
     4     4     8     4
Direct
  0.0074690107981751  0.0222956877583539  0.9272433077538859
  0.9861485648263343  0.9769401993336442  0.4270919029019312
  0.3267238563936984  0.6617804546415846  0.2350434169867984
  0.6660594158759132  0.3380669074928724  0.7345576459719304
  0.3300579116528448  0.6586879197487664  0.6081470791187773
  0.6612076014735697  0.2985849860856353  0.4045313629914947
  0.6685385485530853  0.3406699717081370  0.1082442088321433
  0.3620455415660301  0.7012745980703912  0.9047159716890359
  0.6102107153707412  0.0612441448637436  0.9876049929808507
  0.4396450060266044  0.4843291366494381  0.0088135248527948
  0.5508720164809854  0.9396494555157077  0.4879603885907200
  0.9570231035302896  0.5164649835367424  0.5080687814472111
  0.6961031286711846  0.5810028139382050  0.2734458146159457
  0.1161817059622988  0.4194721307936383  0.7732730846186572
  0.3829654105549233  0.1284401308736937  0.2677858003193068
  0.2554114676375130  0.8717186168290716  0.7675196753293017
  0.0376188419363381  0.6630108962108952  0.0372995936581902
  0.3757497659320153  0.3366101039773117  0.5372005973785211
  0.6635260351796689  0.7557450342050134  0.7507581236047031
  0.9064423515777861  0.2440118277671538  0.2506947263578011
 
  0.00000000E+00  0.00000000E+00  0.00000000E+00
  0.00000000E+00  0.00000000E+00  0.00000000E+00
  0.00000000E+00  0.00000000E+00  0.00000000E+00
  0.00000000E+00  0.00000000E+00  0.00000000E+00
  0.00000000E+00  0.00000000E+00  0.00000000E+00
  0.00000000E+00  0.00000000E+00  0.00000000E+00
  0.00000000E+00  0.00000000E+00  0.00000000E+00
  0.00000000E+00  0.00000000E+00  0.00000000E+00
  0.00000000E+00  0.00000000E+00  0.00000000E+00
  0.00000000E+00  0.00000000E+00  0.00000000E+00
  0.00000000E+00  0.00000000E+00  0.00000000E+00
  0.00000000E+00  0.00000000E+00  0.00000000E+00
  0.00000000E+00  0.00000000E+00  0.00000000E+00
  0.00000000E+00  0.00000000E+00  0.00000000E+00
  0.00000000E+00  0.00000000E+00  0.00000000E+00
  0.00000000E+00  0.00000000E+00  0.00000000E+00
  0.00000000E+00  0.00000000E+00  0.00000000E+00
  0.00000000E+00  0.00000000E+00  0.00000000E+00
  0.00000000E+00  0.00000000E+00  0.00000000E+00
  0.00000000E+00  0.00000000E+00  0.00000000E+00
