Na8 Ti8 O16 F8                          
   1.00000000000000     
     7.9047960469825354   -0.0000011905168471   -0.0000015919981879
    -0.0000011475069169    7.6865961543931673   -0.0000014854956001
    -0.0000015664109952   -0.0000014469177411    7.6864857859441376
   Na   Ti   O    F 
     8     8    16     8
Direct
  0.2412828738712785  0.2586196531513209  0.2381490090240878
  0.2412806553434500  0.2586243524881625  0.7618616385542107
  0.2412816408869705  0.7413776289999839  0.2381412321861616
  0.2412819744350168  0.7413782339587136  0.7618539878104427
  0.7412892382039432  0.2381826415352130  0.2586186255235965
  0.7412892719831534  0.2381860108518859  0.7413807064733189
  0.7412894607246623  0.7618151081884971  0.2586184563583667
  0.7412888770138154  0.7618164667644973  0.7413801557882678
  0.9882446312408116  0.0000000599090110  0.9999996917482766
  0.0117302785452181  0.0000000822045453  0.4999999007666485
  0.9829659645011148  0.5000000355192724  0.0000003449326873
  0.9987451723117371  0.5000001035792260  0.4999999059142890
  0.4882346900259812  0.9999995902291928 -0.0000002412979927
  0.4829582233126432 -0.0000000450519269  0.4999999702456777
  0.5117347969451443  0.4999996139769821 -0.0000000758532299
  0.4987406960406766  0.4999999647891294  0.4999996720848959
  0.2550079123097986  0.9999993900668543  0.0000001345159608
  0.2552669215257466 -0.0000000911880764  0.4999994805651338
  0.7550313988209595  0.9999996796281461  0.0000002298781042
  0.7552722403132155  0.4999994025081290  0.0000000723192849
  0.9912194172928367  0.2529551540734184  0.4999989347786962
  0.9912193882777013  0.7470457245503535  0.5000012456924485
  0.4999867266146694  0.2480796937173502  0.9999985237107264
  0.5097969050139580  0.2456052345769119  0.5000003237957573
  0.4999869671187925  0.7519197548212726  0.0000007654105276
  0.5097968981080646  0.7543944659407249  0.4999987356830723
  0.9999943252344705  0.9999999469092035  0.2480769443612389
  0.9999956998114576  0.0000033417020091  0.7519230547872879
  0.0098019606567853  0.5000008659641788  0.2455964327392644
  0.0098018278792474  0.4999993482560398  0.7544038299592244
  0.4912224484883073  0.4999989819315166  0.2529449249647882
  0.4912228893764123  0.5000004396350263  0.7470545027747764
  0.2481274580269770  0.4999998162989792  0.9999994064114459
  0.2489577008548274  0.5000002468754545  0.5000002583807811
  0.7481341929978410 -0.0000000564700162  0.4999994432127887
  0.7489603089985317  0.5000001339793003  0.4999995467518700
  0.0219085637220823  0.2519665437577067  0.0000015986102623
  0.0219077508417706  0.7480336518359438  0.9999990742349475
  0.5218699882413359  0.0000013436915698  0.2519644574517977
  0.5218716640885788  0.9999974858443115  0.7480350987501169
 
  0.00000000E+00  0.00000000E+00  0.00000000E+00
  0.00000000E+00  0.00000000E+00  0.00000000E+00
  0.00000000E+00  0.00000000E+00  0.00000000E+00
  0.00000000E+00  0.00000000E+00  0.00000000E+00
  0.00000000E+00  0.00000000E+00  0.00000000E+00
  0.00000000E+00  0.00000000E+00  0.00000000E+00
  0.00000000E+00  0.00000000E+00  0.00000000E+00
  0.00000000E+00  0.00000000E+00  0.00000000E+00
  0.00000000E+00  0.00000000E+00  0.00000000E+00
  0.00000000E+00  0.00000000E+00  0.00000000E+00
  0.00000000E+00  0.00000000E+00  0.00000000E+00
  0.00000000E+00  0.00000000E+00  0.00000000E+00
  0.00000000E+00  0.00000000E+00  0.00000000E+00
  0.00000000E+00  0.00000000E+00  0.00000000E+00
  0.00000000E+00  0.00000000E+00  0.00000000E+00
  0.00000000E+00  0.00000000E+00  0.00000000E+00
  0.00000000E+00  0.00000000E+00  0.00000000E+00
  0.00000000E+00  0.00000000E+00  0.00000000E+00
  0.00000000E+00  0.00000000E+00  0.00000000E+00
  0.00000000E+00  0.00000000E+00  0.00000000E+00
  0.00000000E+00  0.00000000E+00  0.00000000E+00
  0.00000000E+00  0.00000000E+00  0.00000000E+00
  0.00000000E+00  0.00000000E+00  0.00000000E+00
  0.00000000E+00  0.00000000E+00  0.00000000E+00
  0.00000000E+00  0.00000000E+00  0.00000000E+00
  0.00000000E+00  0.00000000E+00  0.00000000E+00
  0.00000000E+00  0.00000000E+00  0.00000000E+00
  0.00000000E+00  0.00000000E+00  0.00000000E+00
  0.00000000E+00  0.00000000E+00  0.00000000E+00
  0.00000000E+00  0.00000000E+00  0.00000000E+00
  0.00000000E+00  0.00000000E+00  0.00000000E+00
  0.00000000E+00  0.00000000E+00  0.00000000E+00
  0.00000000E+00  0.00000000E+00  0.00000000E+00
  0.00000000E+00  0.00000000E+00  0.00000000E+00
  0.00000000E+00  0.00000000E+00  0.00000000E+00
  0.00000000E+00  0.00000000E+00  0.00000000E+00
  0.00000000E+00  0.00000000E+00  0.00000000E+00
  0.00000000E+00  0.00000000E+00  0.00000000E+00
  0.00000000E+00  0.00000000E+00  0.00000000E+00
  0.00000000E+00  0.00000000E+00  0.00000000E+00
