Co8 O8 F16                              
   1.00000000000000     
     7.6251630001108879   -0.0019597440884189   -0.0023444415367248
    -0.0021498610189118    7.6483152788985871    0.0045322249151528
    -0.0028044185818411   -0.0035120118973763    7.6309298276080018
   Co   O    F 
     8     8    16
Direct
  0.0026015446406163 -0.0002815389624558 -0.0005135950346191
  0.0124290038880962  0.0000572058170069  0.4993711099641679
  0.0093724886400859  0.4997051009022759  0.9979076409721358
  0.9922846203482820  0.5000587407727578  0.4981802381046506
  0.5066111705749248 -0.0000101802047585  0.0018843697654817
  0.5146367664589139  0.0003035943817755  0.5023992574981954
  0.5101098368621190  0.4999437226102564  0.0019422370488986
  0.4910710418251666  0.5007671927214264  0.5014953500056635
  0.2483986721837232  0.0003584892852388  0.5006653562162781
  0.7383108319338666  0.5004669890731920  0.4990705649479196
  0.5017314870328541  0.5008496017473890  0.2522123387527910
  0.5003126484593826  0.4999927749303453  0.7509952760430533
  0.2474111222556254  0.9992500359660186  0.0004047097263683
  0.2581102787809946  0.5004356985672064  0.9993963207088664
  0.7542874271759868  0.0000616390879024  0.0005276123756451
  0.7509784176841384  0.0000893446263765  0.5010625283411744
  0.9890084925461224  0.9992903200793553  0.2515803954679570
  0.5016560380710927 -0.0005944055215516  0.7559899574988611
  0.2477287061225662  0.5001920852108080  0.4991443200533213
  0.7533075614399642  0.4990146772398947  0.9995844029996755
  0.9974782540739749  0.7448095169252839 -0.0020082203644737
  0.5081464562362143  0.2481321047003558  0.0013875929934098
  0.9883390734841984  0.9994725605344853  0.7470846215706307
  0.9996917300451194  0.4996555106107901  0.2479640112060310
  0.9971075234431551  0.4995013617078690  0.7479267829135202
  0.5024008398704729  0.0011445863147673  0.2475555823739086
  0.9989364470103566  0.2545199945314083 -0.0025027639786455
  0.0043201563097632  0.2567824438765857  0.4979736575282803
  0.0048302215281512  0.7431948482402467  0.4978661204110161
  0.4796428222144044  0.2422498436237137  0.5014880378217307
  0.5095040096453709  0.7518371516949935  0.0007447394472293
  0.4792443092142967  0.7587489889090345  0.5012194466208628
 
  0.00000000E+00  0.00000000E+00  0.00000000E+00
  0.00000000E+00  0.00000000E+00  0.00000000E+00
  0.00000000E+00  0.00000000E+00  0.00000000E+00
  0.00000000E+00  0.00000000E+00  0.00000000E+00
  0.00000000E+00  0.00000000E+00  0.00000000E+00
  0.00000000E+00  0.00000000E+00  0.00000000E+00
  0.00000000E+00  0.00000000E+00  0.00000000E+00
  0.00000000E+00  0.00000000E+00  0.00000000E+00
  0.00000000E+00  0.00000000E+00  0.00000000E+00
  0.00000000E+00  0.00000000E+00  0.00000000E+00
  0.00000000E+00  0.00000000E+00  0.00000000E+00
  0.00000000E+00  0.00000000E+00  0.00000000E+00
  0.00000000E+00  0.00000000E+00  0.00000000E+00
  0.00000000E+00  0.00000000E+00  0.00000000E+00
  0.00000000E+00  0.00000000E+00  0.00000000E+00
  0.00000000E+00  0.00000000E+00  0.00000000E+00
  0.00000000E+00  0.00000000E+00  0.00000000E+00
  0.00000000E+00  0.00000000E+00  0.00000000E+00
  0.00000000E+00  0.00000000E+00  0.00000000E+00
  0.00000000E+00  0.00000000E+00  0.00000000E+00
  0.00000000E+00  0.00000000E+00  0.00000000E+00
  0.00000000E+00  0.00000000E+00  0.00000000E+00
  0.00000000E+00  0.00000000E+00  0.00000000E+00
  0.00000000E+00  0.00000000E+00  0.00000000E+00
  0.00000000E+00  0.00000000E+00  0.00000000E+00
  0.00000000E+00  0.00000000E+00  0.00000000E+00
  0.00000000E+00  0.00000000E+00  0.00000000E+00
  0.00000000E+00  0.00000000E+00  0.00000000E+00
  0.00000000E+00  0.00000000E+00  0.00000000E+00
  0.00000000E+00  0.00000000E+00  0.00000000E+00
  0.00000000E+00  0.00000000E+00  0.00000000E+00
  0.00000000E+00  0.00000000E+00  0.00000000E+00
