Mn4 O4 F8                               
   1.00000000000000     
     4.8131449227666163    0.1482624591184445    0.0325982870751072
     0.1325251297129798    5.1111593490250646    0.0128983678210675
     0.0216599952160200   -0.0386469104833652    7.2426347156183768
   Mn   O    F 
     4     4     8
Direct
  0.5078463201253099  0.9882425143536463  0.0007946347177764
  0.9941043640267289  0.4995873210503565  0.9992371600524447
  0.4956374562919528  0.0111592439850827  0.4975343163086910
  0.0072988437731670  0.4966231457535497  0.5003027331204769
  0.1712071314886434  0.1774227772520273  0.9338953638251845
  0.8199182053999500  0.8097133172840281  0.0712689579173418
  0.8288838777663133  0.8249322964631377  0.4329562856269792
  0.1752625172094748  0.1920809099476888  0.5704397723105645
  0.1337588880086282  0.4570196025267176  0.2613403052672049
  0.8692356437887362  0.5466147376935268  0.7371510370488518
  0.6304085313139248  0.0287439130321753  0.7620328092768500
  0.3644948854815902  0.9677044620396932  0.2367143264836762
  0.6611280196131895  0.2982965065156564  0.0636688727960025
  0.3398096057677051  0.6876876287508289  0.9357991201858458
  0.3119636769287732  0.6793079393696466  0.5595227925924616
  0.6890420330158986  0.3348636839822379  0.4373415124696692
 
  0.00000000E+00  0.00000000E+00  0.00000000E+00
  0.00000000E+00  0.00000000E+00  0.00000000E+00
  0.00000000E+00  0.00000000E+00  0.00000000E+00
  0.00000000E+00  0.00000000E+00  0.00000000E+00
  0.00000000E+00  0.00000000E+00  0.00000000E+00
  0.00000000E+00  0.00000000E+00  0.00000000E+00
  0.00000000E+00  0.00000000E+00  0.00000000E+00
  0.00000000E+00  0.00000000E+00  0.00000000E+00
  0.00000000E+00  0.00000000E+00  0.00000000E+00
  0.00000000E+00  0.00000000E+00  0.00000000E+00
  0.00000000E+00  0.00000000E+00  0.00000000E+00
  0.00000000E+00  0.00000000E+00  0.00000000E+00
  0.00000000E+00  0.00000000E+00  0.00000000E+00
  0.00000000E+00  0.00000000E+00  0.00000000E+00
  0.00000000E+00  0.00000000E+00  0.00000000E+00
  0.00000000E+00  0.00000000E+00  0.00000000E+00
