Cr4 O4 F8                               
   1.00000000000000     
     5.3533977532701842   -0.0004345091088926    0.0784059777326252
    -2.6772150991030026    4.6930869804771396   -0.0393287938413736
     0.0804598420429978   -0.0012012191640971    9.0940163311588318
   Cr   O    F 
     4     4     8
Direct
  0.3643975432117590  0.6839702907187597  0.5941585776700158
  0.6508267885970552  0.3230479260338275  0.3947993346752319
  0.6806113491071939  0.3159718528207186  0.0941182398108426
  0.3282652814183195  0.6769729858640710  0.8947886137397900
  0.4964083638468581  0.0073442599200984  0.0066235406315218
  0.9975904828705029  0.5066321143154171  0.0090445283337730
  0.4887824667339549  0.9925898113587938  0.5066859335016106
  0.4908022100303880  0.4934697708577072  0.5090100804552659
  0.5055635019024928  0.5005345682953053 -0.0022340842578287
  0.0047691531006822  0.4993809802869469  0.4978314099452006
  0.8021656397044944  0.6159502762153527  0.2504259336324420
  0.1861901974468091  0.3840076068861469  0.7504077592978768
  0.3644784264125474  0.1797414158466638  0.2512447337466060
  0.6403515385779188  0.8263421588099871  0.7458040800636043
  0.8139812078366292  0.1738379902747731  0.2458469607939471
  0.1848158492023869  0.8202059914954226  0.7514443579600930
 
  0.00000000E+00  0.00000000E+00  0.00000000E+00
  0.00000000E+00  0.00000000E+00  0.00000000E+00
  0.00000000E+00  0.00000000E+00  0.00000000E+00
  0.00000000E+00  0.00000000E+00  0.00000000E+00
  0.00000000E+00  0.00000000E+00  0.00000000E+00
  0.00000000E+00  0.00000000E+00  0.00000000E+00
  0.00000000E+00  0.00000000E+00  0.00000000E+00
  0.00000000E+00  0.00000000E+00  0.00000000E+00
  0.00000000E+00  0.00000000E+00  0.00000000E+00
  0.00000000E+00  0.00000000E+00  0.00000000E+00
  0.00000000E+00  0.00000000E+00  0.00000000E+00
  0.00000000E+00  0.00000000E+00  0.00000000E+00
  0.00000000E+00  0.00000000E+00  0.00000000E+00
  0.00000000E+00  0.00000000E+00  0.00000000E+00
  0.00000000E+00  0.00000000E+00  0.00000000E+00
  0.00000000E+00  0.00000000E+00  0.00000000E+00
