Mn4 O4 F8                               
   1.00000000000000     
     4.8474594487305138   -0.0202645863118149   -0.0305906049181382
    -2.4527897977665090    4.1719093684900068   -0.0707905234283477
    -0.1072750310469496   -0.0330971768926662    9.1581347788838201
   Mn   O    F 
     4     4     8
Direct
  0.3093852096667610  0.6735460466076064  0.6101549543985528
  0.6902059959062183  0.3530463996498689  0.3905321324130374
  0.6698173439311680  0.3052083321038128  0.1107224931010283
  0.3492582217886905  0.6869960560266993  0.8904576130960168
  0.6578650152190306  0.9906543113429959  0.0039887839781216
 -0.0023983204638935  0.6648592099992887  0.5016293568555971
  0.9272738815433608  0.3065156534895964  0.2554824398468851
  0.3069039097776647  0.9280016796149235  0.7549387009938232
  0.0068591655856799  0.6312578662335663  0.0027866331737358
  0.3658811944956135  0.3493131062102070  0.9938992283979141
  0.6379670761668376  0.0133370214432949  0.5048403204255834
  0.3550862894077462  0.3717016236663296  0.4934233453417681
  0.6844337772158584  0.6295753816144309  0.2514923848696943
  0.0563529323657651  0.3560449720506246  0.7402026754725378
  0.3558769892320425  0.0554241207353396  0.2422334179766385
  0.6292313181614562  0.6845182192114148  0.7532155196590654
 
  0.00000000E+00  0.00000000E+00  0.00000000E+00
  0.00000000E+00  0.00000000E+00  0.00000000E+00
  0.00000000E+00  0.00000000E+00  0.00000000E+00
  0.00000000E+00  0.00000000E+00  0.00000000E+00
  0.00000000E+00  0.00000000E+00  0.00000000E+00
  0.00000000E+00  0.00000000E+00  0.00000000E+00
  0.00000000E+00  0.00000000E+00  0.00000000E+00
  0.00000000E+00  0.00000000E+00  0.00000000E+00
  0.00000000E+00  0.00000000E+00  0.00000000E+00
  0.00000000E+00  0.00000000E+00  0.00000000E+00
  0.00000000E+00  0.00000000E+00  0.00000000E+00
  0.00000000E+00  0.00000000E+00  0.00000000E+00
  0.00000000E+00  0.00000000E+00  0.00000000E+00
  0.00000000E+00  0.00000000E+00  0.00000000E+00
  0.00000000E+00  0.00000000E+00  0.00000000E+00
  0.00000000E+00  0.00000000E+00  0.00000000E+00
