Trisodium ferrate(III)                  
   1.00000000000000     
     5.7325723801681150    0.0000000044897924    0.0352376969134139
     0.0000000092310745   12.5397339763177094    0.0000000794388031
    -2.4951663263142594    0.0000000543109157    5.2116473019508112
   Fe   Na   O 
     4    12    12
Direct
  0.1732518309117026  0.3356359010424512  0.2563830513307863
  0.8267465507890961  0.6643658780267216  0.7436123568403374
  0.3267465153350599  0.8356341118466446  0.2436123936448382
  0.6732518516971595  0.1643641124475010  0.7563830033759089
  0.2129907653646157  0.0945881123279975  0.1398468555250432
  0.7870001852526514  0.9054116944414830  0.8601510608363299
  0.2870002348519733  0.5945882894380929  0.3601510042129163
  0.7129907011969721  0.4054119012466089  0.6398469133141944
  0.2446120532379581  0.4848069704330200  0.7805893139819702
  0.7553835676383471  0.5151922723880560  0.2194094750259339
  0.2553837216168731  0.9848077288742587  0.7194095328499515
  0.7446119512277605  0.0151930302873708  0.2805892817314088
  0.1392287251908613  0.2218908609277292  0.6953165758922353
  0.8607750896461539  0.7781098460429874  0.3046836285776706
  0.3607752298880129  0.7218901355126022  0.8046837640866684
  0.6392285851292030  0.2781091550731247  0.1953164089865780
  0.3780100582748247  0.4375341346056132  0.1987603755474723
  0.6219969198103783  0.5624641875836573  0.8012483868151463
  0.1219969017092808  0.9375358046532938  0.3012483438383029
  0.8780100763046832  0.0624658643092744  0.6987604423016336
  0.0016430955971600  0.3732133437718517  0.4525649488581251
  0.9983592213244421  0.6267858007736606  0.5474368679141506
  0.4983592209506327  0.8732141899531385  0.0474368818693662
  0.5016431145079778  0.1267866687890162  0.9525649416893955
  0.9196299010969682  0.2727812901968107  0.9486476460599107
  0.0803720073866572  0.7272200896502881  0.0513494467140774
  0.5803720046662235  0.7727798929285541  0.5513494669748198
  0.4196298923963795  0.2272187254281874  0.4486476282048173
 
  0.00000000E+00  0.00000000E+00  0.00000000E+00
  0.00000000E+00  0.00000000E+00  0.00000000E+00
  0.00000000E+00  0.00000000E+00  0.00000000E+00
  0.00000000E+00  0.00000000E+00  0.00000000E+00
  0.00000000E+00  0.00000000E+00  0.00000000E+00
  0.00000000E+00  0.00000000E+00  0.00000000E+00
  0.00000000E+00  0.00000000E+00  0.00000000E+00
  0.00000000E+00  0.00000000E+00  0.00000000E+00
  0.00000000E+00  0.00000000E+00  0.00000000E+00
  0.00000000E+00  0.00000000E+00  0.00000000E+00
  0.00000000E+00  0.00000000E+00  0.00000000E+00
  0.00000000E+00  0.00000000E+00  0.00000000E+00
  0.00000000E+00  0.00000000E+00  0.00000000E+00
  0.00000000E+00  0.00000000E+00  0.00000000E+00
  0.00000000E+00  0.00000000E+00  0.00000000E+00
  0.00000000E+00  0.00000000E+00  0.00000000E+00
  0.00000000E+00  0.00000000E+00  0.00000000E+00
  0.00000000E+00  0.00000000E+00  0.00000000E+00
  0.00000000E+00  0.00000000E+00  0.00000000E+00
  0.00000000E+00  0.00000000E+00  0.00000000E+00
  0.00000000E+00  0.00000000E+00  0.00000000E+00
  0.00000000E+00  0.00000000E+00  0.00000000E+00
  0.00000000E+00  0.00000000E+00  0.00000000E+00
  0.00000000E+00  0.00000000E+00  0.00000000E+00
  0.00000000E+00  0.00000000E+00  0.00000000E+00
  0.00000000E+00  0.00000000E+00  0.00000000E+00
  0.00000000E+00  0.00000000E+00  0.00000000E+00
  0.00000000E+00  0.00000000E+00  0.00000000E+00
