Trisodium hexafluorovanadate(III)       
   1.00000000000000     
     5.4377938681878728    0.0000046932388412   -0.0757496265165225
     0.0000007297487559    5.7043054221773630    0.0000081506403697
    -0.1558690848638569    0.0000120330360934    7.8123702455025743
   V    Na   F 
     2     6    12
Direct
  0.0000679265559633  0.0000758424050290 -0.0000225150122239
  0.5000704609908325  0.4999259858401857  0.4999798338790927
 -0.0001504233848194  0.0002411341481397  0.4998903115353463
  0.4998478085098123  0.4997576287528311 -0.0001127015744129
  0.5234616805663038  0.9351573538955854  0.2383634664808953
  0.4768901105148985  0.0645793412326452  0.7615584538892269
  0.9768910808171697  0.4354222021009892  0.2615546877270777
  0.0234546501641324  0.5648367789357331  0.7383644346266264
  0.1265802792901481  0.0593938746245864  0.2296923874935459
  0.8734965203209316  0.9407545165320663  0.7702935933363737
  0.3734934779211430  0.5592478611039127  0.2702885722629593
  0.6265574578494554  0.4406021890624279  0.7296938490493713
  0.7036194783325724  0.1813324537296490  0.0561461154096962
  0.2964424477342371  0.8184586433890564  0.9438806371884326
  0.7964404362969097  0.6815438382754299  0.4438864892356295
  0.2036140958198162  0.3186720352575043  0.5561443479972534
  0.1660898049838619  0.2798279086554656  0.9246796474371995
  0.8335210685830001  0.7207317145835611  0.0755198914806167
  0.3335217184256353  0.7792654214612234  0.5755223173439333
  0.6660899197079971  0.2201732660139777  0.4246761602133581
 
  0.00000000E+00  0.00000000E+00  0.00000000E+00
  0.00000000E+00  0.00000000E+00  0.00000000E+00
  0.00000000E+00  0.00000000E+00  0.00000000E+00
  0.00000000E+00  0.00000000E+00  0.00000000E+00
  0.00000000E+00  0.00000000E+00  0.00000000E+00
  0.00000000E+00  0.00000000E+00  0.00000000E+00
  0.00000000E+00  0.00000000E+00  0.00000000E+00
  0.00000000E+00  0.00000000E+00  0.00000000E+00
  0.00000000E+00  0.00000000E+00  0.00000000E+00
  0.00000000E+00  0.00000000E+00  0.00000000E+00
  0.00000000E+00  0.00000000E+00  0.00000000E+00
  0.00000000E+00  0.00000000E+00  0.00000000E+00
  0.00000000E+00  0.00000000E+00  0.00000000E+00
  0.00000000E+00  0.00000000E+00  0.00000000E+00
  0.00000000E+00  0.00000000E+00  0.00000000E+00
  0.00000000E+00  0.00000000E+00  0.00000000E+00
  0.00000000E+00  0.00000000E+00  0.00000000E+00
  0.00000000E+00  0.00000000E+00  0.00000000E+00
  0.00000000E+00  0.00000000E+00  0.00000000E+00
  0.00000000E+00  0.00000000E+00  0.00000000E+00
