Na4 Co4 O8 F4                           
   1.00000000000000     
     5.2799697742810299   -0.2027757919723852    0.0054644294852137
    -0.1843682960658810    5.3002116120917178   -0.0304825342636987
    -0.0470367672921855    0.0181113066544644    7.6587478346039344
   Na   Co   O    F 
     4     4     8     4
Direct
  0.0032282008913162  0.0224063509398447  0.2388219101874782
  0.0101543755288207  0.9508076343261185  0.7588405386701272
  0.4848948868655462  0.4741778285408352  0.7558895923704737
  0.5191457680884706  0.5399658530830904  0.2328148537071968
  0.4891504260562338  0.0106771524834466  0.9915054539495420
  0.0165746040169198  0.4743314719463426  0.0065760198671694
  0.5217350722164673  0.9994775614832390  0.5184885308329249
  0.0041843349093325  0.5113066284720297  0.4958435711941823
  0.0661079257631802  0.4803845500572138  0.2520747688920265
  0.5752862407410493  0.0180413515689117  0.7435851052238452
  0.6982275810621358  0.2662589493972760  0.0348637551520363
  0.2919334167918493  0.7385460637909774  0.9674438188950631
  0.2053024298388889  0.2264590341306502  0.9613607462681487
  0.2715980354265687  0.7033091612751311  0.5369668912047105
  0.7280454567662400  0.3174220507624665  0.4522006617913217
  0.7864009512558305  0.7932571178423946  0.4600020283663326
  0.9120349517408900  0.5189430979647021  0.7510035805517471
  0.4214966804967962  0.9795882278217365  0.2623367255234697
  0.7929700214250381  0.7736088726366726  0.0373216440682570
  0.2015286401184192  0.2010310414769284  0.5420598032839464
 
  0.00000000E+00  0.00000000E+00  0.00000000E+00
  0.00000000E+00  0.00000000E+00  0.00000000E+00
  0.00000000E+00  0.00000000E+00  0.00000000E+00
  0.00000000E+00  0.00000000E+00  0.00000000E+00
  0.00000000E+00  0.00000000E+00  0.00000000E+00
  0.00000000E+00  0.00000000E+00  0.00000000E+00
  0.00000000E+00  0.00000000E+00  0.00000000E+00
  0.00000000E+00  0.00000000E+00  0.00000000E+00
  0.00000000E+00  0.00000000E+00  0.00000000E+00
  0.00000000E+00  0.00000000E+00  0.00000000E+00
  0.00000000E+00  0.00000000E+00  0.00000000E+00
  0.00000000E+00  0.00000000E+00  0.00000000E+00
  0.00000000E+00  0.00000000E+00  0.00000000E+00
  0.00000000E+00  0.00000000E+00  0.00000000E+00
  0.00000000E+00  0.00000000E+00  0.00000000E+00
  0.00000000E+00  0.00000000E+00  0.00000000E+00
  0.00000000E+00  0.00000000E+00  0.00000000E+00
  0.00000000E+00  0.00000000E+00  0.00000000E+00
  0.00000000E+00  0.00000000E+00  0.00000000E+00
  0.00000000E+00  0.00000000E+00  0.00000000E+00
