Na4 Cr4 O8 F4                           
   1.00000000000000     
     5.3529669486361735   -0.0223497064389121   -0.0455918019734606
    -2.6867670241981636    4.6516663709719621   -0.0193267290399071
    -0.1983420383146259   -0.1943931093410590    9.1626525085243404
   Na   Cr   O    F 
     4     4     8     4
Direct
  0.0083270500401724  0.0018140215845790  0.9130818433448411
  0.9609638044081379  0.9766145692387198  0.4628837690408574
  0.3296607422460269  0.6607830063679074  0.2645343972553604
  0.6595058989130820  0.3479323512404449  0.7426459454087464
  0.3540376536326093  0.6700977816595284  0.6198226387928685
  0.6178717140653163  0.3004386614464565  0.4025874272166519
  0.6608838386156677  0.3137854876018125  0.1060286575347718
  0.3035394650684964  0.6536696526810815  0.9199528935335906
  0.5997277494637245  0.9972207853481621  0.0124329445027911
  0.9948743738777779  0.5729029754082973  0.0024526088847878
  0.4442566726246255  0.4435430038467203  0.0154243054483203
  0.5215840540225756  0.9807346618913542  0.4875923465736278
  0.3994082858385823  0.4174294548680351  0.4865247779567596
  0.2136904061067355  0.3998071097360238  0.7713594241655315
  0.8623798046269329  0.2945033198967337  0.2643053747780542
  0.3162956091546576  0.8843524665958000  0.7769989311049201
  0.9537180851156322  0.5384159673248803  0.5366376465355458
  0.7309441032395654  0.6505819248807114  0.2693398306088710
  0.3331034303157239  0.0974002746663345  0.2393604270085916
  0.7352272586239437  0.7979725237164246  0.7060338103045183
 
  0.00000000E+00  0.00000000E+00  0.00000000E+00
  0.00000000E+00  0.00000000E+00  0.00000000E+00
  0.00000000E+00  0.00000000E+00  0.00000000E+00
  0.00000000E+00  0.00000000E+00  0.00000000E+00
  0.00000000E+00  0.00000000E+00  0.00000000E+00
  0.00000000E+00  0.00000000E+00  0.00000000E+00
  0.00000000E+00  0.00000000E+00  0.00000000E+00
  0.00000000E+00  0.00000000E+00  0.00000000E+00
  0.00000000E+00  0.00000000E+00  0.00000000E+00
  0.00000000E+00  0.00000000E+00  0.00000000E+00
  0.00000000E+00  0.00000000E+00  0.00000000E+00
  0.00000000E+00  0.00000000E+00  0.00000000E+00
  0.00000000E+00  0.00000000E+00  0.00000000E+00
  0.00000000E+00  0.00000000E+00  0.00000000E+00
  0.00000000E+00  0.00000000E+00  0.00000000E+00
  0.00000000E+00  0.00000000E+00  0.00000000E+00
  0.00000000E+00  0.00000000E+00  0.00000000E+00
  0.00000000E+00  0.00000000E+00  0.00000000E+00
  0.00000000E+00  0.00000000E+00  0.00000000E+00
  0.00000000E+00  0.00000000E+00  0.00000000E+00
