Ni2 O2 F4                               
   1.00000000000000     
    -2.4735214966290560   -4.0118300230975485   -0.0708672646231264
    -4.8656438510263005   -0.0773216022683543   -0.1495749196692669
    -2.6225289368369809   -1.2942962632079005   -4.3297634314614157
   Ni   O    F 
     2     2     4
Direct
  0.9972791139302635  0.0008713419702104  0.0083644201971603
  0.4920587545034908  0.5047090846343553  0.5026740625707129
  0.2104981778039887  0.5977561632358518  0.2944342662675152
  0.8176948881990446  0.3839494079541721  0.6827366286625529
  0.5842246320505676  0.9393770623668992  0.2305991614558381
  0.4119782639307257  0.0604226918329497  0.7802103532902924
  0.1260161474558215  0.7282521730492512  0.7620401922344812
  0.8602500221260981  0.2846620749563176  0.2389409153214469
 
  0.00000000E+00  0.00000000E+00  0.00000000E+00
  0.00000000E+00  0.00000000E+00  0.00000000E+00
  0.00000000E+00  0.00000000E+00  0.00000000E+00
  0.00000000E+00  0.00000000E+00  0.00000000E+00
  0.00000000E+00  0.00000000E+00  0.00000000E+00
  0.00000000E+00  0.00000000E+00  0.00000000E+00
  0.00000000E+00  0.00000000E+00  0.00000000E+00
  0.00000000E+00  0.00000000E+00  0.00000000E+00
