Na4 Cr4 O8 F4                           
   1.00000000000000     
     5.3686288187436473    0.0148343771491269   -0.0267519175815214
    -2.6713530460551800    4.6701720679799887    0.0295533867954811
    -0.0483691430504446    0.0313973804175184    9.0267161779611520
   Na   Cr   O    F 
     4     4     8     4
Direct
  0.0383012273914267  0.0307261707663237  0.9950593602539516
  0.9587442292116136  0.9691331370390196  0.4937862186659297
  0.3346262418214112  0.6231211955879483  0.2572643331526673
  0.6265271505109719  0.3396782181492094  0.7514524791939097
  0.3002723818452425  0.6407755838534183  0.5922265715936256
  0.6357523331993598  0.3050794919009647  0.4112526289091361
  0.7067001700660754  0.3605112635894363  0.0921585307177599
  0.3664169984603031  0.7004441136870244  0.9104463600869513
  0.6135580801384715  0.0877930068160752  0.9654752009246966
  0.0995221507573217  0.6001258143380632  0.0413638489587860
  0.6199595273479087  0.6055898582910986  0.9932348213016083
  0.3975126146123580  0.9114164283614756  0.4611071187324797
  0.9017730395817276  0.4097013525649605  0.5450804113716458
  0.3731645895748945  0.3848543237080845  0.4955705168483745
  0.7991932381645418  0.2269315700284323  0.2566652580339789
  0.2336346742513803  0.8059824368745101  0.7520142883932983
  0.7819464370314335  0.6676246089223239  0.3036332611939230
  0.2033959080440317  0.3413367545847268  0.7997102554476418
  0.3391635594923992  0.2052609066952908  0.1928656353148961
  0.6698354484971419  0.7839137642416216  0.6896329009047399
 
  0.00000000E+00  0.00000000E+00  0.00000000E+00
  0.00000000E+00  0.00000000E+00  0.00000000E+00
  0.00000000E+00  0.00000000E+00  0.00000000E+00
  0.00000000E+00  0.00000000E+00  0.00000000E+00
  0.00000000E+00  0.00000000E+00  0.00000000E+00
  0.00000000E+00  0.00000000E+00  0.00000000E+00
  0.00000000E+00  0.00000000E+00  0.00000000E+00
  0.00000000E+00  0.00000000E+00  0.00000000E+00
  0.00000000E+00  0.00000000E+00  0.00000000E+00
  0.00000000E+00  0.00000000E+00  0.00000000E+00
  0.00000000E+00  0.00000000E+00  0.00000000E+00
  0.00000000E+00  0.00000000E+00  0.00000000E+00
  0.00000000E+00  0.00000000E+00  0.00000000E+00
  0.00000000E+00  0.00000000E+00  0.00000000E+00
  0.00000000E+00  0.00000000E+00  0.00000000E+00
  0.00000000E+00  0.00000000E+00  0.00000000E+00
  0.00000000E+00  0.00000000E+00  0.00000000E+00
  0.00000000E+00  0.00000000E+00  0.00000000E+00
  0.00000000E+00  0.00000000E+00  0.00000000E+00
  0.00000000E+00  0.00000000E+00  0.00000000E+00
