Na1 Ti16 O16 F32                        
   1.00000000000000     
    10.8870509999999996    0.1342620000000000   -0.0001010000000000
     0.1309450000000000   10.9590409999999991    0.0002930000000000
    -0.0000630000000000    0.0002070000000000    7.6298950000000003
   Na   Ti   O    F 
     1    16    16    32
Direct
  0.4887414988585809  0.4910169998069979  0.6787065405564300
  0.2415736443611741  0.0056714234372441  0.0113320147534161
  0.2397156392118006  0.5064037313127149  0.0097220853300223
  0.7424005134202093  0.0059320517861336  0.0076027695980742
  0.7433355606037498  0.5064504118407658  0.0086456977063215
  0.0050154487093847  0.2422339712462363  0.9850007767484297
  0.0050397283929785  0.7439694964300044  0.9850609636655748
  0.5051502573047545  0.2414289492228825  0.9793000877576895
  0.5051364237331866  0.7437077747389266  0.9820853872330243
  0.2401266878523206  0.0045296402345616  0.4850540665213600
  0.2352100354653285  0.5054710222871174  0.4803607928183630
  0.7461900614371555  0.0044485155181193  0.4810681579880215
  0.7466119985668193  0.5076538495580207  0.4789567157937400
  0.0040654649972262  0.2414691128179624  0.5151516585467149
  0.0050625906866288  0.7452705773490238  0.5161313153823835
  0.5063252154215506  0.2345793422825079  0.5059791453960152
  0.5073180297538071  0.7470176780493408  0.5094586939572275
  0.1165452234563142  0.1167209911849050  0.9872017746671149
  0.1156992844446017  0.6164605452647235  0.9801994416889457
  0.6158819010461493  0.1156432819252537  0.9822602096429373
  0.6140773473530131  0.6138085018173828  0.9806728514957518
  0.1164320592221888  0.1164430264756078  0.5107957514873056
  0.1150246231236659  0.6172735123321649  0.5143972251936600
  0.6174731693228672  0.1143237919787211  0.5135769922405873
  0.6173608895910865  0.6170598742126646  0.5107846698608328
  0.4851555472675317  0.2565567709889888  0.7444147618661779
  0.4831611887558990  0.7456029745864678  0.7455855026575946
  0.9818735736677071  0.2477661598442494  0.7492797047614994
  0.9807552451383847  0.7515299662937975  0.7490158156568956
  0.2323894204791349  0.4960587440132631  0.2454430834212591
  0.2362456434047171  0.9932444940005970  0.2482350524217228
  0.7370288738527633  0.4957310389614161  0.2458607614139157
  0.7364791384479068  0.9949638741053148  0.2473511501233836
  0.3651920354327527  0.1363654433333858  0.0166208513745642
  0.3646966476928756  0.6353242446181948  0.0159110454639830
  0.8645713472108363  0.1358513621173745  0.0199135813318211
  0.8645877142832925  0.6363752161311644  0.0186973935918498
  0.1368295226696315  0.3649763796380662  0.9740483010027323
  0.1360943094012438  0.8649433749533660  0.9768649820893810
  0.6358379022468031  0.3654674545893896  0.9759624425193293
  0.6364346202984041  0.8641819803242151  0.9764224756930813
  0.3881794990258208  0.3886016714799727  0.0075705662874038
  0.3867332936988706  0.8851958191470106  0.0090994248796631
  0.8859935250240635  0.3865838449137908  0.0094598656953046
  0.8854767480364762  0.8853775376044103  0.0128296748565282
  0.1306049425173662  0.3675351083727236  0.5218722841897890
  0.1376735139642624  0.8634849803878404  0.5223080398413572
  0.6309143767712584  0.3690484428752434  0.5155871402535378
  0.6388063409568979  0.8648310870917838  0.5193553278422091
  0.3677100540436847  0.1295377805838758  0.4771440497671298
  0.3690713149831555  0.6289644165828302  0.4789969144076274
  0.8636460344714956  0.1373945751442535  0.4758873624244523
  0.8654094497704673  0.6383262560211455  0.4745126365637242
  0.3780191265101503  0.3790111966525181  0.4824989061225967
  0.3859247359585981  0.8831697037358930  0.4848743456825267
  0.8838437066927722  0.3858343966887664  0.4872579498581839
  0.8896604106038393  0.8890875382487012  0.4840883501014570
  0.0120823394755698  0.2576763305171065  0.2489330006286392
  0.0150206320503259  0.7569367506612108  0.2483325943319218
  0.5134775621977762  0.2559858533189048  0.2473234695265888
  0.5135973901085353  0.7559626129261172  0.2466199485099180
  0.2700372852394856  0.0005144032866741  0.7481285660269853
  0.2783762782350120  0.5013795704659595  0.7444854684368735
  0.7725450090156167  1.0006081065910173  0.7484072767578357
  0.7667743127863000  0.5006616966753723  0.7462384523913792
 
             NaN             NaN             NaN
             NaN             NaN             NaN
             NaN             NaN             NaN
             NaN             NaN             NaN
             NaN             NaN             NaN
             NaN             NaN             NaN
             NaN             NaN             NaN
             NaN             NaN             NaN
             NaN             NaN             NaN
             NaN             NaN             NaN
             NaN             NaN             NaN
             NaN             NaN             NaN
             NaN             NaN             NaN
             NaN             NaN             NaN
             NaN             NaN             NaN
             NaN             NaN             NaN
             NaN             NaN             NaN
             NaN             NaN             NaN
             NaN             NaN             NaN
             NaN             NaN             NaN
             NaN             NaN             NaN
             NaN             NaN             NaN
             NaN             NaN             NaN
             NaN             NaN             NaN
             NaN             NaN             NaN
             NaN             NaN             NaN
             NaN             NaN             NaN
             NaN             NaN             NaN
             NaN             NaN             NaN
             NaN             NaN             NaN
             NaN             NaN             NaN
             NaN             NaN             NaN
             NaN             NaN             NaN
             NaN             NaN             NaN
             NaN             NaN             NaN
             NaN             NaN             NaN
             NaN             NaN             NaN
             NaN             NaN             NaN
             NaN             NaN             NaN
             NaN             NaN             NaN
             NaN             NaN             NaN
             NaN             NaN             NaN
             NaN             NaN             NaN
             NaN             NaN             NaN
             NaN             NaN             NaN
             NaN             NaN             NaN
             NaN             NaN             NaN
             NaN             NaN             NaN
             NaN             NaN             NaN
             NaN             NaN             NaN
             NaN             NaN             NaN
             NaN             NaN             NaN
             NaN             NaN             NaN
             NaN             NaN             NaN
             NaN             NaN             NaN
             NaN             NaN             NaN
             NaN             NaN             NaN
             NaN             NaN             NaN
             NaN             NaN             NaN
             NaN             NaN             NaN
             NaN             NaN             NaN
             NaN             NaN             NaN
             NaN             NaN             NaN
             NaN             NaN             NaN
             NaN             NaN             NaN
