Na1 Ti16 O16 F32
1.0
10.887051 0.134262 -0.000101
0.130945 10.959041 0.000293
-0.000063 0.000207 7.629895
Na Ti O F
1 16 16 32
direct
0.494730 0.489473 0.665946 Na
0.240981 0.005226 0.012831 Ti
0.238626 0.505788 0.014057 Ti
0.743428 0.004043 0.013211 Ti
0.743478 0.506448 0.013910 Ti
0.004678 0.241895 0.984646 Ti
0.004705 0.743591 0.984819 Ti
0.505840 0.238442 0.986030 Ti
0.504963 0.743961 0.985400 Ti
0.241017 0.005218 0.486788 Ti
0.238650 0.505767 0.485598 Ti
0.743492 0.003973 0.486484 Ti
0.743534 0.506442 0.486035 Ti
0.004740 0.241886 0.514987 Ti
0.004741 0.743562 0.514996 Ti
0.505914 0.238338 0.513759 Ti
0.504989 0.743975 0.514441 Ti
0.115497 0.115368 0.985612 O
0.113850 0.614635 0.986197 O
0.615296 0.113839 0.985976 O
0.611264 0.611073 0.979489 O
0.115556 0.115413 0.514101 O
0.113853 0.614625 0.513444 O
0.615282 0.113734 0.513987 O
0.611268 0.611056 0.520361 O
0.483311 0.252777 0.749930 O
0.479315 0.746875 0.749926 O
0.980952 0.249965 0.749839 O
0.981637 0.750005 0.749867 O
0.235452 0.491608 0.249852 O
0.235183 0.993941 0.249861 O
0.731986 0.496281 0.250004 O
0.734998 0.993195 0.249931 O
0.363627 0.137292 0.022053 F
0.363384 0.636398 0.022961 F
0.863830 0.135930 0.021653 F
0.861847 0.638402 0.021718 F
0.138020 0.363488 0.975009 F
0.137618 0.863057 0.977389 F
0.636172 0.364521 0.975308 F
0.638531 0.861494 0.977612 F
0.391580 0.392216 0.006803 F
0.388591 0.886316 0.015373 F
0.885915 0.387271 0.014513 F
0.887754 0.887026 0.014070 F
0.138118 0.363450 0.524741 F
0.137553 0.863133 0.522304 F
0.636291 0.364462 0.524822 F
0.638576 0.861451 0.522299 F
0.363613 0.137333 0.477721 F
0.363357 0.636446 0.476980 F
0.863914 0.135862 0.478066 F
0.861845 0.638426 0.478144 F
0.391763 0.392352 0.493040 F
0.388637 0.886376 0.484389 F
0.885974 0.387336 0.485365 F
0.887674 0.886910 0.485623 F
0.014001 0.257242 0.249865 F
0.013515 0.755712 0.249862 F
0.512910 0.259642 0.250027 F
0.516820 0.751725 0.249973 F
0.272462 0.000039 0.749841 F
0.276757 0.504889 0.749866 F
0.770781 0.999650 0.749911 F
0.769026 0.500082 0.749995 F
