Ti4 O4 F8                               
   1.00000000000000     
     5.5324081434649202    0.0643208785443716    0.0757238353998942
    -2.7128610126154409    4.9034489730736439   -0.1539682043935576
     0.1488537622178399   -0.2344312040848807    9.4760194381362908
   Ti   O    F 
     4     4     8
Direct
  0.3396078105109676  0.7058462855463252  0.6067956660589225
  0.6604738137532509  0.2941712156827166  0.3931898359244849
  0.6581033797089958  0.3499640385078540  0.1082741304856479
  0.3417845835543289  0.6500443137374763  0.8917174554307568
  0.5000657054333609  0.5000559190850115  0.9999750109464608
  0.5000092995692178  0.9999929094321899  0.5000107294854459
  0.7977192441212091  0.1975250396523055  0.2410437736116015
  0.2022941124225381  0.8024920557878112  0.7589680548542005
  0.4999721393374408  0.9999857822478637  0.0000123300503452
  0.9999940262165413  0.4999634310956576  0.0000134077741172
  0.0000185079007176  0.5000145551242510  0.4999995193132891
  0.4999916978136160  0.4999831339863237  0.4999959996113972
  0.7913163125767719  0.6331407345619680  0.2542494982877271
  0.2086662357216577  0.3668445904647076  0.7457615660274101
  0.3596120716820882  0.2082316638559179  0.2511029417002050
  0.6403710596773116  0.7917443312316206  0.7488900804379741
 
  0.00000000E+00  0.00000000E+00  0.00000000E+00
  0.00000000E+00  0.00000000E+00  0.00000000E+00
  0.00000000E+00  0.00000000E+00  0.00000000E+00
  0.00000000E+00  0.00000000E+00  0.00000000E+00
  0.00000000E+00  0.00000000E+00  0.00000000E+00
  0.00000000E+00  0.00000000E+00  0.00000000E+00
  0.00000000E+00  0.00000000E+00  0.00000000E+00
  0.00000000E+00  0.00000000E+00  0.00000000E+00
  0.00000000E+00  0.00000000E+00  0.00000000E+00
  0.00000000E+00  0.00000000E+00  0.00000000E+00
  0.00000000E+00  0.00000000E+00  0.00000000E+00
  0.00000000E+00  0.00000000E+00  0.00000000E+00
  0.00000000E+00  0.00000000E+00  0.00000000E+00
  0.00000000E+00  0.00000000E+00  0.00000000E+00
  0.00000000E+00  0.00000000E+00  0.00000000E+00
  0.00000000E+00  0.00000000E+00  0.00000000E+00
