Na2 Cr2 O4 F2                           
   1.00000000000000     
     3.9126175529629896   -0.0000507089894965    0.0042307345615661
    -0.0000564051054673    3.8008783273041589   -0.0000355793668690
     0.0011596154867414   -0.0000686478552722    7.2979715732171950
   Na   Cr   O    F 
     2     2     4     2
Direct
  0.0347036854497805  0.9999182851188523  0.0475579613346437
  0.0336893736061102  0.9999077009524631  0.4613277157169383
  0.5461879111643031  0.4999397940347905  0.2533309627223757
  0.4883533020666786  0.4999857533042563  0.7533147736615634
  0.4724677446159953  0.5000599554299874  0.0085982128521154
  0.4719004109551092  0.5000820685686636  0.4997958737986380
  0.5115565429567434  0.0001058251776049  0.2546174249009737
  0.9814777446968271  0.5000223298511293  0.2544076550846420
  0.4756823551440322 -0.0000023623604618  0.7553756581831218
  0.9839809293444212  0.4999806499227142  0.7546737617449800
 
  0.00000000E+00  0.00000000E+00  0.00000000E+00
  0.00000000E+00  0.00000000E+00  0.00000000E+00
  0.00000000E+00  0.00000000E+00  0.00000000E+00
  0.00000000E+00  0.00000000E+00  0.00000000E+00
  0.00000000E+00  0.00000000E+00  0.00000000E+00
  0.00000000E+00  0.00000000E+00  0.00000000E+00
  0.00000000E+00  0.00000000E+00  0.00000000E+00
  0.00000000E+00  0.00000000E+00  0.00000000E+00
  0.00000000E+00  0.00000000E+00  0.00000000E+00
  0.00000000E+00  0.00000000E+00  0.00000000E+00
