Na8 Fe8 O16 F8                          
   1.00000000000000     
     7.7587087539013941   -0.0000004196541118    0.0000008216133344
    -0.0000004078944758    7.5343218008658575   -0.0000000355137356
     0.0000007977136501   -0.0000000343931592    7.5342517871155827
   Na   Fe   O    F 
     8     8    16     8
Direct
  0.2500062350326163  0.2481967888056499  0.2481991773305633
  0.2500062866516433  0.2481968095110692  0.7518008037260431
  0.2500062682129988  0.7518032823542610  0.2481989862788388
  0.2500063423293666  0.7518031971493440  0.7518006958984833
  0.7499989383702534  0.2505656277325498  0.2505782249403971
  0.7499990893135168  0.2505658026398849  0.7494216698589583
  0.7499988307614660  0.7494344780291614  0.2505783764382892
  0.7499996585468627  0.7494334728149720  0.7494225231592250
  0.0002091372394340  0.0000000041348345  0.0000004233198817
  0.9873405219396986  0.0000000549861864  0.5000000574031040
  0.9864748099186869  0.5000000106340589  0.9999998985405245
  0.0004885912731464  0.5000000365784990  0.4999998293001953
  0.4997674220806165  0.0000000207749307 -0.0000000703761603
  0.5135241108131706  0.9999999841869791  0.4999998678769486
  0.5126648766225311  0.5000000016465761  0.9999997228158117
  0.4995074776685029  0.5000000202913579  0.5000011649679041
  0.2499890566488690  0.0000000087884001 -0.0000001012117892
  0.7500042210144636  0.0000000090082651  0.0000000109425467
  0.7458855221006641  0.0000000110015763  0.5000000415907740
  0.7541135213762548  0.5000000201468394  0.9999997718589938
  0.0023996575128834  0.2488697878200480  0.4999998747347621
  0.0023996723697027  0.7511302739332747  0.5000001311453056
  0.4983864412884997  0.2571953548913973  0.0000004167321657
  0.5012646604330937  0.2540022643099770  0.4999992264916963
  0.4983864598577469  0.7428046630129886  0.0000005499940829
  0.5012646522379842  0.7459977634035533  0.4999990473173433
  0.0016305251648209  0.9999997401854097  0.2571957827667121
  0.0016304812080351  0.0000000089866707  0.7428043623543498
  0.9987422722902133  0.5000002858915314  0.2540196288383743
  0.9987422614021711  0.5000000147824456  0.7459801284235358
  0.4976025603641770  0.4999999667255349  0.2488544088790311
  0.4976028245447846  0.5000000677431983  0.7511457566682344
  0.2572359714657645  0.0000000166838765  0.5000003334959239
  0.2427814171303153  0.5000000186222661  0.9999995602338779
  0.2500041690014007  0.5000000377163135  0.4999998935810451
  0.7499974645483455  0.5000000288260333  0.4999995943014739
  0.0140421633508818  0.2514563791318741  0.0000005433823364
  0.0140421530522559  0.7485436537373790 -0.0000000588014361
  0.4859264477058751  0.0000001189603949  0.2514519940152326
  0.4859268271562797  0.9999999134204378  0.7485477507864057
 
  0.00000000E+00  0.00000000E+00  0.00000000E+00
  0.00000000E+00  0.00000000E+00  0.00000000E+00
  0.00000000E+00  0.00000000E+00  0.00000000E+00
  0.00000000E+00  0.00000000E+00  0.00000000E+00
  0.00000000E+00  0.00000000E+00  0.00000000E+00
  0.00000000E+00  0.00000000E+00  0.00000000E+00
  0.00000000E+00  0.00000000E+00  0.00000000E+00
  0.00000000E+00  0.00000000E+00  0.00000000E+00
  0.00000000E+00  0.00000000E+00  0.00000000E+00
  0.00000000E+00  0.00000000E+00  0.00000000E+00
  0.00000000E+00  0.00000000E+00  0.00000000E+00
  0.00000000E+00  0.00000000E+00  0.00000000E+00
  0.00000000E+00  0.00000000E+00  0.00000000E+00
  0.00000000E+00  0.00000000E+00  0.00000000E+00
  0.00000000E+00  0.00000000E+00  0.00000000E+00
  0.00000000E+00  0.00000000E+00  0.00000000E+00
  0.00000000E+00  0.00000000E+00  0.00000000E+00
  0.00000000E+00  0.00000000E+00  0.00000000E+00
  0.00000000E+00  0.00000000E+00  0.00000000E+00
  0.00000000E+00  0.00000000E+00  0.00000000E+00
  0.00000000E+00  0.00000000E+00  0.00000000E+00
  0.00000000E+00  0.00000000E+00  0.00000000E+00
  0.00000000E+00  0.00000000E+00  0.00000000E+00
  0.00000000E+00  0.00000000E+00  0.00000000E+00
  0.00000000E+00  0.00000000E+00  0.00000000E+00
  0.00000000E+00  0.00000000E+00  0.00000000E+00
  0.00000000E+00  0.00000000E+00  0.00000000E+00
  0.00000000E+00  0.00000000E+00  0.00000000E+00
  0.00000000E+00  0.00000000E+00  0.00000000E+00
  0.00000000E+00  0.00000000E+00  0.00000000E+00
  0.00000000E+00  0.00000000E+00  0.00000000E+00
  0.00000000E+00  0.00000000E+00  0.00000000E+00
  0.00000000E+00  0.00000000E+00  0.00000000E+00
  0.00000000E+00  0.00000000E+00  0.00000000E+00
  0.00000000E+00  0.00000000E+00  0.00000000E+00
  0.00000000E+00  0.00000000E+00  0.00000000E+00
  0.00000000E+00  0.00000000E+00  0.00000000E+00
  0.00000000E+00  0.00000000E+00  0.00000000E+00
  0.00000000E+00  0.00000000E+00  0.00000000E+00
  0.00000000E+00  0.00000000E+00  0.00000000E+00
