V2 O2 F4                                
   1.00000000000000     
     3.7329419378291817   -0.0000000349392069    0.0017741047759471
     0.0000000376358766    3.8399445073423859    0.0000000259839339
     0.0021603458030862   -0.0000000186671987    7.6795176813496440
   V    O    F 
     2     2     4
Direct
  0.4503513055181128  0.5000000030503056  0.2562323618903236
  0.4505079936335213  0.4999999984907469  0.7562268926692901
  0.0110607585554813  0.5000000033700864  0.2545111928360195
  0.0109200201587524  0.5000000034863897  0.7545117132369646
  0.5193207908826197  0.5000000446066020  0.0054027386056531
  0.5193178198262363  0.4999999463503149  0.5054049875528230
  0.5192624778819387  0.0000000031559144  0.2553537381949338
  0.5192588335433305 -0.0000000025103526  0.7553563750139846
 
  0.00000000E+00  0.00000000E+00  0.00000000E+00
  0.00000000E+00  0.00000000E+00  0.00000000E+00
  0.00000000E+00  0.00000000E+00  0.00000000E+00
  0.00000000E+00  0.00000000E+00  0.00000000E+00
  0.00000000E+00  0.00000000E+00  0.00000000E+00
  0.00000000E+00  0.00000000E+00  0.00000000E+00
  0.00000000E+00  0.00000000E+00  0.00000000E+00
  0.00000000E+00  0.00000000E+00  0.00000000E+00
