Sodium chromate(III)                    
   1.00000000000000     
     2.9874211175651535   -0.0000788555549700    0.0000020458107873
    -1.4937788498981945    2.5871435068834239   -0.0000019494261036
     0.0000081751672993   -0.0000041453633328   15.7395307279289014
   Na   Cr   O 
     3     3     6
Direct
  0.9999995617072486  0.9999996161542057  0.0000000237368241
  0.6666663872404115  0.3333330086069566  0.3333333121377677
  0.3333330061605153  0.6666663334171901  0.6666666411304689
  0.0000006304918898  0.0000006284253757  0.4999999532307129
  0.6666673139458226  0.3333339742578829  0.8333333776579082
  0.3333339849900838  0.6666673309290729  0.1666666686267533
  0.0000050470577264  0.9999947382066097  0.2328521345951842
  0.9999947369528073  0.0000050293290954  0.7671478163946119
  0.6666716927287979  0.3333280585793190  0.5661855576792760
  0.6666613706111733  0.3333383432451740  0.1004811512190358
  0.3333383480249523  0.6666613784792332  0.8995188323781207
  0.3333280400885670  0.6666716803698947  0.4338145092133203
 
  0.00000000E+00  0.00000000E+00  0.00000000E+00
  0.00000000E+00  0.00000000E+00  0.00000000E+00
  0.00000000E+00  0.00000000E+00  0.00000000E+00
  0.00000000E+00  0.00000000E+00  0.00000000E+00
  0.00000000E+00  0.00000000E+00  0.00000000E+00
  0.00000000E+00  0.00000000E+00  0.00000000E+00
  0.00000000E+00  0.00000000E+00  0.00000000E+00
  0.00000000E+00  0.00000000E+00  0.00000000E+00
  0.00000000E+00  0.00000000E+00  0.00000000E+00
  0.00000000E+00  0.00000000E+00  0.00000000E+00
  0.00000000E+00  0.00000000E+00  0.00000000E+00
  0.00000000E+00  0.00000000E+00  0.00000000E+00
