Fe4 O4 F8                               
   1.00000000000000     
     4.8483101836616260    0.0420692096809164   -0.0043986618336808
     0.0467161960212143    5.4537303939930428    0.0291899072071602
     0.0019835535579846   -0.0355757376947411    7.3909272445035930
   Fe   O    F 
     4     4     8
Direct
  0.4954659202144600  0.9851742583281328 -0.0017125377808360
  0.0033656781929320  0.4746387739842622 -0.0018303189504628
  0.5044493219213085  0.0147059340109290  0.4983431430649971
  0.9967292123206660  0.5252679295761736  0.4983515808881654
  0.7603826295412233  0.2423418747993193  0.0598347280626372
  0.2001583700802053  0.2162630943189688  0.9440308205057922
  0.2396475016446548  0.7567986910296691  0.5596310515968607
  0.8018727892711703  0.7850347463586338  0.4434593742433124
  0.2802814491162831  0.7027670414096747  0.9380249226166636
  0.7793666489281729  0.7450041811845305  0.0607355285329392
  0.7181820085213164  0.2989465170737990  0.4385618897686309
  0.2197366141489210  0.2538475556112195  0.5609178445262644
  0.1428171498202482  0.4879662386443352  0.2508253534645903
  0.8569886455289465  0.5117968242196363  0.7509584836098153
  0.6152101825770446  0.0104974799674115  0.7498542027767506
  0.3853458781724323  0.9889488594833047  0.2500139330738921
 
  0.00000000E+00  0.00000000E+00  0.00000000E+00
  0.00000000E+00  0.00000000E+00  0.00000000E+00
  0.00000000E+00  0.00000000E+00  0.00000000E+00
  0.00000000E+00  0.00000000E+00  0.00000000E+00
  0.00000000E+00  0.00000000E+00  0.00000000E+00
  0.00000000E+00  0.00000000E+00  0.00000000E+00
  0.00000000E+00  0.00000000E+00  0.00000000E+00
  0.00000000E+00  0.00000000E+00  0.00000000E+00
  0.00000000E+00  0.00000000E+00  0.00000000E+00
  0.00000000E+00  0.00000000E+00  0.00000000E+00
  0.00000000E+00  0.00000000E+00  0.00000000E+00
  0.00000000E+00  0.00000000E+00  0.00000000E+00
  0.00000000E+00  0.00000000E+00  0.00000000E+00
  0.00000000E+00  0.00000000E+00  0.00000000E+00
  0.00000000E+00  0.00000000E+00  0.00000000E+00
  0.00000000E+00  0.00000000E+00  0.00000000E+00
