Na4 Fe4 O8 F4                           
   1.00000000000000     
     5.4438699611988364    0.0292132394914318    0.1564565085320153
    -2.6987648315327415    4.6746282759907922   -0.2217073512346569
     0.2738488895219470   -0.2776303411921313    9.2001768557894970
   Na   Fe   O    F 
     4     4     8     4
Direct
  0.0070420169954097  0.9839629013977488  0.9932954482781511
  0.0181656689086817  0.0165422385995603  0.4118243131832042
  0.3352080674287179  0.6568780324236624  0.2359685699556816
  0.6631259530476539  0.3295134094735925  0.7663364366878276
  0.3633386424087627  0.7303427961843454  0.6009361921290526
  0.7239057866774821  0.3576251368960060  0.4073254034799588
  0.6194217057449690  0.3288584371990267  0.1124753383893145
  0.3611970899272475  0.6554267468549553  0.8945403859525266
  0.5167255279628898  0.0508160283170847  0.9749133236461540
  0.5800810153417973  0.5920722943285267  0.0106428808434499
  0.6437359311536411  0.0768990806073002  0.5304184907422466
  0.0887386975101887  0.6344896639661953  0.4702171793564562
  0.7410679246839806  0.5975867861991259  0.2768495036968553
  0.6119994426379360  0.7644816707878467  0.7372535292816863
  0.6915125738979658  0.1269411385950482  0.2479526608296525
  0.1437171240959582  0.7035777064065358  0.7627680421931095
  0.0511575017612346  0.5400636737990248  0.0394817867839665
  0.4137181850921362  0.4054869151414990  0.5089202342950819
  0.1928899981686664  0.2648441651129411  0.8179244905352336
  0.2332511465546809  0.1835911777099607  0.1999557897404058
 
  0.00000000E+00  0.00000000E+00  0.00000000E+00
  0.00000000E+00  0.00000000E+00  0.00000000E+00
  0.00000000E+00  0.00000000E+00  0.00000000E+00
  0.00000000E+00  0.00000000E+00  0.00000000E+00
  0.00000000E+00  0.00000000E+00  0.00000000E+00
  0.00000000E+00  0.00000000E+00  0.00000000E+00
  0.00000000E+00  0.00000000E+00  0.00000000E+00
  0.00000000E+00  0.00000000E+00  0.00000000E+00
  0.00000000E+00  0.00000000E+00  0.00000000E+00
  0.00000000E+00  0.00000000E+00  0.00000000E+00
  0.00000000E+00  0.00000000E+00  0.00000000E+00
  0.00000000E+00  0.00000000E+00  0.00000000E+00
  0.00000000E+00  0.00000000E+00  0.00000000E+00
  0.00000000E+00  0.00000000E+00  0.00000000E+00
  0.00000000E+00  0.00000000E+00  0.00000000E+00
  0.00000000E+00  0.00000000E+00  0.00000000E+00
  0.00000000E+00  0.00000000E+00  0.00000000E+00
  0.00000000E+00  0.00000000E+00  0.00000000E+00
  0.00000000E+00  0.00000000E+00  0.00000000E+00
  0.00000000E+00  0.00000000E+00  0.00000000E+00
