Na1 Ti16 O16 F32                        
   1.00000000000000     
    11.4504970000000004    0.1414470000000000   -0.0000610000000000
     0.1383040000000000   11.5006149999999998    0.0001510000000000
    -0.0000410000000000    0.0001080000000000    8.0142270000000000
   Na   Ti   O    F 
     1    16    16    32
Direct
  0.4814623442206042  0.4625532017927000  0.2494172569307753
  0.2229231980247569  0.0162171071705983  0.0111109145448829
  0.2231305018673109  0.5281473186908840  0.0098310979232090
  0.7420935365993168  0.0216547670617590  0.0110427542744928
  0.7287319309043525  0.5199616347200895  0.0102846004406044
  0.0028329407858903  0.2554703461152649  0.9705288260370663
  0.9912490895076750  0.7537931431720573  0.9701902899788742
  0.5007867109875417  0.2352711146717725  0.9695329568231101
  0.5042546349036151  0.7560669570913114  0.9716515283374043
  0.2486612063158220  0.9938974446502592  0.4694351382477233
  0.2439500837337930  0.5037892312049137  0.4719825508930625
  0.7572861957308258 -0.0015205716209126  0.4716168486941555
  0.7503528642185258  0.5002511427981443  0.4736757322250715
  0.0247926405408026  0.2284182363907030  0.5120423701802173
  0.0134327246169565  0.7318432019647958  0.5095332871872240
  0.5219465477120526  0.2208487092501597  0.5147347133379682
  0.5213473182443576  0.7343108726627334  0.5120493557493799
  0.1215814568442750  0.1307375772871034  0.0122756565134818
  0.1148234274940012  0.6353641754041166  0.0105696372535177
  0.6272789116823420  0.1273216547591032  0.0122123151660203
  0.6155250397786128  0.6242809128912894  0.0155420920876031
  0.1343143139017429  0.1211343607899597  0.5124879875338120
  0.1236899877382688  0.6233937695902645  0.5106624699409740
  0.6340521009779956  0.1175256722280059  0.5118945030436800
  0.6251444191100526  0.6215288170759203  0.5102462504757718
  0.5039455473229076  0.2445427717292454  0.7522878861518867
  0.5013517506870167  0.7498929729222903  0.7552338990971719
  0.0039382871233116  0.2515164203017831  0.7540486761054429
  0.9956448153357861  0.7526711576290296  0.7543706946848484
  0.2476655601663399  0.5037570385751048  0.2534761025791726
  0.2488972674678544  0.9983661494805094  0.2529330468606332
  0.7464212950432743  0.5035697791074678  0.2566017649968229
  0.7547113725781257  0.0004080793704537  0.2550950982990998
  0.3767701504162191  0.1251355095984558  1.0030148283361557
  0.3667954056872689  0.6201769326408740  0.0125957813891255
  0.8741136329018866  0.1303958911300355  1.0039902085649508
  0.8670668322949878  0.6348224803244149  1.0050672802624325
  0.1217638609268485  0.3816050932038175  0.0060959157750681
  0.1145760824671270  0.8834762925779477  1.0050420314468991
  0.6284701960344884  0.3826479829518236  0.0145421248932361
  0.6200355332256098  0.8743504687706131  1.0035850791407104
  0.3994804997032368  0.3620137507430379  0.0260964156101749
  0.3797663401308949  0.8595713545772282  0.0144469357591057
  0.8852594183723200  0.3688331070718278  0.0133539576062145
  0.8766412984782005  0.8743691462316135  1.0121118794998620
  0.1306268135628936  0.3727209397510238  0.5061834051421495
  0.1296139639731630  0.8727973801774728  0.5028176502347714
  0.6259097747729547  0.3767536682882601  0.4999160699458653
  0.6301902804037043  0.8688219025243301  0.5030997105519422
  0.3858221129019384  0.1207451253970740  0.5022690849105407
  0.3755545432974459  0.6221108023592665  0.5006907130246370
  0.8841514750830436  0.1178944334820501  0.5059793898689339
  0.8761241044779935  0.6235676487338140  0.5049371238963101
  0.3689942040124320  0.3922900267698888  0.5008852410556810
  0.3696178108599810  0.8834624671974171  0.5127817238417252
  0.8649102822144189  0.3858037399863780  0.5146397317298705
  0.8706181551427855  0.8790040186148714  0.5132134694527442
  0.0017480158883829  0.2517542779202344  0.2828447220820255
  0.9955846127684961  0.7539163812802555  0.2782479760110252
  0.5056267828963584  0.2548429466987262  0.2821224993908095
  0.4978470174306934  0.7461414453383588  0.2781435433379948
  0.2511668382849522  0.9979276768756651  0.7820856894214526
  0.2463190805104516  0.5010109616881845  0.7808340700103145
  0.7539994862029964 -0.0017870429548479  0.7786790079910234
  0.7503295593560434  0.5035461151950867  0.7787052471311656
 
             NaN             NaN             NaN
             NaN             NaN             NaN
             NaN             NaN             NaN
             NaN             NaN             NaN
             NaN             NaN             NaN
             NaN             NaN             NaN
             NaN             NaN             NaN
             NaN             NaN             NaN
             NaN             NaN             NaN
             NaN             NaN             NaN
             NaN             NaN             NaN
             NaN             NaN             NaN
             NaN             NaN             NaN
             NaN             NaN             NaN
             NaN             NaN             NaN
             NaN             NaN             NaN
             NaN             NaN             NaN
             NaN             NaN             NaN
             NaN             NaN             NaN
             NaN             NaN             NaN
             NaN             NaN             NaN
             NaN             NaN             NaN
             NaN             NaN             NaN
             NaN             NaN             NaN
             NaN             NaN             NaN
             NaN             NaN             NaN
             NaN             NaN             NaN
             NaN             NaN             NaN
             NaN             NaN             NaN
             NaN             NaN             NaN
             NaN             NaN             NaN
             NaN             NaN             NaN
             NaN             NaN             NaN
             NaN             NaN             NaN
             NaN             NaN             NaN
             NaN             NaN             NaN
             NaN             NaN             NaN
             NaN             NaN             NaN
             NaN             NaN             NaN
             NaN             NaN             NaN
             NaN             NaN             NaN
             NaN             NaN             NaN
             NaN             NaN             NaN
             NaN             NaN             NaN
             NaN             NaN             NaN
             NaN             NaN             NaN
             NaN             NaN             NaN
             NaN             NaN             NaN
             NaN             NaN             NaN
             NaN             NaN             NaN
             NaN             NaN             NaN
             NaN             NaN             NaN
             NaN             NaN             NaN
             NaN             NaN             NaN
             NaN             NaN             NaN
             NaN             NaN             NaN
             NaN             NaN             NaN
             NaN             NaN             NaN
             NaN             NaN             NaN
             NaN             NaN             NaN
             NaN             NaN             NaN
             NaN             NaN             NaN
             NaN             NaN             NaN
             NaN             NaN             NaN
             NaN             NaN             NaN
