Na1 Ti16 O16 F32
1.0
11.450497 0.141447 -0.000061
0.138304 11.500615 0.000151
-0.000041 0.000108 8.014227
Na Ti O F
1 16 16 32
direct
0.473385 0.462397 0.412670 Na
0.222522 0.017989 0.005561 Ti
0.220053 0.527386 0.006986 Ti
0.744509 0.017216 0.023444 Ti
0.730528 0.522633 0.005031 Ti
0.000769 0.254644 0.964502 Ti
0.993150 0.756208 0.962436 Ti
0.501038 0.226362 0.965659 Ti
0.504268 0.754117 0.964638 Ti
0.247978 0.994229 0.462875 Ti
0.229548 0.512116 0.464799 Ti
0.754559 0.010257 0.485715 Ti
0.754509 0.503392 0.463876 Ti
0.025119 0.229734 0.506425 Ti
1.006221 0.744769 0.499248 Ti
0.510615 0.222524 0.506410 Ti
0.529878 0.740699 0.507588 Ti
0.121344 0.132410 0.006782 O
0.113510 0.637080 0.003880 O
0.627508 0.122203 0.002720 O
0.615387 0.626265 0.008735 O
0.133498 0.121533 0.506633 O
0.119201 0.628179 0.495422 O
0.635221 0.121043 0.502581 O
0.630760 0.626222 0.506442 O
0.501602 0.236208 0.745749 O
0.501399 0.749260 0.747710 O
0.003314 0.252343 0.748351 O
0.996685 0.754929 0.746364 O
0.242834 0.502134 0.245001 O
0.246667 0.997146 0.245806 O
0.753237 0.508110 0.246881 O
0.755897 0.004146 0.250353 O
0.373795 0.117258 0.998254 F
0.367659 0.619351 0.001076 F
0.875735 0.129628 -0.000913 F
0.867294 0.637987 0.996996 F
0.120428 0.382345 0.000017 F
0.111434 0.883935 0.998705 F
0.632214 0.384488 0.005525 F
0.621819 0.873638 0.998487 F
0.403096 0.356269 0.011951 F
0.381219 0.857058 0.011081 F
0.885179 0.368841 0.007296 F
0.872879 0.877008 0.998629 F
0.133172 0.373440 0.503577 F
0.126525 0.873786 0.495381 F
0.632486 0.383279 0.491802 F
0.633819 0.873502 0.499379 F
0.381582 0.114728 0.494538 F
0.369280 0.607128 0.504519 F
0.884925 0.124378 0.501928 F
0.874515 0.629784 0.497981 F
0.388813 0.369749 0.497337 F
0.367257 0.882284 0.507964 F
0.871176 0.391541 0.507093 F
0.877521 0.879525 0.501091 F
0.003159 0.254010 0.277362 F
0.993135 0.757836 0.264905 F
0.509089 0.241249 0.267940 F
0.493789 0.745117 0.281213 F
0.248077 0.995794 0.776117 F
0.244478 0.500992 0.775918 F
0.757785 0.000132 0.747390 F
0.751787 0.505955 0.773716 F
