Na4 Cr4 O8 F4                           
   1.00000000000000     
     5.4661719516368583    0.0032362630077227    0.0131987615887717
    -2.7334416396240240    4.6058663131265911   -0.0040814217449199
    -0.0533327429508535   -0.0465633231631083    9.1111880008257131
   Na   Cr   O    F 
     4     4     8     4
Direct
  0.0162010839445824  0.9803937086454950  0.0838632151423830
  0.9922799007776389  0.0172702050823781  0.5835316628916617
  0.3472830785956944  0.6563917282208703  0.2604068155023797
  0.6789645528741818  0.3622624578563105  0.7583617447919906
  0.3379102923795491  0.6901201275030950  0.5976036011204902
  0.7013544283528006  0.3462470752116167  0.3855573906215423
  0.7164293940959940  0.3130493932890658  0.0989388302111215
  0.3364315632691147  0.6635622353156354  0.8802507109367351
  0.5748768020657387  0.9895158052869341  0.0037989331739301
  0.9884672637287304  0.5593796108527724  0.9896367841486275
  0.5653921298959657  0.0227364132078642  0.4908589912873979
  0.9836183120648921  0.6026914918919577  0.4901747453089242
  0.7046316520661948  0.5693213765656130  0.2271641737731852
  0.1109069247146682  0.4105185571625031  0.7287891378084972
  0.6153200809197468  0.7528406046120978  0.7353959053204535
  0.8989654454783892  0.2518616859226519  0.2445411195914784
  0.4035263473267340  0.3858701519350300  0.9779347364851373
  0.3994624352727648  0.4299878315998685  0.4781699879084276
  0.3585934199042695  0.0658244817989129  0.2396275778832923
  0.2693848922723348  0.9301550580393414  0.7453939360923439
 
  0.00000000E+00  0.00000000E+00  0.00000000E+00
  0.00000000E+00  0.00000000E+00  0.00000000E+00
  0.00000000E+00  0.00000000E+00  0.00000000E+00
  0.00000000E+00  0.00000000E+00  0.00000000E+00
  0.00000000E+00  0.00000000E+00  0.00000000E+00
  0.00000000E+00  0.00000000E+00  0.00000000E+00
  0.00000000E+00  0.00000000E+00  0.00000000E+00
  0.00000000E+00  0.00000000E+00  0.00000000E+00
  0.00000000E+00  0.00000000E+00  0.00000000E+00
  0.00000000E+00  0.00000000E+00  0.00000000E+00
  0.00000000E+00  0.00000000E+00  0.00000000E+00
  0.00000000E+00  0.00000000E+00  0.00000000E+00
  0.00000000E+00  0.00000000E+00  0.00000000E+00
  0.00000000E+00  0.00000000E+00  0.00000000E+00
  0.00000000E+00  0.00000000E+00  0.00000000E+00
  0.00000000E+00  0.00000000E+00  0.00000000E+00
  0.00000000E+00  0.00000000E+00  0.00000000E+00
  0.00000000E+00  0.00000000E+00  0.00000000E+00
  0.00000000E+00  0.00000000E+00  0.00000000E+00
  0.00000000E+00  0.00000000E+00  0.00000000E+00
