Ni4 O4 F8                               
   1.00000000000000     
     4.8340649003781788    0.0003236921177392    0.0761493252821280
    -0.0000666069837097    5.4999434226875508    0.0179384535686692
    -0.1064454976473568   -0.0030758389027116    6.7652841051755894
   Ni   O    F 
     4     4     8
Direct
  0.4985634244740744  0.0078666977126863  0.0105325358702571
  0.0014937979598090  0.5077186527888742  0.0106568840909671
  0.5013417559604882  0.9919432152238001  0.5105974298164742
  0.9987208265873334  0.4919802383093747  0.5107393507745772
  0.7407330388187795  0.2601062946029684  0.0771156719379417
  0.7588026958962605  0.7600361373883392  0.0765829077869064
  0.2607403045333349  0.7378307088100140  0.5766979406102565
  0.2392383306274511  0.2379750011913970  0.5771672692224799
  0.2621476988769163  0.7472646005421052  0.9057567339092817
  0.2380884022681450  0.2473695754816353  0.9061309674026278
  0.7357035971725190  0.2549260583161306  0.4063427196505246
  0.7645589518123237  0.7549608828176159  0.4060064542369274
  0.1946024021710875  0.4931425469462332  0.2565493774253120
  0.8054028190334422  0.5067179503715056  0.7565295851872610
  0.6945675416873992  0.0069766474010785  0.7562232989827152
  0.3052944121206284  0.9931847920962553  0.2563708730955030
 
  0.00000000E+00  0.00000000E+00  0.00000000E+00
  0.00000000E+00  0.00000000E+00  0.00000000E+00
  0.00000000E+00  0.00000000E+00  0.00000000E+00
  0.00000000E+00  0.00000000E+00  0.00000000E+00
  0.00000000E+00  0.00000000E+00  0.00000000E+00
  0.00000000E+00  0.00000000E+00  0.00000000E+00
  0.00000000E+00  0.00000000E+00  0.00000000E+00
  0.00000000E+00  0.00000000E+00  0.00000000E+00
  0.00000000E+00  0.00000000E+00  0.00000000E+00
  0.00000000E+00  0.00000000E+00  0.00000000E+00
  0.00000000E+00  0.00000000E+00  0.00000000E+00
  0.00000000E+00  0.00000000E+00  0.00000000E+00
  0.00000000E+00  0.00000000E+00  0.00000000E+00
  0.00000000E+00  0.00000000E+00  0.00000000E+00
  0.00000000E+00  0.00000000E+00  0.00000000E+00
  0.00000000E+00  0.00000000E+00  0.00000000E+00
