Cr4 O4 F8                               
   1.00000000000000     
     4.9312095749884879   -0.0664361822612446    0.0065703607575137
    -0.0658755346960774    5.1629965246817067    0.0002461955188486
     0.0030497731071517   -0.0136791293693125    7.0267130834972251
   Cr   O    F 
     4     4     8
Direct
  0.4877639151361896  0.9797497739096450  0.9990539091062614
  0.0157746396763957  0.5074564995744494  0.9989284270252092
  0.5136464066744774  0.0259687353167996  0.4964296074097219
  0.9849628285581065  0.4966623837607554  0.5001425014061615
  0.5786082990560758  0.0210398965978054  0.7374096986726051
  0.4153180383153051  0.9740544421065475  0.2623278772060358
  0.3190410431634502  0.6809644413717377  0.9444372812485202
  0.6876175625434062  0.3155230468339478  0.4388742929862788
  0.1275805533011223  0.4710370344373836  0.2528760523758620
  0.8689033314406892  0.5291718318767646  0.7522661793217444
  0.6935631246515360  0.3002680209364460  0.0536916832362573
  0.1809316892747095  0.1836142675097311  0.9466507295048514
  0.8193364261264154  0.8078184283411372  0.0575363836581743
  0.3042336465424100  0.6923378273509732  0.5560382386100852
  0.8220282368820053  0.8180486038477738  0.4459237736001486
  0.1806902586577131  0.1962847662281097  0.5574133646320827
 
  0.00000000E+00  0.00000000E+00  0.00000000E+00
  0.00000000E+00  0.00000000E+00  0.00000000E+00
  0.00000000E+00  0.00000000E+00  0.00000000E+00
  0.00000000E+00  0.00000000E+00  0.00000000E+00
  0.00000000E+00  0.00000000E+00  0.00000000E+00
  0.00000000E+00  0.00000000E+00  0.00000000E+00
  0.00000000E+00  0.00000000E+00  0.00000000E+00
  0.00000000E+00  0.00000000E+00  0.00000000E+00
  0.00000000E+00  0.00000000E+00  0.00000000E+00
  0.00000000E+00  0.00000000E+00  0.00000000E+00
  0.00000000E+00  0.00000000E+00  0.00000000E+00
  0.00000000E+00  0.00000000E+00  0.00000000E+00
  0.00000000E+00  0.00000000E+00  0.00000000E+00
  0.00000000E+00  0.00000000E+00  0.00000000E+00
  0.00000000E+00  0.00000000E+00  0.00000000E+00
  0.00000000E+00  0.00000000E+00  0.00000000E+00
