Cr8 O8 F16                              
   1.00000000000000     
     7.4724654426046957    0.0032237795512344    0.0034900327116810
    -0.0011921266569961    7.3827889180999140    0.0003364237889756
     0.0037594980173067    0.0002317851944431    7.4738898658110573
   Cr   O    F 
     8     8    16
Direct
  0.0000968730271519  0.9916416681584630  0.0000107159757305
  0.9999788713348616  0.0174615484376159  0.5000098060230118
  0.0000524884692523  0.4916183535149067  0.0000060167837526
 -0.0000292548267258  0.4947910653082699  0.5000065914333820
  0.4999909211367689  0.9956925123941658  0.0000011330854065
  0.5000112022856850  0.9985294355404086  0.4999987133059379
  0.5000090970896431  0.5165136518168376  0.0000005332938348
  0.4999969798510311  0.5013930047183152  0.4999965983525247
  0.0001137328318771  0.4943508881794934  0.2681868160315265
  0.0000401571914798  0.4942890086265075  0.7318127246659201
  0.2643673817712396  0.9961728258185728  0.0001345748027383
  0.7353426013248675  0.9962331496871394 -0.0000883981401000
  0.9999480953283575  0.2452451157384313  0.4999986730651784
  0.5002047037791428  0.2681659199959004  0.4999891016574727
  0.4998950263263747  0.7479990375108153  0.9999130880492226
  0.4998580985348432  0.7408678103270694  0.4999950678097006
  0.9998256477142368  0.9912560653854635  0.2524918764251130
  0.4999801616935790  0.0113059939421677  0.7499491796149781
  0.2492017297181209  0.0022551913250656  0.5000014763624209
  0.2510140742196734  0.5093623643493027  0.4998704510803765
  0.7478657060888556  0.4909122419654599  0.9998742678279773
  0.7491102928845379  0.5097907286704114  0.5000686797904343
 -0.0000237414439000  0.7418505040760434  0.9999614617560187
  0.4999566352650838  0.2563494573694109 -0.0000006458648367
  0.9998806405993004  0.9913218337838725  0.7475347730823799
  0.4998993111907991  0.0112893803872282  0.2500586179996440
  0.5000582139627811  0.5008745084107484  0.2490334182526613
  0.5001494039009500  0.5008504096959939  0.7509569805614146
  0.2521472683674513  0.4909391714921269  0.0000641985406069
  0.7508326427964599  0.0014588171855919  0.5000500093730842
  0.0000010948560608  0.2416820032934522  0.0000565972711551
  0.0002239427301522  0.7575363328947645  0.5000569017313323
 
  0.00000000E+00  0.00000000E+00  0.00000000E+00
  0.00000000E+00  0.00000000E+00  0.00000000E+00
  0.00000000E+00  0.00000000E+00  0.00000000E+00
  0.00000000E+00  0.00000000E+00  0.00000000E+00
  0.00000000E+00  0.00000000E+00  0.00000000E+00
  0.00000000E+00  0.00000000E+00  0.00000000E+00
  0.00000000E+00  0.00000000E+00  0.00000000E+00
  0.00000000E+00  0.00000000E+00  0.00000000E+00
  0.00000000E+00  0.00000000E+00  0.00000000E+00
  0.00000000E+00  0.00000000E+00  0.00000000E+00
  0.00000000E+00  0.00000000E+00  0.00000000E+00
  0.00000000E+00  0.00000000E+00  0.00000000E+00
  0.00000000E+00  0.00000000E+00  0.00000000E+00
  0.00000000E+00  0.00000000E+00  0.00000000E+00
  0.00000000E+00  0.00000000E+00  0.00000000E+00
  0.00000000E+00  0.00000000E+00  0.00000000E+00
  0.00000000E+00  0.00000000E+00  0.00000000E+00
  0.00000000E+00  0.00000000E+00  0.00000000E+00
  0.00000000E+00  0.00000000E+00  0.00000000E+00
  0.00000000E+00  0.00000000E+00  0.00000000E+00
  0.00000000E+00  0.00000000E+00  0.00000000E+00
  0.00000000E+00  0.00000000E+00  0.00000000E+00
  0.00000000E+00  0.00000000E+00  0.00000000E+00
  0.00000000E+00  0.00000000E+00  0.00000000E+00
  0.00000000E+00  0.00000000E+00  0.00000000E+00
  0.00000000E+00  0.00000000E+00  0.00000000E+00
  0.00000000E+00  0.00000000E+00  0.00000000E+00
  0.00000000E+00  0.00000000E+00  0.00000000E+00
  0.00000000E+00  0.00000000E+00  0.00000000E+00
  0.00000000E+00  0.00000000E+00  0.00000000E+00
  0.00000000E+00  0.00000000E+00  0.00000000E+00
  0.00000000E+00  0.00000000E+00  0.00000000E+00
