Fe8 O8 F16                              
    1.000000000000000     
     7.6319729070036963    0.0062232405184352    0.0250252556339101
     0.0068844244487590    7.6335838831242784    0.0000147405643494
    -0.0069725822088171   -0.0007067952761575    7.6724172815467400
   Fe   O    F 
     8     8    16
Direct
  0.0029410291931620  0.0000080379927704 -0.0002385594209099
 -0.0026492610117316 -0.0000630470256348  0.5002488570138460
  0.0024514898470838  0.5000624514643134  0.0147145954555915
  0.9967268758810527  0.4998861165487569  0.4861924809772523
  0.5119025753445968  0.0000601221389658 -0.0001635197347111
  0.4882649767834030 -0.0000015046968842  0.5000403146599073
  0.5043215092051797  0.5010390461965407  0.0000101452018596
  0.4949198153428913  0.4999671203508798  0.5000119742303665
  0.2575147974160981 -0.0000678100800804  0.4985722613953040
  0.5127705386309784  0.2372419959430126  0.9990459726019083
 -0.0002588398582207  0.4999739510098361  0.2503320505814964
 -0.0000917571205747  0.4998185565340252  0.7500923515463223
  0.7430328213163436 -0.0002612059415658  0.0014903719644099
  0.4872164629069894  0.2370619239124540  0.5006397506577068
  0.5132285480421633  0.7632071150247598  0.9990936990327964
  0.4874127304820767  0.7629000185426386  0.5007270932548972
  0.0003417127265977 -0.0001523476442015  0.2499624051067300
  0.5003353067105648 -0.0001152312341038  0.7499294113423802
  0.2497906613267364  0.5000110884685679  0.4986624503270825
  0.7497289061674239  0.4998472565455096  0.0012580120407041
  0.7425009778425045  0.4993699935247863  0.4998846981054669
 -0.0002207337574734  0.7510557227270903 -0.0091858529253459
  0.0002330912210792  0.0000163955652246  0.7498601257394623
  0.5001908619553712 -0.0001203142301534  0.2498035042272752
  0.4998910136697616  0.4999794735265194  0.2500148542749256
  0.4997553115232365  0.4999706741279433  0.7500405324418343
  0.2578204357489469  0.0004210327466131  0.0001020152943803
  0.2568690971719451  0.5005358083038223  0.0000842399616488
  0.7424123122018407  0.9996409337384498  0.4994747286229561
 -0.0016811210464582  0.2488712034058866 -0.0090979397087992
  0.0004785536823752  0.2488073084421737  0.5090744564759606
  0.0018493004540557  0.7510281140710908  0.5093225192552880
 
  0.00000000E+00  0.00000000E+00  0.00000000E+00
  0.00000000E+00  0.00000000E+00  0.00000000E+00
  0.00000000E+00  0.00000000E+00  0.00000000E+00
  0.00000000E+00  0.00000000E+00  0.00000000E+00
  0.00000000E+00  0.00000000E+00  0.00000000E+00
  0.00000000E+00  0.00000000E+00  0.00000000E+00
  0.00000000E+00  0.00000000E+00  0.00000000E+00
  0.00000000E+00  0.00000000E+00  0.00000000E+00
  0.00000000E+00  0.00000000E+00  0.00000000E+00
  0.00000000E+00  0.00000000E+00  0.00000000E+00
  0.00000000E+00  0.00000000E+00  0.00000000E+00
  0.00000000E+00  0.00000000E+00  0.00000000E+00
  0.00000000E+00  0.00000000E+00  0.00000000E+00
  0.00000000E+00  0.00000000E+00  0.00000000E+00
  0.00000000E+00  0.00000000E+00  0.00000000E+00
  0.00000000E+00  0.00000000E+00  0.00000000E+00
  0.00000000E+00  0.00000000E+00  0.00000000E+00
  0.00000000E+00  0.00000000E+00  0.00000000E+00
  0.00000000E+00  0.00000000E+00  0.00000000E+00
  0.00000000E+00  0.00000000E+00  0.00000000E+00
  0.00000000E+00  0.00000000E+00  0.00000000E+00
  0.00000000E+00  0.00000000E+00  0.00000000E+00
  0.00000000E+00  0.00000000E+00  0.00000000E+00
  0.00000000E+00  0.00000000E+00  0.00000000E+00
  0.00000000E+00  0.00000000E+00  0.00000000E+00
  0.00000000E+00  0.00000000E+00  0.00000000E+00
  0.00000000E+00  0.00000000E+00  0.00000000E+00
  0.00000000E+00  0.00000000E+00  0.00000000E+00
  0.00000000E+00  0.00000000E+00  0.00000000E+00
  0.00000000E+00  0.00000000E+00  0.00000000E+00
  0.00000000E+00  0.00000000E+00  0.00000000E+00
  0.00000000E+00  0.00000000E+00  0.00000000E+00
