Na4 Co4 O8 F4                           
   1.00000000000000     
     5.4318778021198728    0.0056269342382379    0.0309891709313494
    -0.0026428074485837    5.4971850246599363   -0.0022565521336135
     0.1619151602838648    0.0030012787173565    7.1827006969320646
   Na   Co   O    F 
     4     4     8     4
Direct
  0.0006317070513189  0.0018954083267254  0.2443313031639455
  0.0017515765160501  0.9365077169032947  0.7535723054323710
  0.4999052210447251  0.4932635539248760  0.7440681287984203
  0.5026090635977292  0.5652003510049330  0.2557068997752713
  0.4940314480615382  0.0118933277878204  0.0017322427347606
  0.0063608032113967  0.4516381927285736  0.0005462502452093
  0.5060262134690012  0.0486375346545853  0.5004400711309408
  0.9936717935049126  0.4883391661496941  0.5016549853602950
  0.0741232111300455  0.4792688768157202  0.2674875988430007
  0.9332338802897754  0.5128044050372156  0.7355333967654636
  0.5738747181505963  0.0244069152445915  0.7674780102632288
  0.4331685602093804  0.9852532979524663  0.2355538894559089
  0.7009533548113394  0.2934514351975207  0.0374260008292816
  0.1967255274319676  0.1997857602867901  0.9600709158233262
  0.6964579359954525  0.2997033691854266  0.4589942693605745
  0.2001004101942948  0.2071929955791333  0.5360920413659307
  0.2897612624999252  0.6994008257143015  0.9614402225870990
  0.8034978978115588  0.7724690772794084  0.0364786197612997
  0.3035346337363531  0.7286506785597666  0.5383269429436892
  0.7895807812826185  0.8002371116671497  0.4630659053599611
 
  0.00000000E+00  0.00000000E+00  0.00000000E+00
  0.00000000E+00  0.00000000E+00  0.00000000E+00
  0.00000000E+00  0.00000000E+00  0.00000000E+00
  0.00000000E+00  0.00000000E+00  0.00000000E+00
  0.00000000E+00  0.00000000E+00  0.00000000E+00
  0.00000000E+00  0.00000000E+00  0.00000000E+00
  0.00000000E+00  0.00000000E+00  0.00000000E+00
  0.00000000E+00  0.00000000E+00  0.00000000E+00
  0.00000000E+00  0.00000000E+00  0.00000000E+00
  0.00000000E+00  0.00000000E+00  0.00000000E+00
  0.00000000E+00  0.00000000E+00  0.00000000E+00
  0.00000000E+00  0.00000000E+00  0.00000000E+00
  0.00000000E+00  0.00000000E+00  0.00000000E+00
  0.00000000E+00  0.00000000E+00  0.00000000E+00
  0.00000000E+00  0.00000000E+00  0.00000000E+00
  0.00000000E+00  0.00000000E+00  0.00000000E+00
  0.00000000E+00  0.00000000E+00  0.00000000E+00
  0.00000000E+00  0.00000000E+00  0.00000000E+00
  0.00000000E+00  0.00000000E+00  0.00000000E+00
  0.00000000E+00  0.00000000E+00  0.00000000E+00
