Na4 Cr4 O8 F4                           
   1.00000000000000     
     5.0901500847637466   -0.0000000578745706   -0.0000088518667377
     0.0000001019148445    5.1677248239466431    0.0001195093868329
    -0.0000183804639089    0.0001876343502191    7.7381880686519908
   Na   Cr   O    F 
     4     4     8     4
Direct
  0.9775697798862444  0.0359906963643887  0.2499700725707973
  0.0224219483722790  0.9640686804442922  0.7500311884397388
  0.4775733115875671  0.4640104194176092  0.7500294391486881
  0.5224186329528228  0.5359310639938810  0.2499699274970711
  0.5000533749001432 -0.0000010230155853  0.0000272111792142
  0.0000550532205991  0.4999970836375455  0.9999720637228242
  0.5000544668318891  0.0000006210602167  0.4999719481363157
  0.0000551324862415  0.4999978774302183  0.5000286732252481
  0.7150131183944933  0.2821171640819169  0.0404740196898900
  0.2849403095501326  0.7178847356372099  0.9595291208644045
  0.2150192286062275  0.2178856686853912  0.9595300529268032
  0.7849366442746279  0.7821203277904684  0.0404686719131754
  0.2849257795614055  0.7178903505792078  0.5404528063764819
  0.7150241099323567  0.2821113916340689  0.4595402823175286
  0.7849262323366050  0.7821094995494382  0.4595463058558805
  0.2150242846157509  0.2178878908559815  0.5404588736321014
  0.0869348942969638  0.4844610410919163  0.2500013608907503
  0.9130589815720120  0.5155325553530298  0.7499987233903703
  0.5869359913430137  0.0155383650443962  0.7499970879111910
  0.4130587252786175  0.9844655903644086  0.2500021703115112
 
  0.00000000E+00  0.00000000E+00  0.00000000E+00
  0.00000000E+00  0.00000000E+00  0.00000000E+00
  0.00000000E+00  0.00000000E+00  0.00000000E+00
  0.00000000E+00  0.00000000E+00  0.00000000E+00
  0.00000000E+00  0.00000000E+00  0.00000000E+00
  0.00000000E+00  0.00000000E+00  0.00000000E+00
  0.00000000E+00  0.00000000E+00  0.00000000E+00
  0.00000000E+00  0.00000000E+00  0.00000000E+00
  0.00000000E+00  0.00000000E+00  0.00000000E+00
  0.00000000E+00  0.00000000E+00  0.00000000E+00
  0.00000000E+00  0.00000000E+00  0.00000000E+00
  0.00000000E+00  0.00000000E+00  0.00000000E+00
  0.00000000E+00  0.00000000E+00  0.00000000E+00
  0.00000000E+00  0.00000000E+00  0.00000000E+00
  0.00000000E+00  0.00000000E+00  0.00000000E+00
  0.00000000E+00  0.00000000E+00  0.00000000E+00
  0.00000000E+00  0.00000000E+00  0.00000000E+00
  0.00000000E+00  0.00000000E+00  0.00000000E+00
  0.00000000E+00  0.00000000E+00  0.00000000E+00
  0.00000000E+00  0.00000000E+00  0.00000000E+00
