Ni4 O4 F8                               
   1.00000000000000     
     4.9418443020764835   -0.1044469491955502    0.1252284421693245
    -0.1080454597750831    5.0109664412494688   -0.0792076087852624
     0.0278927281521606   -0.1018630762889740    7.0255628585313117
   Ni   O    F 
     4     4     8
Direct
  0.4973158646023345  0.0095528656122399  0.0042732056319780
 -0.0059033542115265  0.5135228357613514 -0.0002337237642334
  0.5014383839561123  0.9886160534986799  0.5036345186873027
  0.0142476225865449  0.4985180523465272  0.4934499563975490
  0.1425155366609481  0.1689439201677550  0.9618793929946868
  0.8585672312627730  0.8556926692376332  0.0435135656438912
  0.3435888909321975  0.6789960557454309  0.5604908311553986
  0.0986639346232795  0.4437473675498860  0.2312580829693740
  0.6426615279362202  0.3436463189524073  0.0747039536632554
  0.3434989984689216  0.6789937731492609  0.9241241665171462
  0.6731574515373963  0.3021548969112289  0.4433995966743888
  0.8111586471122838  0.8117351164380192  0.4174083437460558
  0.1910847944018088  0.1716743767285956  0.5782828990987033
  0.8852699501825130  0.5483954948602057  0.7573067454905557
  0.6426241550020915  0.0462033938136625  0.7611904609867625
  0.3601103649461018  0.9396068092271100  0.2453180041071705
 
  0.00000000E+00  0.00000000E+00  0.00000000E+00
  0.00000000E+00  0.00000000E+00  0.00000000E+00
  0.00000000E+00  0.00000000E+00  0.00000000E+00
  0.00000000E+00  0.00000000E+00  0.00000000E+00
  0.00000000E+00  0.00000000E+00  0.00000000E+00
  0.00000000E+00  0.00000000E+00  0.00000000E+00
  0.00000000E+00  0.00000000E+00  0.00000000E+00
  0.00000000E+00  0.00000000E+00  0.00000000E+00
  0.00000000E+00  0.00000000E+00  0.00000000E+00
  0.00000000E+00  0.00000000E+00  0.00000000E+00
  0.00000000E+00  0.00000000E+00  0.00000000E+00
  0.00000000E+00  0.00000000E+00  0.00000000E+00
  0.00000000E+00  0.00000000E+00  0.00000000E+00
  0.00000000E+00  0.00000000E+00  0.00000000E+00
  0.00000000E+00  0.00000000E+00  0.00000000E+00
  0.00000000E+00  0.00000000E+00  0.00000000E+00
