Na4 Fe4 O8 F4                           
   1.00000000000000     
     5.4800632562924090    0.0199167509926989   -0.0084140179365194
     0.0204662274184401    5.4959565644645716   -0.0298032925495686
    -0.0165525733576230    0.0471162607721183    7.2133119264513406
   Na   Fe   O    F 
     4     4     8     4
Direct
  0.0016172966984956  0.0378651105770179  0.2585680086585733
  0.0019296453717807  0.9654029017951125  0.7501541218727880
  0.4989091186389202  0.4560449308272364  0.7520720400345069
  0.4942046688723617  0.5326934793080177  0.2532587167018828
  0.5120005715518100  0.0157081880158912 -0.0027246435515217
  0.9736175542071170  0.4910084229490852  0.0001081582852442
  0.4839605536478208  0.0048508323406326  0.4994258473796853
  0.0118542322391413  0.4844467562797946  0.4970409723489524
  0.0717461334534957  0.4855470659891070  0.2515026965856624
  0.9191815305089405  0.5360910894535135  0.7402518459337116
  0.5743471337678701  0.0161997464602987  0.7522691451700873
  0.4231585297366570  0.9631018633912578  0.2406422350747767
  0.6983511082361613  0.2880351160803760  0.0384367273996918
  0.3058880022195060  0.7387185525540271  0.9712168249412301
  0.7973157412984729  0.7622547653794319  0.4740170536983496
  0.2049763611710507  0.2151627217618760  0.5372475054663192
  0.2020826120075217  0.2253526797619103  0.9458417886819568
  0.8136409383607386  0.8053432133992237  0.0460278576964326
  0.3052900296940050  0.7015014640694327  0.5484816096721623
  0.7059282383181473  0.2746710996067570  0.4461614879495234
 
  0.00000000E+00  0.00000000E+00  0.00000000E+00
  0.00000000E+00  0.00000000E+00  0.00000000E+00
  0.00000000E+00  0.00000000E+00  0.00000000E+00
  0.00000000E+00  0.00000000E+00  0.00000000E+00
  0.00000000E+00  0.00000000E+00  0.00000000E+00
  0.00000000E+00  0.00000000E+00  0.00000000E+00
  0.00000000E+00  0.00000000E+00  0.00000000E+00
  0.00000000E+00  0.00000000E+00  0.00000000E+00
  0.00000000E+00  0.00000000E+00  0.00000000E+00
  0.00000000E+00  0.00000000E+00  0.00000000E+00
  0.00000000E+00  0.00000000E+00  0.00000000E+00
  0.00000000E+00  0.00000000E+00  0.00000000E+00
  0.00000000E+00  0.00000000E+00  0.00000000E+00
  0.00000000E+00  0.00000000E+00  0.00000000E+00
  0.00000000E+00  0.00000000E+00  0.00000000E+00
  0.00000000E+00  0.00000000E+00  0.00000000E+00
  0.00000000E+00  0.00000000E+00  0.00000000E+00
  0.00000000E+00  0.00000000E+00  0.00000000E+00
  0.00000000E+00  0.00000000E+00  0.00000000E+00
  0.00000000E+00  0.00000000E+00  0.00000000E+00
