Fe2 O2 F4                               
   1.00000000000000     
     3.9135312329397673   -0.0000000104775673    0.0000060879740573
    -0.0000000003716463    3.8785968550428755   -0.0000190549846857
     0.0000018500821024   -0.0000492616995203    7.7784874233563954
   Fe   O    F 
     2     2     4
Direct
  0.5000017159230552  0.4999970658335542  0.2561741597716889
  0.5000016864376349  0.4999961668342365  0.7561728423607761
  0.9999982243581300  0.4999975063707893  0.2548793565965468
  0.9999981889487373  0.5000003669390765  0.7548798128045107
  0.4999999399792756  0.5000005053157039  0.0058701484621082
  0.4999994136909933  0.5000052663805619  0.5058699737425272
  0.5000004149878876  0.0000005515850745  0.2545768516836446
  0.5000004156742861  0.0000025707409961  0.7545768545781897
 
  0.00000000E+00  0.00000000E+00  0.00000000E+00
  0.00000000E+00  0.00000000E+00  0.00000000E+00
  0.00000000E+00  0.00000000E+00  0.00000000E+00
  0.00000000E+00  0.00000000E+00  0.00000000E+00
  0.00000000E+00  0.00000000E+00  0.00000000E+00
  0.00000000E+00  0.00000000E+00  0.00000000E+00
  0.00000000E+00  0.00000000E+00  0.00000000E+00
  0.00000000E+00  0.00000000E+00  0.00000000E+00
