Ti4 O4 F8                               
   1.00000000000000     
     5.1652969325140505   -0.0000094055273549   -0.0103908349561490
    -0.0000177801715517    5.3631007162335536   -0.0000373824598859
    -0.0142092602618580   -0.0000545730217222    7.5944014266014914
   Ti   O    F 
     4     4     8
Direct
  0.4880072437958436  0.9761366201183757  0.9969379916240194
  0.9807085068130468  0.4821815694417997  0.0030765127295375
  0.4807051400096667  0.0178204732172883  0.5030758674044750
  0.9880124048510194  0.5238563731423026  0.4969380855285581
  0.7192494407817875  0.2833248090110848  0.0395342760330518
  0.2909231819689107  0.7168865584063228  0.9614380808419176
  0.7908913313462186  0.7831027969986593  0.4614435858963918
  0.2192602257017849  0.2166873229759212  0.5395348095394445
  0.2152527969315809  0.2133506285904640  0.9462134882070056
  0.8008730054092261  0.7926845214015327  0.0527290137988836
  0.3008683224088547  0.7073240562248388  0.5527305162929200
  0.7152725224338996  0.2866270731648390  0.4462161091433966
  0.0985814698513174  0.4876133762156507  0.2501257170542546
  0.9064146168699698  0.5146143935817712  0.7499401229280682
  0.5985778134762126  0.0123967460905367  0.7501266027650703
  0.4064019773506606  0.9853926814185985  0.2499392202129770
 
  0.00000000E+00  0.00000000E+00  0.00000000E+00
  0.00000000E+00  0.00000000E+00  0.00000000E+00
  0.00000000E+00  0.00000000E+00  0.00000000E+00
  0.00000000E+00  0.00000000E+00  0.00000000E+00
  0.00000000E+00  0.00000000E+00  0.00000000E+00
  0.00000000E+00  0.00000000E+00  0.00000000E+00
  0.00000000E+00  0.00000000E+00  0.00000000E+00
  0.00000000E+00  0.00000000E+00  0.00000000E+00
  0.00000000E+00  0.00000000E+00  0.00000000E+00
  0.00000000E+00  0.00000000E+00  0.00000000E+00
  0.00000000E+00  0.00000000E+00  0.00000000E+00
  0.00000000E+00  0.00000000E+00  0.00000000E+00
  0.00000000E+00  0.00000000E+00  0.00000000E+00
  0.00000000E+00  0.00000000E+00  0.00000000E+00
  0.00000000E+00  0.00000000E+00  0.00000000E+00
  0.00000000E+00  0.00000000E+00  0.00000000E+00
