V8 O8 F16                               
   1.00000000000000     
     7.6367107828860465    0.0000006189900201   -0.0000864881561383
     0.0000004611060271    7.6847650645584009   -0.0000000886805132
     0.0095654707899274    0.0000002392660978    7.4621213695925217
   V    O    F 
     8     8    16
Direct
 -0.0008233537173138 -0.0000000103973262  0.9745945888178803
  0.9996795036835561 -0.0000000060317672  0.4752848019060462
  0.0260528037597275  0.4999998832446906  0.0032724321643393
  0.9995851845524072  0.5000000543188381  0.4822004569706436
  0.5000405254753152  0.0000000051161143  0.9752162657253789
  0.4996478496938185  0.0000001412430619  0.4751890799982058
  0.5036557623958205  0.5000000106520144  0.9746497692899467
  0.4987654022866991  0.5000000930761083  0.4749310456209074
 -0.0002546749249526  0.9999997105624072  0.2551069730877287
  0.4991079465050648 -0.0000000521581933  0.7554017644476203
 -0.0002502689779867  0.0000002200555740  0.7547510911259036
  0.0052568111091051  0.5000002167550849  0.2588172226090755
  0.4989063950027938  0.0000002507007999  0.2553569397845283
  0.4922268692250799  0.4999998850024379  0.2548303781011120
  0.5042973963339800  0.5000001965068326  0.7545726948219011
  0.2434997043908326  0.4999997716243798  0.9948830174056257
  0.2496233234115835  0.0000003436049745  0.5105392138681506
  0.2487058257590601  0.4999997178455818  0.5185966948354312
  0.7561910900499598  0.5000002236324237  0.0089458664776491
  0.7489182700625994  0.5000004397154745  0.5028077087203235
  0.9948911463550781  0.7495040512415340  0.0034747378684595
  0.5020148781025147  0.2499501207204279  0.0091848164376965
  0.9883091622763663  0.4999994858330347  0.7468434070524838
  0.2493956148392675  0.0000003726234197  0.0108357911342907
  0.7495132050016714  0.9999995605822517  0.0110081635974935
  0.7495378355473347 -0.0000002238460000  0.5104302155678954
  0.9948906057749384  0.2504958203087169  0.0034755376412250
  0.9992786004961920  0.2497082468499632  0.5093813434231580
  0.9992784093709099  0.7502916026621775  0.5093809909095353
  0.4990251822499369  0.2501060891557125  0.5084266448753990
  0.5020141943003131  0.7500499146055225  0.0091848175817255
  0.4990187996083124  0.7498938641937428  0.5084255281322398
 
  0.00000000E+00  0.00000000E+00  0.00000000E+00
  0.00000000E+00  0.00000000E+00  0.00000000E+00
  0.00000000E+00  0.00000000E+00  0.00000000E+00
  0.00000000E+00  0.00000000E+00  0.00000000E+00
  0.00000000E+00  0.00000000E+00  0.00000000E+00
  0.00000000E+00  0.00000000E+00  0.00000000E+00
  0.00000000E+00  0.00000000E+00  0.00000000E+00
  0.00000000E+00  0.00000000E+00  0.00000000E+00
  0.00000000E+00  0.00000000E+00  0.00000000E+00
  0.00000000E+00  0.00000000E+00  0.00000000E+00
  0.00000000E+00  0.00000000E+00  0.00000000E+00
  0.00000000E+00  0.00000000E+00  0.00000000E+00
  0.00000000E+00  0.00000000E+00  0.00000000E+00
  0.00000000E+00  0.00000000E+00  0.00000000E+00
  0.00000000E+00  0.00000000E+00  0.00000000E+00
  0.00000000E+00  0.00000000E+00  0.00000000E+00
  0.00000000E+00  0.00000000E+00  0.00000000E+00
  0.00000000E+00  0.00000000E+00  0.00000000E+00
  0.00000000E+00  0.00000000E+00  0.00000000E+00
  0.00000000E+00  0.00000000E+00  0.00000000E+00
  0.00000000E+00  0.00000000E+00  0.00000000E+00
  0.00000000E+00  0.00000000E+00  0.00000000E+00
  0.00000000E+00  0.00000000E+00  0.00000000E+00
  0.00000000E+00  0.00000000E+00  0.00000000E+00
  0.00000000E+00  0.00000000E+00  0.00000000E+00
  0.00000000E+00  0.00000000E+00  0.00000000E+00
  0.00000000E+00  0.00000000E+00  0.00000000E+00
  0.00000000E+00  0.00000000E+00  0.00000000E+00
  0.00000000E+00  0.00000000E+00  0.00000000E+00
  0.00000000E+00  0.00000000E+00  0.00000000E+00
  0.00000000E+00  0.00000000E+00  0.00000000E+00
  0.00000000E+00  0.00000000E+00  0.00000000E+00
