Na1 Ti16 O16 F32
1.0
11.425040 0.140818 -0.000121
0.137222 11.509119 0.000360
-0.000074 0.000253 8.010444
Na Ti O F
1 16 16 32
direct
0.468109 0.484156 0.740868 Na
0.230654 0.024015 0.004950 Ti
0.221947 0.520029 0.008122 Ti
0.731022 0.014925 0.003621 Ti
0.734540 0.522982 0.006218 Ti
-0.005033 0.248068 0.963204 Ti
1.000311 0.757209 0.964081 Ti
0.503766 0.246173 0.966289 Ti
0.499088 0.751149 0.968193 Ti
0.254498 0.999071 0.464202 Ti
0.239265 0.499882 0.462954 Ti
0.753799 -0.007244 0.463856 Ti
0.753815 0.502352 0.465640 Ti
0.018295 0.222973 0.504348 Ti
1.020525 0.736977 0.503672 Ti
0.526179 0.223931 0.503782 Ti
0.519189 0.730755 0.503799 Ti
0.121972 0.132269 0.005895 O
0.117851 0.631595 0.004290 O
0.622694 0.125105 0.005260 O
0.621290 0.626340 0.004452 O
0.131413 0.119757 0.505107 O
0.127532 0.623878 0.505577 O
0.634645 0.116802 0.504228 O
0.624304 0.618168 0.508952 O
0.503653 0.249818 0.747674 O
0.502162 0.746184 0.751030 O
-0.000304 0.247920 0.746740 O
1.000876 0.753245 0.747608 O
0.246730 0.502642 0.245613 O
0.251794 1.001483 0.247763 O
0.748786 0.500857 0.248860 O
0.752415 -0.003307 0.247678 O
0.372680 0.129759 0.999399 F
0.376248 0.626834 -0.005039 F
0.872520 0.129233 -0.003244 F
0.868516 0.629084 0.996309 F
0.121198 0.383881 -0.003988 F
0.118585 0.881683 0.998079 F
0.620536 0.376053 -0.005712 F
0.622253 0.877656 0.999137 F
0.389645 0.368230 -0.002708 F
0.383298 0.865715 0.007445 F
0.883782 0.368249 0.005736 F
0.879244 0.868485 1.005714 F
0.128593 0.374320 0.496149 F
0.131782 0.871052 0.496517 F
0.622166 0.370269 0.505768 F
0.633221 0.868479 0.498278 F
0.382940 0.120744 0.499371 F
0.381287 0.626050 0.507365 F
0.883256 0.115500 0.498247 F
0.875628 0.619689 0.497687 F
0.366300 0.397203 0.519180 F
0.371362 0.883389 0.506922 F
0.861838 0.381757 0.508204 F
0.873160 0.878017 0.505055 F
-0.000966 0.250528 0.275190 F
0.998574 0.752021 0.271650 F
0.501225 0.248860 0.274618 F
0.501579 0.750086 0.271394 F
0.252021 1.000563 0.775052 F
0.257699 0.503653 0.776161 F
0.752800 -0.003202 0.772004 F
0.743519 0.497822 0.771840 F
