Na8 Co8 O16 F8                          
   1.00000000000000     
     7.7071773564279979    0.0847567864536141    0.0713508616465360
     0.1038233075528841    7.4065264708267788    0.0079367429612643
    -0.0458462131463074    0.0536914430579916    7.3780224622741324
   Na   Co   O    F 
     8     8    16     8
Direct
  0.2342438181719564  0.2305911192076227  0.2552078150779127
  0.2639088878404849  0.2935006774651931  0.7434782893487395
  0.2415511831246248  0.7254047854064418  0.2591315556229080
  0.2628918138342827  0.7684494723904512  0.7423302017424318
  0.7174639195039261  0.2202592683735050  0.2424508467203269
  0.7777530296823860  0.2676171876201394  0.7400899163483440
  0.7430116073561267  0.7282215840516224  0.2657804410667352
  0.7677387336636279  0.7642060904148961  0.7581507595552355
  0.0166353785872741  0.0004925454913035 -0.0011764172750899
  0.9866835432667724  0.0041912172692097  0.4949712816533935
  0.9986223227461837  0.5020507510082266  0.0046119822321805
  0.0002721780235183  0.4994925132869161  0.4999094302144291
  0.4827939171613965  0.9956537935686892  0.9980434927022539
  0.5023654898050520  0.9993181969896970  0.5041741412431395
  0.5232753003513524  0.5095677394976929  0.9981524779558458
  0.5074089785576643  0.4951556764921023  0.4994569030559976
  0.2644360100588447  0.9514131177876520  0.0461580574185490
  0.6985454050147620  0.0532261906336702  0.9501023547468892
  0.7390504658596112  0.0388859340526248  0.5439802906936163
  0.7642141092640776  0.4459921252897510  0.0305537553221130
  0.0390177974480043  0.2668282527175841  0.5213699049582742
  0.9631573947212539  0.7330481117261393  0.4859982093530079
  0.4743127252316367  0.2534530025700929  0.0271834424012924
  0.4692217713406225  0.2300201743952648  0.4615197482169858
  0.5370963293241681  0.7434814257717367  0.9647272827629103
  0.5380002140387740  0.7698484803729441  0.5430054236607108
  0.9702272634112009  0.0306356447162643  0.2491743915784516
  0.0139443047771458  0.9787151111549083  0.7532196604700955
  0.0369927017937061  0.4902758348402905  0.2358212950723690
  0.9647384918920137  0.5168524179475026  0.7704855965485834
  0.4842208315916985  0.5314739518636504  0.2679634243337066
  0.5336138949390498  0.4647887853603233  0.7292522042921662
  0.2501923508768649  0.9560231871204998  0.4537471788203365
  0.2486386449408969  0.5513894550094838  0.9651150781553020
  0.2549076736676328  0.5440534844965234  0.5388457482153083
  0.7542013506108541  0.4448848795702073  0.4539549628817566
  0.0844401129657821  0.2497613640206771  0.9772457731118749
  0.9250923287785987  0.7606274509808748  0.0293519871190766
  0.5590951311659118  0.9573553255517915  0.2505184725827386
  0.4060225946102524  0.0327936735158472  0.7459426400191103
 
  0.00000000E+00  0.00000000E+00  0.00000000E+00
  0.00000000E+00  0.00000000E+00  0.00000000E+00
  0.00000000E+00  0.00000000E+00  0.00000000E+00
  0.00000000E+00  0.00000000E+00  0.00000000E+00
  0.00000000E+00  0.00000000E+00  0.00000000E+00
  0.00000000E+00  0.00000000E+00  0.00000000E+00
  0.00000000E+00  0.00000000E+00  0.00000000E+00
  0.00000000E+00  0.00000000E+00  0.00000000E+00
  0.00000000E+00  0.00000000E+00  0.00000000E+00
  0.00000000E+00  0.00000000E+00  0.00000000E+00
  0.00000000E+00  0.00000000E+00  0.00000000E+00
  0.00000000E+00  0.00000000E+00  0.00000000E+00
  0.00000000E+00  0.00000000E+00  0.00000000E+00
  0.00000000E+00  0.00000000E+00  0.00000000E+00
  0.00000000E+00  0.00000000E+00  0.00000000E+00
  0.00000000E+00  0.00000000E+00  0.00000000E+00
  0.00000000E+00  0.00000000E+00  0.00000000E+00
  0.00000000E+00  0.00000000E+00  0.00000000E+00
  0.00000000E+00  0.00000000E+00  0.00000000E+00
  0.00000000E+00  0.00000000E+00  0.00000000E+00
  0.00000000E+00  0.00000000E+00  0.00000000E+00
  0.00000000E+00  0.00000000E+00  0.00000000E+00
  0.00000000E+00  0.00000000E+00  0.00000000E+00
  0.00000000E+00  0.00000000E+00  0.00000000E+00
  0.00000000E+00  0.00000000E+00  0.00000000E+00
  0.00000000E+00  0.00000000E+00  0.00000000E+00
  0.00000000E+00  0.00000000E+00  0.00000000E+00
  0.00000000E+00  0.00000000E+00  0.00000000E+00
  0.00000000E+00  0.00000000E+00  0.00000000E+00
  0.00000000E+00  0.00000000E+00  0.00000000E+00
  0.00000000E+00  0.00000000E+00  0.00000000E+00
  0.00000000E+00  0.00000000E+00  0.00000000E+00
  0.00000000E+00  0.00000000E+00  0.00000000E+00
  0.00000000E+00  0.00000000E+00  0.00000000E+00
  0.00000000E+00  0.00000000E+00  0.00000000E+00
  0.00000000E+00  0.00000000E+00  0.00000000E+00
  0.00000000E+00  0.00000000E+00  0.00000000E+00
  0.00000000E+00  0.00000000E+00  0.00000000E+00
  0.00000000E+00  0.00000000E+00  0.00000000E+00
  0.00000000E+00  0.00000000E+00  0.00000000E+00
