Na4 Mn4 O8 F4                           
   1.00000000000000     
     5.2944259040431509   -0.1064270850189401    0.0000147466056043
    -2.5850669490631843    4.6277131682280244   -0.0000510149168930
     0.0000248674857967   -0.0000734456632388    9.0151888248938281
   Na   Mn   O    F 
     4     4     8     4
Direct
  0.0029335490749713  0.0007987852650905  0.9309788502371166
  0.0029097071758247  0.0007962182327468  0.5690316151190632
  0.3269436674874076  0.6629210326382493  0.2499998344406742
  0.6522433030737299  0.3233989063741763  0.7500090328308324
  0.3180561402121767  0.6535473198658878  0.6061249958414675
  0.6635267193187067  0.3342329705709742  0.4071880005648976
  0.6635426167807046  0.3342633375310932  0.0928071841901523
  0.3180501236564285  0.6535785703994168  0.8938615037056954
  0.4190215186736445  0.0096201032193086  0.9953017725435818
  0.0078229430664190  0.4119336860274863  0.0094042812960286
  0.5926386149074269  0.5880527000525262  0.9984659998245429
  0.4190044187686512  0.0096127094629368  0.5047025890341109
  0.0078132445702738  0.4119064223359474  0.4905910046138208
  0.5926431917181947  0.5880360277314096  0.5015314941944238
  0.2513915259694806  0.3743670462686322  0.7499987919743751
  0.1245002661809359  0.7485350323500003  0.7499955590568184
  0.8833445195319780  0.6309536589916783  0.2500037708347695
  0.3687101236908817  0.2575871302487021  0.2500020350277176
  0.6517441688576181  0.8950288411408110  0.7500046686378146
  0.7331596372845312  0.1108295012929193  0.2499970160320899
 
  0.00000000E+00  0.00000000E+00  0.00000000E+00
  0.00000000E+00  0.00000000E+00  0.00000000E+00
  0.00000000E+00  0.00000000E+00  0.00000000E+00
  0.00000000E+00  0.00000000E+00  0.00000000E+00
  0.00000000E+00  0.00000000E+00  0.00000000E+00
  0.00000000E+00  0.00000000E+00  0.00000000E+00
  0.00000000E+00  0.00000000E+00  0.00000000E+00
  0.00000000E+00  0.00000000E+00  0.00000000E+00
  0.00000000E+00  0.00000000E+00  0.00000000E+00
  0.00000000E+00  0.00000000E+00  0.00000000E+00
  0.00000000E+00  0.00000000E+00  0.00000000E+00
  0.00000000E+00  0.00000000E+00  0.00000000E+00
  0.00000000E+00  0.00000000E+00  0.00000000E+00
  0.00000000E+00  0.00000000E+00  0.00000000E+00
  0.00000000E+00  0.00000000E+00  0.00000000E+00
  0.00000000E+00  0.00000000E+00  0.00000000E+00
  0.00000000E+00  0.00000000E+00  0.00000000E+00
  0.00000000E+00  0.00000000E+00  0.00000000E+00
  0.00000000E+00  0.00000000E+00  0.00000000E+00
  0.00000000E+00  0.00000000E+00  0.00000000E+00
