Ti4 O4 F8                               
   1.00000000000000     
     5.2841449053637453    0.0674899971472618   -0.0000014787649437
     0.0646038837436847    5.4210075039475232   -0.0000095044075111
    -0.0000019486498691   -0.0000128752726815    7.4469369811593769
   Ti   O    F 
     4     4     8
Direct
  0.4822917353243215  0.0098129201370394  0.0099253677879146
  0.0060798829750085  0.4872142442877284  0.9843238229212352
  0.4822901831949080  0.0098122576639678  0.4900734476071907
  0.0060792287880500  0.4872138132831352  0.5156761392885231
  0.2202992346614768  0.2213683554877690  0.9591856355079162
  0.2202972332556674  0.2213708805662229  0.5408165862791344
  0.9134521357209227  0.5142564181642864  0.7500005180774524
  0.4285034231888254  0.9852224899608168  0.2499995782007954
  0.7176743010136351  0.2821903563606484  0.0425382895692589
  0.2884407147745666  0.7148147973306913  0.9580684888990423
  0.7870520887896302  0.7839736215504594  0.0371850668597646
  0.2884417336828826  0.7148129622193445  0.5419303149331286
  0.7176746542023514  0.2821853601288811  0.4574608570360358
  0.7870505893125574  0.7839699417846798  0.4628147106506657
  0.0677188701235358  0.5011972864936176  0.2500012024357051
  0.5866539909916607  0.0005842945807051  0.7499999739462445
 
  0.00000000E+00  0.00000000E+00  0.00000000E+00
  0.00000000E+00  0.00000000E+00  0.00000000E+00
  0.00000000E+00  0.00000000E+00  0.00000000E+00
  0.00000000E+00  0.00000000E+00  0.00000000E+00
  0.00000000E+00  0.00000000E+00  0.00000000E+00
  0.00000000E+00  0.00000000E+00  0.00000000E+00
  0.00000000E+00  0.00000000E+00  0.00000000E+00
  0.00000000E+00  0.00000000E+00  0.00000000E+00
  0.00000000E+00  0.00000000E+00  0.00000000E+00
  0.00000000E+00  0.00000000E+00  0.00000000E+00
  0.00000000E+00  0.00000000E+00  0.00000000E+00
  0.00000000E+00  0.00000000E+00  0.00000000E+00
  0.00000000E+00  0.00000000E+00  0.00000000E+00
  0.00000000E+00  0.00000000E+00  0.00000000E+00
  0.00000000E+00  0.00000000E+00  0.00000000E+00
  0.00000000E+00  0.00000000E+00  0.00000000E+00
