Mn4 O4 F8                               
   1.00000000000000     
     4.9185034953827502    0.1625024850907393   -0.0480949615428463
     0.1489719088315607    5.1891566841522909    0.0392981840417252
    -0.0495145707487549    0.0673225294634223    7.0377602356668048
   Mn   O    F 
     4     4     8
Direct
  0.4886465560778631  0.0057097174539769  0.0111030492314048
  0.0134676445126153  0.4873175430803966  0.9953238543659262
  0.4943754032725617  0.0084597956922905  0.4943527835976713
  0.0026510005532314  0.5063916527025794  0.5000238930551459
  0.1828663873597280  0.1845039667092454  0.9228970512240163
  0.8249364042477482  0.8269190448144911  0.4297495203606121
  0.1713507676646089  0.1857583465183401  0.5693837705907318
  0.3746429711788155  0.9585065260671738  0.2513657952594763
  0.6724294009815960  0.2905139929724264  0.0628624659386125
  0.3348082126097388  0.7050311547800623  0.9418386348220484
  0.8158728035834544  0.7966438869717398  0.0668029028399033
  0.3402135034316249  0.7062618460347703  0.5636472443287426
  0.6570739210504233  0.3076145842188376  0.4403294136926404
  0.1365842420492958  0.4527401394577457  0.2519101032871515
  0.8656962475763716  0.5486688921689657  0.7468433209136577
  0.6243845338503302  0.0289589103569583  0.7515661964922443
 
  0.00000000E+00  0.00000000E+00  0.00000000E+00
  0.00000000E+00  0.00000000E+00  0.00000000E+00
  0.00000000E+00  0.00000000E+00  0.00000000E+00
  0.00000000E+00  0.00000000E+00  0.00000000E+00
  0.00000000E+00  0.00000000E+00  0.00000000E+00
  0.00000000E+00  0.00000000E+00  0.00000000E+00
  0.00000000E+00  0.00000000E+00  0.00000000E+00
  0.00000000E+00  0.00000000E+00  0.00000000E+00
  0.00000000E+00  0.00000000E+00  0.00000000E+00
  0.00000000E+00  0.00000000E+00  0.00000000E+00
  0.00000000E+00  0.00000000E+00  0.00000000E+00
  0.00000000E+00  0.00000000E+00  0.00000000E+00
  0.00000000E+00  0.00000000E+00  0.00000000E+00
  0.00000000E+00  0.00000000E+00  0.00000000E+00
  0.00000000E+00  0.00000000E+00  0.00000000E+00
  0.00000000E+00  0.00000000E+00  0.00000000E+00
