Na2 Cr2 O4 F2                           
   1.00000000000000     
    -2.7650283712499863   -4.4881741488480831    0.6351007782396694
    -5.5571314856167557    0.0196794314576055    0.1592017220820969
    -2.7139928134882254   -1.0068844079168235   -4.4365905367494012
   Na   Cr   O    F 
     2     2     4     2
Direct
  0.3023760097861558  0.2889211782751232  0.1248667504652785
  0.7533635839626923  0.7560512877747674  0.7117800208831561
  0.9861176502718323  0.9945350108748701  0.0208344170354093
  0.6089626926862962  0.5228598076605346  0.3896610488817288
  0.2613982807256270  0.6604474555648155  0.3121875338879120
  0.6929131186455109  0.8275280310382279  0.2616575342129946
  0.6908421698724549  0.3219375740812421  0.7395323771594792
  0.8428454054886394  0.2994513776497130  0.1935955839639268
  0.2879664180525374  0.1202330366648371  0.7972124536815945
  0.1192146705082598  0.7540352404158673  0.8106722798285159
 
  0.00000000E+00  0.00000000E+00  0.00000000E+00
  0.00000000E+00  0.00000000E+00  0.00000000E+00
  0.00000000E+00  0.00000000E+00  0.00000000E+00
  0.00000000E+00  0.00000000E+00  0.00000000E+00
  0.00000000E+00  0.00000000E+00  0.00000000E+00
  0.00000000E+00  0.00000000E+00  0.00000000E+00
  0.00000000E+00  0.00000000E+00  0.00000000E+00
  0.00000000E+00  0.00000000E+00  0.00000000E+00
  0.00000000E+00  0.00000000E+00  0.00000000E+00
  0.00000000E+00  0.00000000E+00  0.00000000E+00
