V4 O4 F8                                
   1.00000000000000     
     5.0820180954829128    0.0198855435207112    0.0093145692831843
     0.0118955114016395    5.2867611925147777   -0.0067064022746255
     0.0043525946209643   -0.0364444336994999    7.4366233202665049
   V    O    F 
     4     4     8
Direct
  0.4689331010867770  0.0242290264495349  0.9954987079065512
  0.9788788165201504  0.5362965113187825  0.0051001847626570
  0.4803599918975717  0.0111176002817119  0.5030154378774462
  0.9789237130445215  0.4744034250927385  0.4957293150800084
  0.2158624501013542  0.2129164608850148  0.9606968399969513
  0.7975089935419994  0.7905868906507877  0.0375101577751350
  0.7284230985368708  0.2801448890943483  0.4575086119533610
  0.2280518572845941  0.2092291729755479  0.5355083321531862
  0.1040364968254544  0.4965241578350821  0.2496383485379456
  0.9072598585183100  0.5073456197608295  0.7502805817228141
  0.6026925665870434  0.0139250391827868  0.7507546166297590
  0.4103173688655041  0.9605157553085552  0.2486559870024221
  0.7136605212594120  0.2883452759635742  0.0601495515845890
  0.3040882056409922  0.7036239662218533  0.9444936706634784
  0.2896322885362164  0.7017216343113487  0.5470486267815386
  0.7913706717532210  0.7890745746675253  0.4584110295721571
 
  0.00000000E+00  0.00000000E+00  0.00000000E+00
  0.00000000E+00  0.00000000E+00  0.00000000E+00
  0.00000000E+00  0.00000000E+00  0.00000000E+00
  0.00000000E+00  0.00000000E+00  0.00000000E+00
  0.00000000E+00  0.00000000E+00  0.00000000E+00
  0.00000000E+00  0.00000000E+00  0.00000000E+00
  0.00000000E+00  0.00000000E+00  0.00000000E+00
  0.00000000E+00  0.00000000E+00  0.00000000E+00
  0.00000000E+00  0.00000000E+00  0.00000000E+00
  0.00000000E+00  0.00000000E+00  0.00000000E+00
  0.00000000E+00  0.00000000E+00  0.00000000E+00
  0.00000000E+00  0.00000000E+00  0.00000000E+00
  0.00000000E+00  0.00000000E+00  0.00000000E+00
  0.00000000E+00  0.00000000E+00  0.00000000E+00
  0.00000000E+00  0.00000000E+00  0.00000000E+00
  0.00000000E+00  0.00000000E+00  0.00000000E+00
