Na4 Fe4 O8 F4                           
   1.00000000000000     
     5.3656213825176673    0.1773421898339905    0.0045413025784889
     0.1801101978373612    5.4570829741737255    0.0046246297149975
     0.0054160768430282   -0.0047814719323107    7.2237149471548658
   Na   Fe   O    F 
     4     4     8     4
Direct
  0.0000940115092359  0.0239742463783259  0.2456882079521601
  0.0122213012665863  0.9541620037747300  0.7498134978055560
  0.4973813803545636  0.4640275068724699  0.7501067175555620
  0.4907346209665049  0.5464863480709056  0.2538059543654546
  0.4986006737202238  0.0024361965058058  0.9990071311798532
  0.9964307982236021  0.4954712753689937  0.0003240724518749
  0.5018730859829836  0.0263185652129902  0.4995034590064822
  0.9852131859536306  0.4691078054625772  0.5003170968265933
  0.0613826825771033  0.4925659212148547  0.2513437733476015
  0.9308153389844133  0.5137377989260686  0.7489867026890807
  0.5704362435806021  0.0190424164580047  0.7503305959734013
  0.4406728557331453  0.9790215605451056  0.2504912835706995
  0.2070626165581230  0.2099586428036588  0.9675425361950371
  0.7882914241512052  0.7883169491846734  0.0282194744783681
  0.7108236256524196  0.2883382842865469  0.4623346575457134
  0.2117967777501979  0.2125483512032686  0.5345138247451415
  0.6967577198812344  0.2994119514291134  0.0438307267970068
  0.2945631287357862  0.7051586924577565  0.9592667710855263
  0.3009736641754976  0.7138435713590022  0.5380941724948823
  0.8038748642429410  0.7960719124851556  0.4664793439340051
 
  0.00000000E+00  0.00000000E+00  0.00000000E+00
  0.00000000E+00  0.00000000E+00  0.00000000E+00
  0.00000000E+00  0.00000000E+00  0.00000000E+00
  0.00000000E+00  0.00000000E+00  0.00000000E+00
  0.00000000E+00  0.00000000E+00  0.00000000E+00
  0.00000000E+00  0.00000000E+00  0.00000000E+00
  0.00000000E+00  0.00000000E+00  0.00000000E+00
  0.00000000E+00  0.00000000E+00  0.00000000E+00
  0.00000000E+00  0.00000000E+00  0.00000000E+00
  0.00000000E+00  0.00000000E+00  0.00000000E+00
  0.00000000E+00  0.00000000E+00  0.00000000E+00
  0.00000000E+00  0.00000000E+00  0.00000000E+00
  0.00000000E+00  0.00000000E+00  0.00000000E+00
  0.00000000E+00  0.00000000E+00  0.00000000E+00
  0.00000000E+00  0.00000000E+00  0.00000000E+00
  0.00000000E+00  0.00000000E+00  0.00000000E+00
  0.00000000E+00  0.00000000E+00  0.00000000E+00
  0.00000000E+00  0.00000000E+00  0.00000000E+00
  0.00000000E+00  0.00000000E+00  0.00000000E+00
  0.00000000E+00  0.00000000E+00  0.00000000E+00
