Na4 Ni4 O8 F4                           
   1.00000000000000     
     5.4103800039690917    0.1622440009570707   -0.1375821546701952
    -2.5147711502687686    4.3881836394900606    0.1232169546541098
    -0.0377638896067952    0.1498756999169660    9.1052151191602864
   Na   Ni   O    F 
     4     4     8     4
Direct
  0.0204022777648412  0.0432433855047622  0.0353721087350542
  0.9570122032906830  0.9414027214259861  0.5056957987656600
  0.2832657769252490  0.6331817170646622  0.2655370400774895
  0.7073850078829772  0.3602129398161177  0.7429834746362232
  0.3028931326035814  0.6322496796192352  0.6057913388262173
  0.6348306629025054  0.2901780861300646  0.3932830351775308
  0.6831198080046468  0.3642806009432528  0.1119437368732415
  0.3795670936079540  0.7101920345331432  0.8864965803892952
  0.5804487276151099  0.0779116864258099  0.9690437460705968
  0.6358302148730867  0.6017109355873757  0.9692379118335196
  0.3654419354865981  0.9154890810090156  0.4603130724514730
  0.9515077437717618  0.3887485145320599  0.5213369723787377
  0.4824734448010728  0.4381706635442094  0.5238491185890374
  0.1959506778579370  0.3767157493009831  0.7755621272510274
  0.7556522009709374  0.1390166324996699  0.2519157862869666
  0.1589440763065366  0.7828650575000026  0.7424366702990177
  0.0882791758891851  0.5533141098199236  0.0455446455433075
  0.8260595159552526  0.6577064779381637  0.2704145135862818
  0.3350780944421976  0.2307218029932100  0.2187257103993313
  0.6558582290478934  0.8626881238123452  0.7045166118299915
 
  0.00000000E+00  0.00000000E+00  0.00000000E+00
  0.00000000E+00  0.00000000E+00  0.00000000E+00
  0.00000000E+00  0.00000000E+00  0.00000000E+00
  0.00000000E+00  0.00000000E+00  0.00000000E+00
  0.00000000E+00  0.00000000E+00  0.00000000E+00
  0.00000000E+00  0.00000000E+00  0.00000000E+00
  0.00000000E+00  0.00000000E+00  0.00000000E+00
  0.00000000E+00  0.00000000E+00  0.00000000E+00
  0.00000000E+00  0.00000000E+00  0.00000000E+00
  0.00000000E+00  0.00000000E+00  0.00000000E+00
  0.00000000E+00  0.00000000E+00  0.00000000E+00
  0.00000000E+00  0.00000000E+00  0.00000000E+00
  0.00000000E+00  0.00000000E+00  0.00000000E+00
  0.00000000E+00  0.00000000E+00  0.00000000E+00
  0.00000000E+00  0.00000000E+00  0.00000000E+00
  0.00000000E+00  0.00000000E+00  0.00000000E+00
  0.00000000E+00  0.00000000E+00  0.00000000E+00
  0.00000000E+00  0.00000000E+00  0.00000000E+00
  0.00000000E+00  0.00000000E+00  0.00000000E+00
  0.00000000E+00  0.00000000E+00  0.00000000E+00
