Na4 Co4 O8 F4                           
   1.00000000000000     
     5.4464946878634697    0.1115513534570500   -0.0037911262939318
     0.1217129421701922    5.5746651708773234    0.0332583805560973
     0.0258518505599816    0.0238967308063325    7.1399139674443957
   Na   Co   O    F 
     4     4     8     4
Direct
  0.9771714953461317  0.0541571059322816  0.2401491649008379
  0.9938767136440365  0.9613190150273417  0.7429732430380589
  0.5237660583216407  0.4654830839503913  0.7446023901976452
  0.5063905366641370  0.5484593029139533  0.2581982067378674
  0.4800620180821165  0.9832396217424817  0.9948706513605178
  0.0419291315284866  0.5196880572527313 -0.0012798358959673
  0.5163515840162090  0.9941824741804730  0.4979725563172926
  0.0040402828557118  0.5092123679154702  0.5010057563559603
  0.0713739305219121  0.4806246000817262  0.2508420083517665
  0.9477327961378040  0.5165788704971568  0.7529872520658498
  0.5657257850085479  0.0431896676053129  0.7493591053397078
  0.4132883891135391  0.9943081943873445  0.2514645775542813
  0.6257937510350428  0.2425983711484092  0.0564430141108059
  0.3226391876334404  0.7199314478329917  0.9595642559557451
  0.7732678927901051  0.8054786350873381  0.4652719123454316
  0.2471344622504499  0.1882051108303792  0.5381036111165879
  0.1565488987577283  0.1811103829589513  0.9616936193643288
  0.8091542144267201  0.7957304953728690  0.0399894209169634
  0.3061485022986444  0.6955386508533720  0.5372545007262800
  0.7176043695675810  0.3009645444290314  0.4585345891400536
 
  0.00000000E+00  0.00000000E+00  0.00000000E+00
  0.00000000E+00  0.00000000E+00  0.00000000E+00
  0.00000000E+00  0.00000000E+00  0.00000000E+00
  0.00000000E+00  0.00000000E+00  0.00000000E+00
  0.00000000E+00  0.00000000E+00  0.00000000E+00
  0.00000000E+00  0.00000000E+00  0.00000000E+00
  0.00000000E+00  0.00000000E+00  0.00000000E+00
  0.00000000E+00  0.00000000E+00  0.00000000E+00
  0.00000000E+00  0.00000000E+00  0.00000000E+00
  0.00000000E+00  0.00000000E+00  0.00000000E+00
  0.00000000E+00  0.00000000E+00  0.00000000E+00
  0.00000000E+00  0.00000000E+00  0.00000000E+00
  0.00000000E+00  0.00000000E+00  0.00000000E+00
  0.00000000E+00  0.00000000E+00  0.00000000E+00
  0.00000000E+00  0.00000000E+00  0.00000000E+00
  0.00000000E+00  0.00000000E+00  0.00000000E+00
  0.00000000E+00  0.00000000E+00  0.00000000E+00
  0.00000000E+00  0.00000000E+00  0.00000000E+00
  0.00000000E+00  0.00000000E+00  0.00000000E+00
  0.00000000E+00  0.00000000E+00  0.00000000E+00
