Mn4 O4 F8                               
   1.00000000000000     
     4.8035329257313366   -0.0003220170640657   -0.0005639722385883
     0.0002238266220784    5.0227841378251119    0.0000252118054436
     0.0012311629117582    0.0001986129325564    7.1437480111422280
   Mn   O    F 
     4     4     8
Direct
  0.4740365952115848  0.9967610188709013  0.0014875477883801
  0.0259595304792779  0.4966772413555317  0.0014651307663753
  0.5259855821348344  0.0033222516854078  0.5014595393205251
  0.9741389625460947  0.5032276643158735  0.5014552625674430
  0.3234451913813789  0.6847952392503154  0.9385736799596838
  0.1765485666747895  0.1847821848165237  0.9383648033462265
  0.6765827524250014  0.3152640267732921  0.4384017367121859
  0.8234615917780553  0.8151830860014888  0.4385247123035892
  0.6859086276516163  0.3048574461912623  0.0582095187827810
  0.8140194103577504  0.8049144335203015  0.0582661841803279
  0.3139950382402210  0.6951137913399233  0.5583000123307841
  0.1859403405360895  0.1951282389423186  0.5581532414303574
  0.1251677182242137  0.4718245116035590  0.2518235075427415
  0.8748381731905382  0.5281480022434216  0.7518436516086029
  0.6251521528850730  0.0281256202048659  0.7518029311583383
  0.3748197662834812  0.9718752428850206  0.2518685402016651
 
  0.00000000E+00  0.00000000E+00  0.00000000E+00
  0.00000000E+00  0.00000000E+00  0.00000000E+00
  0.00000000E+00  0.00000000E+00  0.00000000E+00
  0.00000000E+00  0.00000000E+00  0.00000000E+00
  0.00000000E+00  0.00000000E+00  0.00000000E+00
  0.00000000E+00  0.00000000E+00  0.00000000E+00
  0.00000000E+00  0.00000000E+00  0.00000000E+00
  0.00000000E+00  0.00000000E+00  0.00000000E+00
  0.00000000E+00  0.00000000E+00  0.00000000E+00
  0.00000000E+00  0.00000000E+00  0.00000000E+00
  0.00000000E+00  0.00000000E+00  0.00000000E+00
  0.00000000E+00  0.00000000E+00  0.00000000E+00
  0.00000000E+00  0.00000000E+00  0.00000000E+00
  0.00000000E+00  0.00000000E+00  0.00000000E+00
  0.00000000E+00  0.00000000E+00  0.00000000E+00
  0.00000000E+00  0.00000000E+00  0.00000000E+00
