Sodium iron trifluoride                 
   1.00000000000000     
     5.6212106263722825   -0.0000157064285258   -0.0000071258546637
    -0.0000098034092197    7.8687981045616020    0.0000148460033457
    -0.0000092476382188    0.0000164735361108    5.3847113681881487
   Na   Fe   F 
     4     4    12
Direct
  0.0585475578827462  0.2500012778004503  0.9820725458312580
  0.9413751820112453  0.7499989524142010  0.0180744142188554
  0.4413726450645136  0.7500001851668054  0.4819224678624011
  0.5585493440199453  0.2499992519808601  0.5179315051587584
  0.4999963841384084 -0.0000135533961612  0.0000503964101677
 -0.0000014645167324 -0.0000133681447296  0.4999514017624742
  0.5000019102335838  0.5000131213484691  0.0000475681629057
 -0.0000026953944037  0.5000133031587237  0.4999499927276823
  0.4434928103358087  0.2499999534257726  0.1195453378002971
  0.5565635351664510  0.7500018028845272  0.8802724660108145
  0.0565625144528201  0.7500000694423338  0.6197238885216354
  0.9434940105274185  0.2499992232262907  0.3804574315872965
  0.2949948278872678  0.0636806757134850  0.6860506319819700
  0.7050102850588367  0.9363691574503894  0.3138922625903856
  0.2050137865417094  0.9363615890812474  0.1861092376734649
  0.7950040695591502  0.0636782540042980  0.8139563945662897
  0.7050126845094578  0.5636368246507338  0.3138928941580068
  0.2950075199114717  0.4363262759606265  0.6860396092678106
  0.7950004547777653  0.4363226090767576  0.8139571439232572
  0.2050046418325158  0.5636243947549121  0.1861024027842505
 
  0.00000000E+00  0.00000000E+00  0.00000000E+00
  0.00000000E+00  0.00000000E+00  0.00000000E+00
  0.00000000E+00  0.00000000E+00  0.00000000E+00
  0.00000000E+00  0.00000000E+00  0.00000000E+00
  0.00000000E+00  0.00000000E+00  0.00000000E+00
  0.00000000E+00  0.00000000E+00  0.00000000E+00
  0.00000000E+00  0.00000000E+00  0.00000000E+00
  0.00000000E+00  0.00000000E+00  0.00000000E+00
  0.00000000E+00  0.00000000E+00  0.00000000E+00
  0.00000000E+00  0.00000000E+00  0.00000000E+00
  0.00000000E+00  0.00000000E+00  0.00000000E+00
  0.00000000E+00  0.00000000E+00  0.00000000E+00
  0.00000000E+00  0.00000000E+00  0.00000000E+00
  0.00000000E+00  0.00000000E+00  0.00000000E+00
  0.00000000E+00  0.00000000E+00  0.00000000E+00
  0.00000000E+00  0.00000000E+00  0.00000000E+00
  0.00000000E+00  0.00000000E+00  0.00000000E+00
  0.00000000E+00  0.00000000E+00  0.00000000E+00
  0.00000000E+00  0.00000000E+00  0.00000000E+00
  0.00000000E+00  0.00000000E+00  0.00000000E+00
