V4 O4 F8                                
   1.00000000000000     
     5.1220090301498127    0.0000509229824850    0.0000311444581067
     0.0000526320101889    5.2672084365970875   -0.0107261757969486
     0.0000402741130496    0.0173661578328698    7.4458552706184600
   V    O    F 
     4     4     8
Direct
  0.4795728738173395  0.9750121902315740  0.9951619919026768
  0.9795558594823959  0.5250064293769796  0.0048414767768463
  0.5203416195336317  0.0250536270246258  0.4952057554319111
  0.0203563841480729  0.4749331302100828  0.5047960039841968
  0.2774502946642272  0.7318558987954162  0.9587940237070356
  0.7774529436394033  0.7681639376367571  0.0411986240910309
  0.7219054995473826  0.2686565972172943  0.4588019423180398
  0.2218963517759462  0.2313294088604891  0.5411869624508867
  0.7146138315304214  0.2661623607355352  0.0473596546150219
  0.2146242991851466  0.2338626251123088  0.9526420341905109
  0.2861305678642978  0.7330853711236287  0.5472488974408805
  0.7861316516393444  0.7668754069783148  0.4527642106288781
  0.1012008353323139  0.4917252937450414  0.2498285485905001
  0.8987833072120353  0.5082354668016720  0.7498107344201159
  0.6012029897022160  0.0082905954701289  0.7501766502281058
  0.3987806909258325  0.9917516606801442  0.2501824892233628
 
  0.00000000E+00  0.00000000E+00  0.00000000E+00
  0.00000000E+00  0.00000000E+00  0.00000000E+00
  0.00000000E+00  0.00000000E+00  0.00000000E+00
  0.00000000E+00  0.00000000E+00  0.00000000E+00
  0.00000000E+00  0.00000000E+00  0.00000000E+00
  0.00000000E+00  0.00000000E+00  0.00000000E+00
  0.00000000E+00  0.00000000E+00  0.00000000E+00
  0.00000000E+00  0.00000000E+00  0.00000000E+00
  0.00000000E+00  0.00000000E+00  0.00000000E+00
  0.00000000E+00  0.00000000E+00  0.00000000E+00
  0.00000000E+00  0.00000000E+00  0.00000000E+00
  0.00000000E+00  0.00000000E+00  0.00000000E+00
  0.00000000E+00  0.00000000E+00  0.00000000E+00
  0.00000000E+00  0.00000000E+00  0.00000000E+00
  0.00000000E+00  0.00000000E+00  0.00000000E+00
  0.00000000E+00  0.00000000E+00  0.00000000E+00
