Na4 Ni4 O8 F4                           
   1.00000000000000     
     5.3817307796450029   -0.0025808903738015   -0.0001410575476181
     0.0006718165678370    5.5262945268574271    0.0486796383148406
    -0.0002122253882023   -0.0094540616482860    6.8997866103356129
   Na   Ni   O    F 
     4     4     8     4
Direct
  0.9844098530697422  0.0198675099798196  0.2675864585158836
  0.0143291102583533  0.9213312328699927  0.7497390963212028
  0.4845664780537009  0.4799700967312488  0.7325428951843920
  0.5145006277861318  0.5787257320862293  0.2502510446982305
  0.5098805097918697  0.0278523063210266  0.9984059587082329
  0.0099949536835375  0.4721752123137438  0.0015263452141829
  0.4957344679167990  0.0312309816861803  0.4944509397812791
  0.9961004082279604  0.4685040401356523  0.5055235397043334
  0.1094791019116860  0.4713371870738293  0.2528818077996140
  0.8938687479088447  0.5005185729998345  0.7565367229464556
  0.6092475607505470  0.0284956573982517  0.7469572474876500
  0.3935583947403037  0.9997494320440433  0.2433261807325984
  0.7148757017647281  0.3064896045541076  0.0534889013557660
  0.2149259255673762  0.1937431464820221  0.9463907925090727
  0.7116716106675411  0.2810120625148576  0.4283956550196818
  0.2118092733541737  0.2187614437399517  0.5716210858650361
  0.2849887729396977  0.6989163380134009  0.9510058720735757
  0.7849768342083210  0.8015175526919601  0.0493118455751965
  0.2806208471939168  0.7318888137923157  0.5418395949158260
  0.7804608202047625  0.7679130765715387  0.4582180155917973
 
  0.00000000E+00  0.00000000E+00  0.00000000E+00
  0.00000000E+00  0.00000000E+00  0.00000000E+00
  0.00000000E+00  0.00000000E+00  0.00000000E+00
  0.00000000E+00  0.00000000E+00  0.00000000E+00
  0.00000000E+00  0.00000000E+00  0.00000000E+00
  0.00000000E+00  0.00000000E+00  0.00000000E+00
  0.00000000E+00  0.00000000E+00  0.00000000E+00
  0.00000000E+00  0.00000000E+00  0.00000000E+00
  0.00000000E+00  0.00000000E+00  0.00000000E+00
  0.00000000E+00  0.00000000E+00  0.00000000E+00
  0.00000000E+00  0.00000000E+00  0.00000000E+00
  0.00000000E+00  0.00000000E+00  0.00000000E+00
  0.00000000E+00  0.00000000E+00  0.00000000E+00
  0.00000000E+00  0.00000000E+00  0.00000000E+00
  0.00000000E+00  0.00000000E+00  0.00000000E+00
  0.00000000E+00  0.00000000E+00  0.00000000E+00
  0.00000000E+00  0.00000000E+00  0.00000000E+00
  0.00000000E+00  0.00000000E+00  0.00000000E+00
  0.00000000E+00  0.00000000E+00  0.00000000E+00
  0.00000000E+00  0.00000000E+00  0.00000000E+00
