Disodium manganate(II)                  
   1.00000000000000     
    12.4627528706999176    0.0000007398505043   -0.0526582898909878
     0.0000007647341515   11.9725202812721143    0.0000002498914832
    -2.8687190895605919   -0.0000000374373525    5.3970707683204928
   Mn   Na   O 
    12    24    24
Direct
  0.2116451014483118  0.0798175574571616  0.7434307461241119
  0.7883523554918668  0.9201838920904137  0.2565704643740503
  0.7883523197567328  0.0798161198028069  0.7565704988404747
  0.2116451363980900  0.9201824303340800  0.2434306967393383
  0.7116451005319462  0.5798175606257843  0.7434307405886642
  0.2883523488337048  0.4201838988082542  0.2565704567398797
  0.2883523136031201  0.5798161112595253  0.7565705052161036
  0.7116451345347983  0.4201824290848606  0.2434307075880113
  0.9999925558355542  0.3192364620645236  0.2500030624249661
  0.9999924500843633  0.6807635376198462  0.7500032730835784
  0.4999925866363100  0.8192364599342881  0.2500030706061480
  0.4999924752479856  0.1807635386663122  0.7500032856449010
  0.1034817767369987  0.4263814171297540  0.7273332559207404
  0.8965186696075236  0.5736174134131957  0.2726631336982877
  0.8965185703603709  0.4263826825677839  0.7726629815580566
  0.1034818439250742  0.5736185261634859  0.2273333388916825
  0.6034817827485099  0.9263814160084607  0.7273332530114658
  0.3965186488265431  0.0736173765717325  0.2726630652978912
  0.3965186005509196  0.9263826586807085  0.7726630280476243
  0.6034818843708436  0.0736184860584075  0.2273334190746112
  0.3014114413316378  0.2954171579052058  0.7393677601092179
  0.6985871235076075  0.7045835874497683  0.2606294327283933
  0.6985870918799648  0.2954163940596359  0.7606293077081716
  0.3014114905550400  0.7045828504294391  0.2393680278974415
  0.8014114436602569  0.7954171692488359  0.7393678139119899
  0.1985871230287515  0.2045836088378721  0.2606295015514846
  0.1985870756351105  0.7954163734182771  0.7606292509225057
  0.8014114742909797  0.2045828395029261  0.2393679607306538
  0.0000009676758665  0.9379133062413629  0.7500050287527600
  0.0000009154247564  0.0620866992111218  0.2500047776656800
  0.5000009703318753  0.4379133025889885  0.7500050322241947
  0.5000009133223884  0.5620866973933545  0.2500047713379985
  0.0000022902950860  0.1938824932662442  0.7500011097890109
  0.0000029061601836  0.8061176304232234  0.2500017249867952
  0.5000022861922062  0.6938823720295488  0.7500011176433716
  0.5000028874324371  0.3061175319832685  0.2500017200711824
  0.1016422672457580  0.3866238581830288  0.0962960429348385
  0.8983598881018438  0.6133781343001203  0.9036976552745415
  0.8983599086817549  0.3866217935767793  0.4036976201421396
  0.1016422564132711  0.6133762046003639  0.5962960923224543
  0.6016422736591025  0.8866238590187052  0.0962960166345894
  0.3983598940426845  0.1133781402453735  0.9036976395288079
  0.3983599052286380  0.8866218016415672  0.4036975774912790
  0.6016422539435098  0.1133762148341191  0.5962960620891735
  0.1141727392831484  0.2149607291522884  0.5328893104585646
  0.8858276921817492  0.7850326512422612  0.4671152509335741
  0.8858276498406070  0.2149673702471731  0.9671151795484150
  0.1141727685393974  0.7850392585284212  0.0328893556770851
  0.6141727422944427  0.7149607262607347  0.5328892899331663
  0.3858276924489203  0.2850326449412321  0.4671152349938197
  0.3858276653687014  0.7149673642596497  0.9671151921678813
  0.6141727856437456  0.2850392558611929  0.0328893695073660
  0.1612697909549681  0.0577335515716939  0.0162543299252960
  0.8387350830142069  0.9422656293010263  0.9837431272249120
  0.8387350645244638  0.0577343593503272  0.4837431913359183
  0.1612698133858927  0.9422664758621906  0.5162542417839475
  0.6612697911872658  0.5577335448845631  0.0162543122082113
  0.3387350797490285  0.4422656253032571  0.9837431167612891
  0.3387350669180336  0.5577343466012934  0.4837432153015087
  0.6612698110951385  0.4422664669021827  0.5162542543197688
 
  0.00000000E+00  0.00000000E+00  0.00000000E+00
  0.00000000E+00  0.00000000E+00  0.00000000E+00
  0.00000000E+00  0.00000000E+00  0.00000000E+00
  0.00000000E+00  0.00000000E+00  0.00000000E+00
  0.00000000E+00  0.00000000E+00  0.00000000E+00
  0.00000000E+00  0.00000000E+00  0.00000000E+00
  0.00000000E+00  0.00000000E+00  0.00000000E+00
  0.00000000E+00  0.00000000E+00  0.00000000E+00
  0.00000000E+00  0.00000000E+00  0.00000000E+00
  0.00000000E+00  0.00000000E+00  0.00000000E+00
  0.00000000E+00  0.00000000E+00  0.00000000E+00
  0.00000000E+00  0.00000000E+00  0.00000000E+00
  0.00000000E+00  0.00000000E+00  0.00000000E+00
  0.00000000E+00  0.00000000E+00  0.00000000E+00
  0.00000000E+00  0.00000000E+00  0.00000000E+00
  0.00000000E+00  0.00000000E+00  0.00000000E+00
  0.00000000E+00  0.00000000E+00  0.00000000E+00
  0.00000000E+00  0.00000000E+00  0.00000000E+00
  0.00000000E+00  0.00000000E+00  0.00000000E+00
  0.00000000E+00  0.00000000E+00  0.00000000E+00
  0.00000000E+00  0.00000000E+00  0.00000000E+00
  0.00000000E+00  0.00000000E+00  0.00000000E+00
  0.00000000E+00  0.00000000E+00  0.00000000E+00
  0.00000000E+00  0.00000000E+00  0.00000000E+00
  0.00000000E+00  0.00000000E+00  0.00000000E+00
  0.00000000E+00  0.00000000E+00  0.00000000E+00
  0.00000000E+00  0.00000000E+00  0.00000000E+00
  0.00000000E+00  0.00000000E+00  0.00000000E+00
  0.00000000E+00  0.00000000E+00  0.00000000E+00
  0.00000000E+00  0.00000000E+00  0.00000000E+00
  0.00000000E+00  0.00000000E+00  0.00000000E+00
  0.00000000E+00  0.00000000E+00  0.00000000E+00
  0.00000000E+00  0.00000000E+00  0.00000000E+00
  0.00000000E+00  0.00000000E+00  0.00000000E+00
  0.00000000E+00  0.00000000E+00  0.00000000E+00
  0.00000000E+00  0.00000000E+00  0.00000000E+00
  0.00000000E+00  0.00000000E+00  0.00000000E+00
  0.00000000E+00  0.00000000E+00  0.00000000E+00
  0.00000000E+00  0.00000000E+00  0.00000000E+00
  0.00000000E+00  0.00000000E+00  0.00000000E+00
  0.00000000E+00  0.00000000E+00  0.00000000E+00
  0.00000000E+00  0.00000000E+00  0.00000000E+00
  0.00000000E+00  0.00000000E+00  0.00000000E+00
  0.00000000E+00  0.00000000E+00  0.00000000E+00
  0.00000000E+00  0.00000000E+00  0.00000000E+00
  0.00000000E+00  0.00000000E+00  0.00000000E+00
  0.00000000E+00  0.00000000E+00  0.00000000E+00
  0.00000000E+00  0.00000000E+00  0.00000000E+00
  0.00000000E+00  0.00000000E+00  0.00000000E+00
  0.00000000E+00  0.00000000E+00  0.00000000E+00
  0.00000000E+00  0.00000000E+00  0.00000000E+00
  0.00000000E+00  0.00000000E+00  0.00000000E+00
  0.00000000E+00  0.00000000E+00  0.00000000E+00
  0.00000000E+00  0.00000000E+00  0.00000000E+00
  0.00000000E+00  0.00000000E+00  0.00000000E+00
  0.00000000E+00  0.00000000E+00  0.00000000E+00
  0.00000000E+00  0.00000000E+00  0.00000000E+00
  0.00000000E+00  0.00000000E+00  0.00000000E+00
  0.00000000E+00  0.00000000E+00  0.00000000E+00
  0.00000000E+00  0.00000000E+00  0.00000000E+00
