Sodium-0.5 dioxovanadate(III/IV)        
   1.00000000000000     
     5.9898091974357675   -0.0011777268675271   -0.0004035417144429
    -0.0009639943504143   11.1911397565309461   -0.0063711819389483
     0.0004677177073630   -0.0025549414491991    4.9595571627176476
   V    Na   O 
     8     4    16
Direct
  0.9976173616089249 -0.0004894299623396  0.5025391658019155
  0.5039254282207553  0.5012855710198511  0.5046588905004682
  0.0039581869815799  0.4987583186112339  0.4952653302525868
  0.4976084292742373  0.0004600041132324  0.4975987693440822
  0.2546246182334204  0.9892204971800852  0.0170583602711276
  0.7546831878732405  0.0107535807365399  0.9829548743323736
  0.2444724888713812  0.5107177192374687  0.0167776307198980
  0.7444405566101950  0.4892680802196291  0.9830967524667966
  0.7481942906445314  0.2499294206865679  0.3420706123983565
  0.2492784253771258  0.7501570424232080  0.6578874936675628
  0.7495985576235991  0.7498896763550171  0.0287909908445124
  0.2494265151702806  0.2500872134854755  0.9715295090995236
  0.0078625855304989  0.0930122867774514  0.1640814601383740
  0.9955637003939081  0.9054514605179433  0.8371351146564415
  0.4916032715646630  0.4075610807606192  0.1644989398731771
  0.5038889588487082  0.5951836362428420  0.8379976971252644
  0.9917379770345889  0.5923758255747924  0.8353511988305727
  0.0037394558502871  0.4047641386918853  0.1619181494665309
  0.5078250284513643  0.9070036009240576  0.8359740353545615
  0.4955970347156193  0.0945572694408051  0.1629445506409813
  0.7483965272697947  0.9170949859931946  0.3183257134142268
  0.2485140616879136  0.0829059165807478  0.6817502896962844
  0.7528168964875701  0.5829527118786930  0.3188817320273925
  0.2527560980446637  0.4170426956511838  0.6809447444803750
  0.2480429770780549  0.9009600547906835  0.3269256302368566
  0.7481389228440668  0.0990760075287315  0.6731827388122424
  0.2528838811477845  0.5989075063517492  0.3280165918400116
  0.7528045485612342  0.4011131281886653  0.6718430627075083
 
  0.00000000E+00  0.00000000E+00  0.00000000E+00
  0.00000000E+00  0.00000000E+00  0.00000000E+00
  0.00000000E+00  0.00000000E+00  0.00000000E+00
  0.00000000E+00  0.00000000E+00  0.00000000E+00
  0.00000000E+00  0.00000000E+00  0.00000000E+00
  0.00000000E+00  0.00000000E+00  0.00000000E+00
  0.00000000E+00  0.00000000E+00  0.00000000E+00
  0.00000000E+00  0.00000000E+00  0.00000000E+00
  0.00000000E+00  0.00000000E+00  0.00000000E+00
  0.00000000E+00  0.00000000E+00  0.00000000E+00
  0.00000000E+00  0.00000000E+00  0.00000000E+00
  0.00000000E+00  0.00000000E+00  0.00000000E+00
  0.00000000E+00  0.00000000E+00  0.00000000E+00
  0.00000000E+00  0.00000000E+00  0.00000000E+00
  0.00000000E+00  0.00000000E+00  0.00000000E+00
  0.00000000E+00  0.00000000E+00  0.00000000E+00
  0.00000000E+00  0.00000000E+00  0.00000000E+00
  0.00000000E+00  0.00000000E+00  0.00000000E+00
  0.00000000E+00  0.00000000E+00  0.00000000E+00
  0.00000000E+00  0.00000000E+00  0.00000000E+00
  0.00000000E+00  0.00000000E+00  0.00000000E+00
  0.00000000E+00  0.00000000E+00  0.00000000E+00
  0.00000000E+00  0.00000000E+00  0.00000000E+00
  0.00000000E+00  0.00000000E+00  0.00000000E+00
  0.00000000E+00  0.00000000E+00  0.00000000E+00
  0.00000000E+00  0.00000000E+00  0.00000000E+00
  0.00000000E+00  0.00000000E+00  0.00000000E+00
  0.00000000E+00  0.00000000E+00  0.00000000E+00
