Co4 O4 F8                               
   1.00000000000000     
     5.0524759350957691    0.0041501595189197    0.0019254012028458
    -0.0023750313076600    5.2663600146636531   -0.0062289181115166
    -0.0005744247675377    0.0067822996880962    7.2694460509767485
   Co   O    F 
     4     4     8
Direct
  0.4976906385759865  0.0139863068055030  0.0026600484390200
 -0.0072261249825684  0.5151606510067951  0.0045005612219869
  0.5022919282921099  0.9863235113257560  0.5026003599411877
  0.0072720557920371  0.4847551029111339  0.5044957017580795
  0.7124881947558263  0.2844385959259172  0.0516395739239566
  0.7821218179033084  0.7847005205814661  0.0553983020579362
  0.2858871131514396  0.7172006381940923  0.5516114791123488
  0.2198340863029393  0.2169177240658292  0.5556926744846165
  0.3073493708430924  0.6976751161009466  0.9435774857174964
  0.1851865927651954  0.1971471327363220  0.9434197821337958
  0.6939099735231000  0.3014362369193828  0.4435019696422789
  0.8131931358943911  0.8014802993399849  0.4427807745300038
  0.1154775285766039  0.4730283911821663  0.2492465708412904
  0.8843273461294452  0.5264547077872759  0.7493116791637876
  0.6149434653987472  0.0239239433946366  0.7498810634556891
  0.3852528770783470  0.9753711217227843  0.2496819735765266
 
  0.00000000E+00  0.00000000E+00  0.00000000E+00
  0.00000000E+00  0.00000000E+00  0.00000000E+00
  0.00000000E+00  0.00000000E+00  0.00000000E+00
  0.00000000E+00  0.00000000E+00  0.00000000E+00
  0.00000000E+00  0.00000000E+00  0.00000000E+00
  0.00000000E+00  0.00000000E+00  0.00000000E+00
  0.00000000E+00  0.00000000E+00  0.00000000E+00
  0.00000000E+00  0.00000000E+00  0.00000000E+00
  0.00000000E+00  0.00000000E+00  0.00000000E+00
  0.00000000E+00  0.00000000E+00  0.00000000E+00
  0.00000000E+00  0.00000000E+00  0.00000000E+00
  0.00000000E+00  0.00000000E+00  0.00000000E+00
  0.00000000E+00  0.00000000E+00  0.00000000E+00
  0.00000000E+00  0.00000000E+00  0.00000000E+00
  0.00000000E+00  0.00000000E+00  0.00000000E+00
  0.00000000E+00  0.00000000E+00  0.00000000E+00
