Na8 Co8 O16 F8                          
   1.00000000000000     
     8.1367143921829577    0.0032545521311140    0.0069809814170652
     0.0017213861792376    7.1534150534899847    0.0103420809336178
    -0.0377263500677746    0.0020894037616582    7.3950577611333879
   Na   Co   O    F 
     8     8    16     8
Direct
  0.2586089926412270  0.2608318774103986  0.2585139920660410
  0.2526970545875690  0.2532636075842681  0.7023100640134549
  0.2579851037400903  0.7653981208227854  0.2512837811969326
  0.2537131663480100  0.7723644594464864  0.7447115459234865
  0.7541232320021658  0.2249101228661866  0.2325661968519485
  0.7560617439699782  0.2332980695179390  0.7795355040908465
  0.7566782130924028  0.7531366108768571  0.2570796969414242
  0.7612996274752448  0.7307509044629542  0.7767758805227513
  0.0061194899530820  0.0016874556541147  0.9996220174767113
  0.9957433772509084  0.0014242984814230  0.4970521836233064
  0.0494439950450156  0.4911547263002825  0.9993672015160326
  0.9845600652796628  0.5035565836036090  0.4954871099038802
  0.4950745774444886  0.9983892529600630  0.0007161051717190
  0.5068178245979055  0.0006375732957135  0.5020557212447812
  0.4833566730594496  0.4981633316658854  0.9956919248129535
  0.5515321062489844  0.4907025851385142  0.4989823538794605
  0.2584205238853419  0.4503988303849094  0.9469225021689330
  0.7570219403017376  0.4598858054555526  0.4347371799110724
  0.9678616445236137  0.2564764443421340  0.0262399294783522
  0.0356816816048252  0.2682615826009483  0.4751666901557395
  0.0380859640830969  0.7430894739744706  0.9754618488259557
  0.9441197901672466  0.7389793463007248  0.5191538115973434
  0.5249056185032288  0.2543092711680598  0.0231950088090578
  0.4618665239691561  0.2532684195257506  0.4812390720057356
  0.4548828630227816  0.7444527069724607  0.9767018176411235
  0.5475038770615436  0.7459229057409250  0.5199056657867367
  0.9799164574988012  0.9773615282918831  0.2431769177594146
  0.0208983103288547  0.0221170548489520  0.7584534975525260
  0.0459674570795706  0.5259395066116567  0.2374147837953454
  0.5233202332233760  0.9766954914508338  0.2663196239036999
  0.4793391647447642  0.0201167482430474  0.7363158342418675
  0.5472212392218331  0.4758801627760612  0.7379570065763157
  0.2533164973838010  0.0346255359051660  0.0407267024603072
  0.2391758718106519  0.9610047460119234  0.4843206686353264
  0.2142311533722090  0.5457707715055166  0.5550154769195030
  0.7433791248955384  0.9675828370209705  0.9765514102065270
  0.7585804331598835  0.0566610033720395  0.5225255386490809
  0.7125601974645317  0.5442537838444409  0.0427089392405526
  0.9348246334836502  0.4724459131886671  0.7622976366324955
  0.4331035564737925  0.5248305503754255  0.2657411578112731
 
  0.00000000E+00  0.00000000E+00  0.00000000E+00
  0.00000000E+00  0.00000000E+00  0.00000000E+00
  0.00000000E+00  0.00000000E+00  0.00000000E+00
  0.00000000E+00  0.00000000E+00  0.00000000E+00
  0.00000000E+00  0.00000000E+00  0.00000000E+00
  0.00000000E+00  0.00000000E+00  0.00000000E+00
  0.00000000E+00  0.00000000E+00  0.00000000E+00
  0.00000000E+00  0.00000000E+00  0.00000000E+00
  0.00000000E+00  0.00000000E+00  0.00000000E+00
  0.00000000E+00  0.00000000E+00  0.00000000E+00
  0.00000000E+00  0.00000000E+00  0.00000000E+00
  0.00000000E+00  0.00000000E+00  0.00000000E+00
  0.00000000E+00  0.00000000E+00  0.00000000E+00
  0.00000000E+00  0.00000000E+00  0.00000000E+00
  0.00000000E+00  0.00000000E+00  0.00000000E+00
  0.00000000E+00  0.00000000E+00  0.00000000E+00
  0.00000000E+00  0.00000000E+00  0.00000000E+00
  0.00000000E+00  0.00000000E+00  0.00000000E+00
  0.00000000E+00  0.00000000E+00  0.00000000E+00
  0.00000000E+00  0.00000000E+00  0.00000000E+00
  0.00000000E+00  0.00000000E+00  0.00000000E+00
  0.00000000E+00  0.00000000E+00  0.00000000E+00
  0.00000000E+00  0.00000000E+00  0.00000000E+00
  0.00000000E+00  0.00000000E+00  0.00000000E+00
  0.00000000E+00  0.00000000E+00  0.00000000E+00
  0.00000000E+00  0.00000000E+00  0.00000000E+00
  0.00000000E+00  0.00000000E+00  0.00000000E+00
  0.00000000E+00  0.00000000E+00  0.00000000E+00
  0.00000000E+00  0.00000000E+00  0.00000000E+00
  0.00000000E+00  0.00000000E+00  0.00000000E+00
  0.00000000E+00  0.00000000E+00  0.00000000E+00
  0.00000000E+00  0.00000000E+00  0.00000000E+00
  0.00000000E+00  0.00000000E+00  0.00000000E+00
  0.00000000E+00  0.00000000E+00  0.00000000E+00
  0.00000000E+00  0.00000000E+00  0.00000000E+00
  0.00000000E+00  0.00000000E+00  0.00000000E+00
  0.00000000E+00  0.00000000E+00  0.00000000E+00
  0.00000000E+00  0.00000000E+00  0.00000000E+00
  0.00000000E+00  0.00000000E+00  0.00000000E+00
  0.00000000E+00  0.00000000E+00  0.00000000E+00
