Na4 Fe4 O8 F4                           
   1.00000000000000     
     5.4051684011488357   -0.0108889312109415   -0.0446158419402762
    -2.7235800882842183    4.6247607921675717    0.0024070021067649
    -0.0726819672840003   -0.0400080105295885    9.1318646989870533
   Na   Fe   O    F 
     4     4     8     4
Direct
  0.0203464376180480  0.0337188186229400  0.9293037884748504
 -0.0171589802856962  0.9713725203707118  0.4290417395764904
  0.3152097124331122  0.6452329637530629  0.2539198494809215
  0.6674964927590773  0.3484183785310180  0.7424707753789607
  0.3203549423649560  0.6331478491393705  0.6015131878723023
  0.6513260451841387  0.3007319423117822  0.4049238126551002
  0.6984830214607775  0.3335966020990132  0.1178918816555500
  0.3407855821542207  0.6944968288903921  0.9041228479088270
  0.4594946267479716  0.0529842948240166  0.9904450557358560
  0.0528288254495584  0.4674763407426631  0.0220630312987495
  0.4068432977953435  0.9622751621374508  0.4896908797302197
  0.9643919455362693  0.3738310620964254  0.5107348472265075
  0.5681070930277127  0.5292707627403211  0.5134722749003714
  0.8569276859997818  0.5948120054457109  0.2695603802381411
  0.2648307676918751  0.4072413275089213  0.7754680884800823
  0.7136780851456723  0.0951361028761806  0.2541011986656683
  0.6343440264808331  0.6255993327219280  0.0157575294104457
  0.3316905030330824  0.2371248660448816  0.2614379398689342
  0.6439300378329655  0.9184738965376813  0.7603807164535822
  0.1060898515703064  0.7750589426055264  0.7537001749884324
 
  0.00000000E+00  0.00000000E+00  0.00000000E+00
  0.00000000E+00  0.00000000E+00  0.00000000E+00
  0.00000000E+00  0.00000000E+00  0.00000000E+00
  0.00000000E+00  0.00000000E+00  0.00000000E+00
  0.00000000E+00  0.00000000E+00  0.00000000E+00
  0.00000000E+00  0.00000000E+00  0.00000000E+00
  0.00000000E+00  0.00000000E+00  0.00000000E+00
  0.00000000E+00  0.00000000E+00  0.00000000E+00
  0.00000000E+00  0.00000000E+00  0.00000000E+00
  0.00000000E+00  0.00000000E+00  0.00000000E+00
  0.00000000E+00  0.00000000E+00  0.00000000E+00
  0.00000000E+00  0.00000000E+00  0.00000000E+00
  0.00000000E+00  0.00000000E+00  0.00000000E+00
  0.00000000E+00  0.00000000E+00  0.00000000E+00
  0.00000000E+00  0.00000000E+00  0.00000000E+00
  0.00000000E+00  0.00000000E+00  0.00000000E+00
  0.00000000E+00  0.00000000E+00  0.00000000E+00
  0.00000000E+00  0.00000000E+00  0.00000000E+00
  0.00000000E+00  0.00000000E+00  0.00000000E+00
  0.00000000E+00  0.00000000E+00  0.00000000E+00
