Na8 Co8 O16 F8                          
   1.00000000000000     
     7.4842135354317074   -0.0022225320611191    0.0000306248997497
    -0.0021210138593431    7.3111975528897331    0.0000536561013262
     0.0000305064251306    0.0000670085861292    8.0546152279362868
   Na   Co   O    F 
     8     8    16     8
Direct
  0.2425553287096173  0.2417066641650895  0.2468055352979811
  0.2425514423159762  0.2417022781836050  0.7531946146917261
  0.2426023933377521  0.7584612023029801  0.2470832720575471
  0.2425968256171490  0.7584668855550898  0.7529133994844435
  0.7576521253614139  0.2410475431252332  0.2515191217454669
  0.7576555465287192  0.2410427443451691  0.7484796724795798
  0.7576329846643391  0.7589392768955937  0.2515983231026123
  0.7576369426349163  0.7589433832141663  0.7484006392656833
  0.0027001553773333  0.9980205851040794  0.0000087064381942
  0.9962809522535871  0.0016505452736178  0.5000024513479613
  0.9860000225897260  0.4984344484896258 -0.0000043861121590
  0.0179582437556167  0.5013204577086446  0.4999975202082824
  0.4958075189976922  0.9983892798166771 -0.0000011980257668
  0.5053715756832587  0.0014548724317458  0.4999958129593866
  0.5073098663564404  0.4986953080407316 -0.0000009082158091
  0.4929735193813771  0.5011711774876538  0.4999970799099505
  0.2586618382054945  0.9983319009581857  0.0000069386796052
  0.2522604032847290  0.0011953708720653  0.4999984966546388
  0.2462076365906214  0.5016004408588689  0.4999977755586378
  0.7405032387805782  0.9986300508075756  0.0000063098653077
  0.7447547629190133  0.0015596482762763  0.4999968005552199
  0.7613435087690426  0.4985373302375509  0.9999977561502632
  0.9995387376643476  0.2404621014621421  0.0000078778968854
  0.0007368610434308  0.2387686871133804  0.4999973519155551
  0.9989769033005467  0.7565766082750224  0.0000064046457332
  0.0003441075830501  0.7640033444802906  0.5000000685038737
  0.5017165312778906  0.2577388665053472  0.9999896516247941
  0.4969953701824300  0.2632530205424136  0.4999905208070977
  0.5020622792416198  0.7399099191131016  0.0000078339595284
  0.4975171743323015  0.7388430473420819  0.5000057711109251
  0.5007411480118507  0.4998060679783637  0.2426613580941031
  0.5007434531162287  0.4998039050577004  0.7573340376940679
  0.2360096380719569  0.4991729060825096  0.9999922168337270
  0.7596776830554766  0.5010212953571798  0.4999982155308523
  0.9993005732518043  0.0004599210014726  0.2484080271391100
  0.9992983116669198  0.0004634354990520  0.7516186479546254
  0.0006434853704297  0.5004466837642819  0.2523689644269165
  0.0006394607887222  0.5004474240469399  0.7476236776295566
  0.4980193986567899  0.9997617500228022  0.2521749427899007
  0.4980220512698185  0.9997596222057070  0.7478206973439886
 
  0.00000000E+00  0.00000000E+00  0.00000000E+00
  0.00000000E+00  0.00000000E+00  0.00000000E+00
  0.00000000E+00  0.00000000E+00  0.00000000E+00
  0.00000000E+00  0.00000000E+00  0.00000000E+00
  0.00000000E+00  0.00000000E+00  0.00000000E+00
  0.00000000E+00  0.00000000E+00  0.00000000E+00
  0.00000000E+00  0.00000000E+00  0.00000000E+00
  0.00000000E+00  0.00000000E+00  0.00000000E+00
  0.00000000E+00  0.00000000E+00  0.00000000E+00
  0.00000000E+00  0.00000000E+00  0.00000000E+00
  0.00000000E+00  0.00000000E+00  0.00000000E+00
  0.00000000E+00  0.00000000E+00  0.00000000E+00
  0.00000000E+00  0.00000000E+00  0.00000000E+00
  0.00000000E+00  0.00000000E+00  0.00000000E+00
  0.00000000E+00  0.00000000E+00  0.00000000E+00
  0.00000000E+00  0.00000000E+00  0.00000000E+00
  0.00000000E+00  0.00000000E+00  0.00000000E+00
  0.00000000E+00  0.00000000E+00  0.00000000E+00
  0.00000000E+00  0.00000000E+00  0.00000000E+00
  0.00000000E+00  0.00000000E+00  0.00000000E+00
  0.00000000E+00  0.00000000E+00  0.00000000E+00
  0.00000000E+00  0.00000000E+00  0.00000000E+00
  0.00000000E+00  0.00000000E+00  0.00000000E+00
  0.00000000E+00  0.00000000E+00  0.00000000E+00
  0.00000000E+00  0.00000000E+00  0.00000000E+00
  0.00000000E+00  0.00000000E+00  0.00000000E+00
  0.00000000E+00  0.00000000E+00  0.00000000E+00
  0.00000000E+00  0.00000000E+00  0.00000000E+00
  0.00000000E+00  0.00000000E+00  0.00000000E+00
  0.00000000E+00  0.00000000E+00  0.00000000E+00
  0.00000000E+00  0.00000000E+00  0.00000000E+00
  0.00000000E+00  0.00000000E+00  0.00000000E+00
  0.00000000E+00  0.00000000E+00  0.00000000E+00
  0.00000000E+00  0.00000000E+00  0.00000000E+00
  0.00000000E+00  0.00000000E+00  0.00000000E+00
  0.00000000E+00  0.00000000E+00  0.00000000E+00
  0.00000000E+00  0.00000000E+00  0.00000000E+00
  0.00000000E+00  0.00000000E+00  0.00000000E+00
  0.00000000E+00  0.00000000E+00  0.00000000E+00
  0.00000000E+00  0.00000000E+00  0.00000000E+00
