Ti2 O2 F4                               
    1.000000000000000     
     3.8264286169445598    0.0000673431210053   -0.0000593174276745
     0.0000642574391807    3.8264504281489984   -0.0000064046609851
    -0.0001333163718114   -0.0000115110686478    7.9245571984636669
   Ti   O    F 
     2     2     4
Direct
  0.5000364431905986  0.4999968419371136  0.2561686089915642
  0.4999410048518868  0.5000014361917149  0.7565279414302709
  0.4999820994478724  0.0000009660962283  0.7547897832219851
  0.9999974370898003  0.5000009934773704  0.7547913703314882
  0.4999893025257838  0.5000000825285322  0.0210661248701385
  0.4999938855220556  0.5000009446966478  0.4901726998128842
  0.5000285436167468  0.9999994003258665  0.2547426153278822
  0.0000312837552628  0.4999993347465265  0.2547408560137858
 
  0.00000000E+00  0.00000000E+00  0.00000000E+00
  0.00000000E+00  0.00000000E+00  0.00000000E+00
  0.00000000E+00  0.00000000E+00  0.00000000E+00
  0.00000000E+00  0.00000000E+00  0.00000000E+00
  0.00000000E+00  0.00000000E+00  0.00000000E+00
  0.00000000E+00  0.00000000E+00  0.00000000E+00
  0.00000000E+00  0.00000000E+00  0.00000000E+00
  0.00000000E+00  0.00000000E+00  0.00000000E+00
