Na4 V4 O8 F4                            
   1.00000000000000     
     5.5147351744983579    0.0204143861265221    0.0000385964113878
    -2.7444696774136892    4.7480073098824391   -0.0000956945091858
     0.0000442120086635   -0.0001597827309277    9.2413841821238023
   Na   V    O    F 
     4     4     8     4
Direct
  0.0106807786318332  0.0054788323518124  0.0716194578117990
  0.0106170771988783  0.0053485515753189  0.4283651980253840
  0.3883277251218478  0.6940232392566025  0.2500006468059113
  0.6648322297513760  0.3334314976344147  0.7500007302412480
  0.3476557352020336  0.6738496565300510  0.5918059635775849
  0.6945288921882122  0.3472161529642466  0.3963265076044126
  0.6945677724154414  0.3475549113876648  0.1036678210980868
  0.3476877923282617  0.6740015217154559  0.9081960603759885
  0.4852972203533983  0.9978820515567602  0.9958730934462559
 -0.0000673844497219  0.4995766291616897  0.0033432676987982
  0.4858600995414422  0.4877816434271713  0.9960147928035973
  0.4851924976151361  0.9977189362942418  0.5040262786597397
 -0.0001230964130506  0.4993708750964087  0.4966852744739607
  0.4858512111390602  0.4876566018999189  0.5040596385907898
  0.7817654177359540  0.6198123638336258  0.2500258723158510
  0.7809585531331464  0.1614629638801398  0.2499764611919227
  0.1822866805002097  0.3719310246877668  0.7500471009152785
  0.3241544585977029  0.1623904275389912  0.2499939840493677
  0.6482625188185462  0.8235510257011722  0.7499954733531807
  0.1816638205902995  0.8099610935065464  0.7499763769608498
 
  0.00000000E+00  0.00000000E+00  0.00000000E+00
  0.00000000E+00  0.00000000E+00  0.00000000E+00
  0.00000000E+00  0.00000000E+00  0.00000000E+00
  0.00000000E+00  0.00000000E+00  0.00000000E+00
  0.00000000E+00  0.00000000E+00  0.00000000E+00
  0.00000000E+00  0.00000000E+00  0.00000000E+00
  0.00000000E+00  0.00000000E+00  0.00000000E+00
  0.00000000E+00  0.00000000E+00  0.00000000E+00
  0.00000000E+00  0.00000000E+00  0.00000000E+00
  0.00000000E+00  0.00000000E+00  0.00000000E+00
  0.00000000E+00  0.00000000E+00  0.00000000E+00
  0.00000000E+00  0.00000000E+00  0.00000000E+00
  0.00000000E+00  0.00000000E+00  0.00000000E+00
  0.00000000E+00  0.00000000E+00  0.00000000E+00
  0.00000000E+00  0.00000000E+00  0.00000000E+00
  0.00000000E+00  0.00000000E+00  0.00000000E+00
  0.00000000E+00  0.00000000E+00  0.00000000E+00
  0.00000000E+00  0.00000000E+00  0.00000000E+00
  0.00000000E+00  0.00000000E+00  0.00000000E+00
  0.00000000E+00  0.00000000E+00  0.00000000E+00
