Na1 Ti16 O16 F32                        
   1.00000000000000     
    10.9112960000000001    0.1348610000000000   -0.0000440000000000
     0.1319760000000000   10.9509419999999995    0.0000940000000000
    -0.0000320000000000    0.0000690000000000    7.6334980000000003
   Na   Ti   O    F 
     1    16    16    32
Direct
  0.4960329107209866  0.4907582189596958  0.3225707852648023
  0.2417765636726610  0.0055289379079000  0.0133731560099685
  0.2397667739183566  0.5065668855839606  0.0174570843980583
  0.7426848767528531  0.0062386394768267  0.0117167413055450
  0.7433164513245699  0.5055887405956792  0.0177514581931178
  0.0053670398517720  0.2421376931692409  0.9869530734952020
  0.0048080247815681  0.7437806854977883  0.9894984834919048
  0.5051438782956797  0.2416352994035338  0.9872157012230575
  0.5061103473152969  0.7435231323338857  0.9897037858052808
  0.2404979998414938  0.0049414458615933  0.4866463273913966
  0.2340337425403166  0.5060406509915537  0.4952095875851298
  0.7448695248151230  0.0050930372377075  0.4844819805033223
  0.7465607427257726  0.5084904861776575  0.4939230572434391
  0.0036399724549197  0.2409766770859290  0.5169479758548648
  0.0041986733601791  0.7468822828953581  0.5194129163485504
  0.5052190004177395  0.2357377103235496  0.5203877802656613
  0.5063196387592629  0.7473182783747072  0.5231665147677153
  0.1171939667613253  0.1167467930013296  0.9876485648861421
  0.1153765348189506  0.6164117529272338  0.9909441397087588
  0.6163406404334290  0.1162301156121135  0.9929111458482175
  0.6150576936527737  0.6148258996422037  0.9911776833765638
  0.1168239866829503  0.1166554725883403  0.5140001967501717
  0.1142089528084627  0.6175951179985384  0.5145861484467686
  0.6176267104303411  0.1149625330490523  0.5141322687249642
  0.6174753058247890  0.6169650643705047  0.5158142493986110
  0.4827296937158663  0.2471137924450313  0.7543263451388131
  0.4836681519530641  0.7517915168948384  0.7539271508384041
  0.9822451163215102  0.2492062467298187  0.7517953480415475
  0.9818920562360334  0.7497554720550487  0.7523165224839927
  0.2420434117945196  0.4969561616313562  0.2548305381208396
  0.2344621783531544  0.9931759627221397  0.2506224954622848
  0.7304644949938569  0.4943322916896019  0.2547982924078067
  0.7384396097852686  0.9937984733983459  0.2507011993514206
  0.3653718469829035  0.1364501837117817  0.0263041969247656
  0.3656189665438667  0.6351037521854060  0.0216532774296797
  0.8651730136627463  0.1355006782929161  0.0209072044736734
  0.8647676303278418  0.6358114643351813  0.0257295069363472
  0.1365573897697994  0.3651499059432100  0.9833939158641112
  0.1361792760407034  0.8648239509823490  0.9783301506773597
  0.6360541926415409  0.3649873124009622  0.9822002786395917
  0.6364031339569557  0.8644466347480126  0.9837492484165880
  0.3898276453248724  0.3890987581285205  0.0187960664998170
  0.3869616036801233  0.8852633708325121  0.0169534057411069
  0.8855248340942159  0.3862386760819446  0.0162135589337454
  0.8855645441410630  0.8852222507824469  0.0130178970997478
  0.1291506160950605  0.3675972509117213  0.5225740503422512
  0.1378936477083913  0.8636960979653309  0.5255166356499065
  0.6292935316526065  0.3692113294389712  0.5228399807523154
  0.6383123965342437  0.8647306140474454  0.5219378901903807
  0.3686319769274351  0.1289995317263369  0.4777323948165686
  0.3694962072960635  0.6291695756507965  0.4856330444607758
  0.8637304704156363  0.1368381879454098  0.4794012372830675
  0.8653508417625827  0.6383630632516968  0.4776260909479922
  0.3768537688739366  0.3762819339095437  0.4930793922832633
  0.3861551972848644  0.8823241325764397  0.4854864830478196
  0.8834045663063567  0.3853124246550930  0.4887041738506086
  0.8894438802488459  0.8893009554031489  0.4893205198951177
  0.0118156028736092  0.2556783190550110  0.2515957791817937
  0.0139579686434278  0.7594363365664423  0.2516116035125854
  0.5137750411309669  0.2664915640078977  0.2561241242066159
  0.5118336234538181  0.7478607662867882  0.2537229652278264
  0.2717712326964573  0.0003686479303792  0.7509886284531392
  0.2690844178193580  0.5003120791626053  0.7527192492467357
  0.7701544101589168  1.0010279512628859  0.7516114800223774
  0.7719780622515608  0.5021084066185592  0.7530189008816111
 
             NaN             NaN             NaN
             NaN             NaN             NaN
             NaN             NaN             NaN
             NaN             NaN             NaN
             NaN             NaN             NaN
             NaN             NaN             NaN
             NaN             NaN             NaN
             NaN             NaN             NaN
             NaN             NaN             NaN
             NaN             NaN             NaN
             NaN             NaN             NaN
             NaN             NaN             NaN
             NaN             NaN             NaN
             NaN             NaN             NaN
             NaN             NaN             NaN
             NaN             NaN             NaN
             NaN             NaN             NaN
             NaN             NaN             NaN
             NaN             NaN             NaN
             NaN             NaN             NaN
             NaN             NaN             NaN
             NaN             NaN             NaN
             NaN             NaN             NaN
             NaN             NaN             NaN
             NaN             NaN             NaN
             NaN             NaN             NaN
             NaN             NaN             NaN
             NaN             NaN             NaN
             NaN             NaN             NaN
             NaN             NaN             NaN
             NaN             NaN             NaN
             NaN             NaN             NaN
             NaN             NaN             NaN
             NaN             NaN             NaN
             NaN             NaN             NaN
             NaN             NaN             NaN
             NaN             NaN             NaN
             NaN             NaN             NaN
             NaN             NaN             NaN
             NaN             NaN             NaN
             NaN             NaN             NaN
             NaN             NaN             NaN
             NaN             NaN             NaN
             NaN             NaN             NaN
             NaN             NaN             NaN
             NaN             NaN             NaN
             NaN             NaN             NaN
             NaN             NaN             NaN
             NaN             NaN             NaN
             NaN             NaN             NaN
             NaN             NaN             NaN
             NaN             NaN             NaN
             NaN             NaN             NaN
             NaN             NaN             NaN
             NaN             NaN             NaN
             NaN             NaN             NaN
             NaN             NaN             NaN
             NaN             NaN             NaN
             NaN             NaN             NaN
             NaN             NaN             NaN
             NaN             NaN             NaN
             NaN             NaN             NaN
             NaN             NaN             NaN
             NaN             NaN             NaN
             NaN             NaN             NaN
