Na1 Ti16 O16 F32
1.0
10.911296 0.134861 -0.000044
0.131976 10.950942 0.000094
-0.000032 0.000069 7.633498
Na Ti O F
1 16 16 32
direct
0.492868 0.495881 0.333139 Na
0.241180 0.005745 0.013151 Ti
0.237884 0.506628 0.011662 Ti
0.742766 0.005681 0.013275 Ti
0.743497 0.505924 0.012505 Ti
0.004893 0.242078 0.984915 Ti
0.003909 0.744520 0.985029 Ti
0.505267 0.239875 0.983568 Ti
0.505446 0.744623 0.983990 Ti
0.241250 0.005711 0.486649 Ti
0.237917 0.506629 0.487980 Ti
0.742771 0.005665 0.486626 Ti
0.743562 0.505877 0.487411 Ti
0.004989 0.242036 0.514879 Ti
0.003928 0.744499 0.514919 Ti
0.505290 0.239868 0.516202 Ti
0.505488 0.744581 0.515846 Ti
0.115992 0.115880 0.987061 O
0.114529 0.615988 0.987590 O
0.615196 0.114949 0.986674 O
0.612487 0.612535 0.991294 O
0.116062 0.115907 0.512893 O
0.114562 0.615994 0.512189 O
0.615195 0.114940 0.513201 O
0.612516 0.612535 0.508672 O
0.479803 0.249836 0.749891 O
0.484017 0.748614 0.749940 O
0.984295 0.251403 0.749933 O
0.981808 0.748894 0.749962 O
0.240654 0.496123 0.249857 O
0.235963 0.993327 0.249953 O
0.731127 0.491541 0.249989 O
0.737410 0.996009 0.249960 O
0.364378 0.137332 0.024897 F
0.365229 0.635013 0.020860 F
0.864019 0.136248 0.017263 F
0.863164 0.637111 0.023322 F
0.137530 0.363893 0.981610 F
0.136363 0.864441 0.976660 F
0.636270 0.364370 0.975863 F
0.637375 0.862920 0.982531 F
0.392201 0.391293 0.016315 F
0.387336 0.885229 0.013362 F
0.886196 0.387071 0.012288 F
0.886425 0.886403 0.012627 F
0.137684 0.363819 0.518071 F
0.136291 0.864512 0.523323 F
0.636388 0.364302 0.523987 F
0.637296 0.862973 0.517415 F
0.364354 0.137408 0.474835 F
0.365215 0.635085 0.478864 F
0.864115 0.136150 0.482669 F
0.863230 0.637036 0.476621 F
0.392409 0.391475 0.483525 F
0.387349 0.885285 0.486566 F
0.886284 0.387120 0.487742 F
0.886266 0.886227 0.487241 F
0.011069 0.256001 0.249963 F
0.013276 0.757703 0.249951 F
0.516555 0.264437 0.249926 F
0.510601 0.749436 0.249957 F
0.272850 0.001820 0.749957 F
0.271558 0.499558 0.749872 F
0.768471 0.998606 0.749957 F
0.768968 0.503841 0.749998 F
