Na4 V4 O8 F4                            
   1.00000000000000     
     5.4916893174822672    0.0033065210424173   -0.0345633433025173
    -2.7433412308189724    4.6750769968761894    0.0144784157933100
     0.0849534947269606   -0.0075484635584247    9.3370890942546882
   Na   V    O    F 
     4     4     8     4
Direct
  0.9785076822561739  0.9815168055429347  0.0862655083697517
  0.9965111748766377  0.0190553708821667  0.5859753742836513
  0.3219867047239622  0.6519792414714275  0.2659830339802833
  0.6701039724365602  0.3478158522909708  0.7650983053498535
  0.2905392087783908  0.6734091078248889  0.5978372106044277
  0.6676154108842357  0.3203308114584360  0.3820727729614588
  0.6169227060786284  0.3271589120628486  0.0978545868793171
  0.3465523858223969  0.6789889673881299  0.8819164557660520
  0.4251608093289845  0.9921643414883057  0.0031655805060033
  0.5726001041997378  0.5556739196447410  0.9868407892803702
  0.4341248622525349  0.0085151014540189  0.5034867467793668
  0.0179797731383371  0.4452338016020406  0.4863057737869605
  0.8868093468273477  0.5701114381445698  0.2168384653752674
  0.3163402089730776  0.4291287491807348  0.7164224611552999
  0.3701136568542609  0.2501562387911445  0.2365681490574005
  0.1195985977686656  0.7498836291321260  0.7363237487208564
  0.9802868826473696  0.3775539504464764  0.9785595111988613
  0.6033655390408613  0.6228785823557293  0.4785553753870415
  0.6646580757309108  0.9439186560519636  0.7467708998002432
  0.7202228973809266  0.0545265227863399  0.2471592507575268
 
  0.00000000E+00  0.00000000E+00  0.00000000E+00
  0.00000000E+00  0.00000000E+00  0.00000000E+00
  0.00000000E+00  0.00000000E+00  0.00000000E+00
  0.00000000E+00  0.00000000E+00  0.00000000E+00
  0.00000000E+00  0.00000000E+00  0.00000000E+00
  0.00000000E+00  0.00000000E+00  0.00000000E+00
  0.00000000E+00  0.00000000E+00  0.00000000E+00
  0.00000000E+00  0.00000000E+00  0.00000000E+00
  0.00000000E+00  0.00000000E+00  0.00000000E+00
  0.00000000E+00  0.00000000E+00  0.00000000E+00
  0.00000000E+00  0.00000000E+00  0.00000000E+00
  0.00000000E+00  0.00000000E+00  0.00000000E+00
  0.00000000E+00  0.00000000E+00  0.00000000E+00
  0.00000000E+00  0.00000000E+00  0.00000000E+00
  0.00000000E+00  0.00000000E+00  0.00000000E+00
  0.00000000E+00  0.00000000E+00  0.00000000E+00
  0.00000000E+00  0.00000000E+00  0.00000000E+00
  0.00000000E+00  0.00000000E+00  0.00000000E+00
  0.00000000E+00  0.00000000E+00  0.00000000E+00
  0.00000000E+00  0.00000000E+00  0.00000000E+00
