Sodium nonaoxotetracobaltate(II)        
   1.00000000000000     
    12.0901536474213476   -0.0094011215057212    0.1138969171916665
    -3.8131885348184182    7.5685436607375198   -0.0603006854449222
     0.3673391756589212   -4.4782378661247808    7.0068647864488947
   Co   Na   O 
     8    20    18
Direct
  0.6399199821231069  0.3226892207781052  0.9758229242736088
  0.3601842950289265  0.6777869280270259  0.0243688673365956
  0.3516985893295216  0.1003248654958425  0.1698002866924984
  0.6481982290153272  0.8992848586127696  0.8296968183683437
  0.8495014005355748  0.8101253808340272  0.7202591221433859
  0.1504600606288170  0.1897741631910677  0.2800066431876536
  0.8598533861151546  0.3963359444637929  0.5992662439189068
  0.1399924849865538  0.6039797737390763  0.4009831031075514
  0.8699830417378479  0.7149313164249863  0.0195803200139645
  0.1301595678757834  0.2852153141010228  0.9808179038130026
  0.1257362013911716  0.8452778768743093  0.8315101126915511
  0.8740317246912501  0.1545321117065390  0.1681612199490852
  0.6131851549433256  0.9979809290203359  0.5375310075707257
  0.3869202897494273  0.0021491164381826  0.4626318744419893
  0.8727053608815879  0.9531716820886225  0.4274477775461127
  0.1274193970486487  0.0469537339836547  0.5731565980940944
  0.6203518197921607  0.1486589185557999  0.2714455261691484
  0.3798512725176563  0.8521006969904197  0.7285979689775397
  0.3839284529156301  0.5570188838363441  0.3155758102549666
  0.6160748051318786  0.4427167627197782  0.6843904800642018
  0.8624996361805631  0.5270050591763712  0.2857077563658922
  0.1375279152088512  0.4732192991487304  0.7137851285367610
  0.6462642922099754  0.7753947272368604  0.1408528990074764
  0.3539115984944997  0.2249137049323821  0.8594263355607906
  0.1070811259484208  0.7219059754531876  0.1170022712975756
  0.8929232079440284  0.2777895243634612  0.8827444755131274
  0.6228679307615466  0.5474122670618616  0.4028230337092185
  0.3770423658372914  0.4526367973855790  0.5971240004907092
  0.0254322676437226  0.4565406757343041  0.1784716914129135
  0.9745013908941661  0.5432409507548073  0.8215486545315047
  0.2242944520102569  0.8823089787800570  0.5979188556081422
  0.7757707946749993  0.1177970117130149  0.4023635678129524
  0.7794175187463286  0.5196104144361341  0.5349677372295437
  0.2205383505592235  0.4802632880259126  0.4646530413861344
  0.0384741189391621  0.9626150091558208  0.2813894570218188
  0.9618660591583097  0.0369689846237425  0.7190073923651032
  0.5268201538013485  0.1935601161269537  0.7578157423722102
  0.4731308736488944  0.8063175226229248  0.2422616742982135
  0.7265206923667570  0.5981326276255982  0.1829036314475340
  0.2733610323887253  0.4020689952611659  0.8172890623782835
  0.2532182267981420  0.1923527432854140  0.0940986208345523
  0.7464618513758483  0.8072754276756108  0.9056668841398201
  0.5333709910117607  0.7425914622032539  0.6066642135246763
  0.4664649725202084  0.2572930358277602  0.3931060248512898
  0.7165053560832003  0.1844515469592962  0.0260804690204872
  0.2835772753544204  0.8153253145481023  0.9732768136683634
 
  0.00000000E+00  0.00000000E+00  0.00000000E+00
  0.00000000E+00  0.00000000E+00  0.00000000E+00
  0.00000000E+00  0.00000000E+00  0.00000000E+00
  0.00000000E+00  0.00000000E+00  0.00000000E+00
  0.00000000E+00  0.00000000E+00  0.00000000E+00
  0.00000000E+00  0.00000000E+00  0.00000000E+00
  0.00000000E+00  0.00000000E+00  0.00000000E+00
  0.00000000E+00  0.00000000E+00  0.00000000E+00
  0.00000000E+00  0.00000000E+00  0.00000000E+00
  0.00000000E+00  0.00000000E+00  0.00000000E+00
  0.00000000E+00  0.00000000E+00  0.00000000E+00
  0.00000000E+00  0.00000000E+00  0.00000000E+00
  0.00000000E+00  0.00000000E+00  0.00000000E+00
  0.00000000E+00  0.00000000E+00  0.00000000E+00
  0.00000000E+00  0.00000000E+00  0.00000000E+00
  0.00000000E+00  0.00000000E+00  0.00000000E+00
  0.00000000E+00  0.00000000E+00  0.00000000E+00
  0.00000000E+00  0.00000000E+00  0.00000000E+00
  0.00000000E+00  0.00000000E+00  0.00000000E+00
  0.00000000E+00  0.00000000E+00  0.00000000E+00
  0.00000000E+00  0.00000000E+00  0.00000000E+00
  0.00000000E+00  0.00000000E+00  0.00000000E+00
  0.00000000E+00  0.00000000E+00  0.00000000E+00
  0.00000000E+00  0.00000000E+00  0.00000000E+00
  0.00000000E+00  0.00000000E+00  0.00000000E+00
  0.00000000E+00  0.00000000E+00  0.00000000E+00
  0.00000000E+00  0.00000000E+00  0.00000000E+00
  0.00000000E+00  0.00000000E+00  0.00000000E+00
  0.00000000E+00  0.00000000E+00  0.00000000E+00
  0.00000000E+00  0.00000000E+00  0.00000000E+00
  0.00000000E+00  0.00000000E+00  0.00000000E+00
  0.00000000E+00  0.00000000E+00  0.00000000E+00
  0.00000000E+00  0.00000000E+00  0.00000000E+00
  0.00000000E+00  0.00000000E+00  0.00000000E+00
  0.00000000E+00  0.00000000E+00  0.00000000E+00
  0.00000000E+00  0.00000000E+00  0.00000000E+00
  0.00000000E+00  0.00000000E+00  0.00000000E+00
  0.00000000E+00  0.00000000E+00  0.00000000E+00
  0.00000000E+00  0.00000000E+00  0.00000000E+00
  0.00000000E+00  0.00000000E+00  0.00000000E+00
  0.00000000E+00  0.00000000E+00  0.00000000E+00
  0.00000000E+00  0.00000000E+00  0.00000000E+00
  0.00000000E+00  0.00000000E+00  0.00000000E+00
  0.00000000E+00  0.00000000E+00  0.00000000E+00
  0.00000000E+00  0.00000000E+00  0.00000000E+00
  0.00000000E+00  0.00000000E+00  0.00000000E+00
