Fe4 O4 F8                               
   1.00000000000000     
     5.5881806087351338    0.0241786744733646    0.1233313556563964
    -2.7723009490218535    4.7894090194658956   -0.0085645488137428
     0.2167770388720230    0.0613433010496419    9.5797980310420670
   Fe   O    F 
     4     4     8
Direct
  0.3372299928467987  0.6861023276374014  0.5996610564889586
  0.6633094839641183  0.3144519590735632  0.4000700899516904
  0.6636496745231319  0.3269124205900829  0.1135243048778777
  0.3386283154340465  0.6750372018798914  0.8862815882157736
  0.5002001731947917  0.5006172840373356  0.0002866326850905
  0.4999345617167133  0.0002434423080891  0.5008643367544590
  0.8126925197665900  0.1666456402966050  0.2561103183136235
  0.1840892919337282  0.8279171028059006  0.7432329511917879
  0.5007151926964998  0.0007011141132720  0.0001286264487613
  0.0012310058562870  0.5008399192085154  0.0000066433875911
 -0.0004331741714107  0.5004546838830438  0.4999666963016652
  0.4991154986160576  0.5000584672149296  0.4997353956011468
  0.8241775978179333  0.6151834103976340  0.2547654248239387
  0.1743963475162652  0.3866782697333118  0.7449381148828988
  0.3702298717862920  0.1822149919430977  0.2580782461660877
  0.6308336465021638  0.8159417648773271  0.7423495739086564
 
  0.00000000E+00  0.00000000E+00  0.00000000E+00
  0.00000000E+00  0.00000000E+00  0.00000000E+00
  0.00000000E+00  0.00000000E+00  0.00000000E+00
  0.00000000E+00  0.00000000E+00  0.00000000E+00
  0.00000000E+00  0.00000000E+00  0.00000000E+00
  0.00000000E+00  0.00000000E+00  0.00000000E+00
  0.00000000E+00  0.00000000E+00  0.00000000E+00
  0.00000000E+00  0.00000000E+00  0.00000000E+00
  0.00000000E+00  0.00000000E+00  0.00000000E+00
  0.00000000E+00  0.00000000E+00  0.00000000E+00
  0.00000000E+00  0.00000000E+00  0.00000000E+00
  0.00000000E+00  0.00000000E+00  0.00000000E+00
  0.00000000E+00  0.00000000E+00  0.00000000E+00
  0.00000000E+00  0.00000000E+00  0.00000000E+00
  0.00000000E+00  0.00000000E+00  0.00000000E+00
  0.00000000E+00  0.00000000E+00  0.00000000E+00
