Fe2 O2 F4                               
   1.00000000000000     
     3.7796767603573733    0.0000073124347716    0.1281707565305152
    -0.0000471953616342    3.8527906176009696   -0.0005636387800735
     0.2111921100175832    0.0008699440998033    7.4280203263994569
   Fe   O    F 
     2     2     4
Direct
  0.4642499467759001  0.5000030700191658  0.2606275116500916
  0.5154936220214060  0.4999676850198405  0.7429440393106796
  0.5582426240713149  0.5000099717367277  0.4935031900610575
  0.9757906912826171  0.5000222676599213  0.2788597278247903
  0.4877225212568256  0.5000242376197734  0.0078110490740601
  0.4728857608504980  0.0000080784576482  0.2431262843040875
  0.5117836683877108 -0.0000133258845933  0.7575897134851287
  0.0138311653537205  0.4999780153715164  0.7585384842900967
 
  0.00000000E+00  0.00000000E+00  0.00000000E+00
  0.00000000E+00  0.00000000E+00  0.00000000E+00
  0.00000000E+00  0.00000000E+00  0.00000000E+00
  0.00000000E+00  0.00000000E+00  0.00000000E+00
  0.00000000E+00  0.00000000E+00  0.00000000E+00
  0.00000000E+00  0.00000000E+00  0.00000000E+00
  0.00000000E+00  0.00000000E+00  0.00000000E+00
  0.00000000E+00  0.00000000E+00  0.00000000E+00
