Na8 V8 O16 F8                           
   1.00000000000000     
     7.5096278922752253    0.0005405702221337   -0.0099474568318827
     0.0003451040564627    7.6288688941078320   -0.0002792250651058
     0.0043097492128809   -0.0004664206616776    7.5105582131105031
   Na   V    O    F 
     8     8    16     8
Direct
  0.2480907865828290  0.2560179440924263  0.2437578180351922
  0.2523180906439618  0.2516229480996282  0.7543787231162711
  0.2480307042986606  0.7438745602164692  0.2436991640038592
  0.2533911322858967  0.7504007006152362  0.7534628914070114
  0.7482300411191622  0.2494643308320540  0.2484627053123935
  0.7429475153962334  0.2443003078777612  0.7489295348396500
  0.7482492732899654  0.7503281400955714  0.2484703926305921
  0.7424040443861564  0.7557755088789656  0.7493182071948739
  0.9998065032683943  0.0000691371494674  0.0006816987933008
  0.0197572049441888 -0.0000498610469836  0.4925834277912662
  0.9936552675161755  0.5002220008105314  0.9908994823764331
  0.9924047873527160  0.4999369151322679  0.5191796816382120
  0.4998684144728634  0.0002566636406264  0.9993571979394574
  0.4917154354770690  0.9981931992452180  0.4942730917687360
  0.4992407872301869  0.5002670131486988  0.9998867203518512
  0.5006839760734981  0.4968044525958028  0.4995139726179952
  0.2363339617577223  0.0001719631408777  0.0483011909365138
  0.2467547367217546 -0.0001243177438754  0.4491689221335649
  0.2638341768090321  0.5005892382937123  0.9581191840977241
  0.7636480815146894  0.0004776034842888  0.9542908467565436
  0.7376460829003307  0.5001220099595159  0.0424196128457826
  0.0006233034984603  0.2626814073923126  0.0041523859455464
  0.9961955882200557  0.2500877313395949  0.4956227464693474
  0.0002848590354982  0.7379873881784592  0.0042255594259558
  0.9961700875552620  0.7501425712552763  0.4957842115690845
  0.5049365138786074  0.2373162619302480  0.5001499577710485
  0.5048133502591745  0.7620483295031101  0.5003656472643178
  0.9486934423830405  0.5002118414365095  0.7461882086035642
  0.5425741498498300 -0.0000822710927532  0.2375192943523189
  0.4584521899367671  0.0001968231230516  0.7637126608794319
  0.4539024372708978  0.5001340711577547  0.2633706581968699
  0.5481076456976659  0.4999626286516502  0.7360991841648583
  0.2481777885636334  0.4997139607934357  0.5651131371755513
  0.7588235264579251 -0.0000403036187784  0.5621743514788400
  0.7524871363926181  0.4998220102544952  0.4274493478327134
  0.5004341886386613  0.2503135206046064  0.0001024841386689
  0.5011495252347887  0.7502397376008844  0.9996592923763609
  0.9280926712774381  0.0000759741548460  0.2527448901871127
  0.0657192922607501  0.0002117738944159  0.7483390417641212
  0.0613512995474173  0.5002560849226136  0.2580724738170704
 
  0.00000000E+00  0.00000000E+00  0.00000000E+00
  0.00000000E+00  0.00000000E+00  0.00000000E+00
  0.00000000E+00  0.00000000E+00  0.00000000E+00
  0.00000000E+00  0.00000000E+00  0.00000000E+00
  0.00000000E+00  0.00000000E+00  0.00000000E+00
  0.00000000E+00  0.00000000E+00  0.00000000E+00
  0.00000000E+00  0.00000000E+00  0.00000000E+00
  0.00000000E+00  0.00000000E+00  0.00000000E+00
  0.00000000E+00  0.00000000E+00  0.00000000E+00
  0.00000000E+00  0.00000000E+00  0.00000000E+00
  0.00000000E+00  0.00000000E+00  0.00000000E+00
  0.00000000E+00  0.00000000E+00  0.00000000E+00
  0.00000000E+00  0.00000000E+00  0.00000000E+00
  0.00000000E+00  0.00000000E+00  0.00000000E+00
  0.00000000E+00  0.00000000E+00  0.00000000E+00
  0.00000000E+00  0.00000000E+00  0.00000000E+00
  0.00000000E+00  0.00000000E+00  0.00000000E+00
  0.00000000E+00  0.00000000E+00  0.00000000E+00
  0.00000000E+00  0.00000000E+00  0.00000000E+00
  0.00000000E+00  0.00000000E+00  0.00000000E+00
  0.00000000E+00  0.00000000E+00  0.00000000E+00
  0.00000000E+00  0.00000000E+00  0.00000000E+00
  0.00000000E+00  0.00000000E+00  0.00000000E+00
  0.00000000E+00  0.00000000E+00  0.00000000E+00
  0.00000000E+00  0.00000000E+00  0.00000000E+00
  0.00000000E+00  0.00000000E+00  0.00000000E+00
  0.00000000E+00  0.00000000E+00  0.00000000E+00
  0.00000000E+00  0.00000000E+00  0.00000000E+00
  0.00000000E+00  0.00000000E+00  0.00000000E+00
  0.00000000E+00  0.00000000E+00  0.00000000E+00
  0.00000000E+00  0.00000000E+00  0.00000000E+00
  0.00000000E+00  0.00000000E+00  0.00000000E+00
  0.00000000E+00  0.00000000E+00  0.00000000E+00
  0.00000000E+00  0.00000000E+00  0.00000000E+00
  0.00000000E+00  0.00000000E+00  0.00000000E+00
  0.00000000E+00  0.00000000E+00  0.00000000E+00
  0.00000000E+00  0.00000000E+00  0.00000000E+00
  0.00000000E+00  0.00000000E+00  0.00000000E+00
  0.00000000E+00  0.00000000E+00  0.00000000E+00
  0.00000000E+00  0.00000000E+00  0.00000000E+00
