Ti4 O4 F8                               
   1.00000000000000     
     5.6078116909860656    0.0058996290771171    0.0690802474506954
    -2.7987964842039581    4.8594448195433593    0.0691174576928083
     0.1210593357949319    0.2097539038927354    9.4828954168208721
   Ti   O    F 
     4     4     8
Direct
  0.3198987153901184  0.6593586559558239  0.6082536507164952
  0.7161850194832816  0.3716486237201645  0.3932369806078340
  0.6593592855786143  0.3199012641156702  0.1082577700195958
  0.3716483916635756  0.7161819862016688  0.8932398107139407
  0.5089571339619370  0.0086706010589347  0.0031002769357891
  0.0086701707838795  0.5089578679964206  0.5031044269510260
  0.8129782047971263  0.6039122733345169  0.2423427544566022
  0.6039101656679053  0.8129788642763693  0.7423428165659618
  0.0009382697279135  0.4981850384607197  0.9963085412234025
  0.4933568375832049  0.4953894708416133  0.0006611508458910
  0.4981904815604961  0.0009438778450370  0.4963124029510553
  0.4953851854514323  0.4933516929975393  0.5006609621830903
  0.1699860948506459  0.3722183586731755  0.7541802217254108
  0.3722215885059951  0.1699851482008086  0.2541809501529456
  0.8051741557989986  0.1631411814359677  0.2519099210521009
  0.1631402991948756  0.8051750948855625  0.7519073628988662
 
  0.00000000E+00  0.00000000E+00  0.00000000E+00
  0.00000000E+00  0.00000000E+00  0.00000000E+00
  0.00000000E+00  0.00000000E+00  0.00000000E+00
  0.00000000E+00  0.00000000E+00  0.00000000E+00
  0.00000000E+00  0.00000000E+00  0.00000000E+00
  0.00000000E+00  0.00000000E+00  0.00000000E+00
  0.00000000E+00  0.00000000E+00  0.00000000E+00
  0.00000000E+00  0.00000000E+00  0.00000000E+00
  0.00000000E+00  0.00000000E+00  0.00000000E+00
  0.00000000E+00  0.00000000E+00  0.00000000E+00
  0.00000000E+00  0.00000000E+00  0.00000000E+00
  0.00000000E+00  0.00000000E+00  0.00000000E+00
  0.00000000E+00  0.00000000E+00  0.00000000E+00
  0.00000000E+00  0.00000000E+00  0.00000000E+00
  0.00000000E+00  0.00000000E+00  0.00000000E+00
  0.00000000E+00  0.00000000E+00  0.00000000E+00
