Na2 Mn2 O4 F2                           
   1.00000000000000     
     3.7126107448010885   -0.0000004859977247    0.0011671559113039
    -0.0000004601851116    3.7136093637747565   -0.0000000275810792
     0.0024213761167899   -0.0000000652223569    8.0998404967154158
   Na   Mn   O    F 
     2     2     4     2
Direct
 -0.0003181235777398  0.0000000028936155  0.0056357818090097
 -0.0037297751493193  0.0000000109017838  0.5000424302155162
  0.4999625504767900  0.5000000027985576  0.2541270629191609
  0.4998940424251487  0.4999999961797584  0.7558672354621151
  0.5001595577476120  0.0000000029246829  0.2534889702463650
  0.5023759609975240 -0.0000000034825387  0.7550649778843981
 -0.0000433283425685  0.4999999995604350  0.2534893878138488
  0.0011167745960481  0.4999999992767487  0.7550577747839486
  0.5001907452298439  0.4999999918783800 -0.0128908513771876
  0.5003915955966608  0.4999999970685844  0.5231172302428100
 
  0.00000000E+00  0.00000000E+00  0.00000000E+00
  0.00000000E+00  0.00000000E+00  0.00000000E+00
  0.00000000E+00  0.00000000E+00  0.00000000E+00
  0.00000000E+00  0.00000000E+00  0.00000000E+00
  0.00000000E+00  0.00000000E+00  0.00000000E+00
  0.00000000E+00  0.00000000E+00  0.00000000E+00
  0.00000000E+00  0.00000000E+00  0.00000000E+00
  0.00000000E+00  0.00000000E+00  0.00000000E+00
  0.00000000E+00  0.00000000E+00  0.00000000E+00
  0.00000000E+00  0.00000000E+00  0.00000000E+00
