Na2 Mn2 O4 F2                           
   1.00000000000000     
     3.7564957502284786    0.0000000093416544    0.0001329884432480
     0.0000000082485327    3.7560939263667943    0.0000000052325475
     0.0003040275543802    0.0000000061496874    7.3650091491795093
   Na   Mn   O    F 
     2     2     4     2
Direct
 -0.0000770516366024  0.0000000001201672  0.0018512626079106
  0.9998459886376990  0.9999999946421564  0.5018666810860745
  0.4996401651375967  0.5000000006471721  0.2582819513478425
  0.4998047207900930  0.5000000038695572  0.7582799659367344
  0.5002303812873854  0.4999999966420388  0.0049645138430985
  0.5002262604386621  0.5000000011071812  0.5049410546763119
  0.4999348992860235 -0.0000000000459183  0.2524504301792572
  0.0004210573880019  0.4999999949590295  0.7524559696910315
  0.5001011736144492  0.0000000027459003  0.7539418410154546
 -0.0001275949433013  0.5000000053127230  0.2539663296162840
 
  0.00000000E+00  0.00000000E+00  0.00000000E+00
  0.00000000E+00  0.00000000E+00  0.00000000E+00
  0.00000000E+00  0.00000000E+00  0.00000000E+00
  0.00000000E+00  0.00000000E+00  0.00000000E+00
  0.00000000E+00  0.00000000E+00  0.00000000E+00
  0.00000000E+00  0.00000000E+00  0.00000000E+00
  0.00000000E+00  0.00000000E+00  0.00000000E+00
  0.00000000E+00  0.00000000E+00  0.00000000E+00
  0.00000000E+00  0.00000000E+00  0.00000000E+00
  0.00000000E+00  0.00000000E+00  0.00000000E+00
