Ti4 O4 F8                               
   1.00000000000000     
     5.2758297065553625    0.0660792951877342   -0.0034607476533116
     0.0650725977921504    5.4124468654643367    0.0046693687522920
    -0.0042207327878351    0.0066683294938130    7.4437557745964975
   Ti   O    F 
     4     4     8
Direct
  0.4772104924846511  0.0073073406263968  0.0108204532340581
  0.0019703119770442  0.4824156076961986  0.9836713534846493
  0.5151038892227403  0.9910584453335667  0.4847130158635579
  0.9894634550618613  0.5197234792144874  0.5099160310480407
  0.2131546567399767  0.2145942654972106  0.9576754998579090
  0.7946100274537931  0.7908447535141454  0.4583081835136566
  0.9160948436276288  0.5125794382789187  0.7491703379456033
  0.4174188481593829  0.9891449965278064  0.2513607233719632
  0.7113892661307679  0.2811881357874926  0.0445955277712858
  0.2859971635110614  0.7102767545630754  0.9605136882634300
  0.7823617541946347  0.7792391911352862  0.0412484000623653
  0.2943689173989035  0.7154478497058844  0.5454285883711676
  0.7170763274048412  0.2884272996240625  0.4587158615897618
  0.2257789425496724  0.2251409781945835  0.5415967261809399
  0.0784675434446650  0.4861885114729397  0.2503318849865048
  0.5795335606383829  0.0064229528279379  0.7519337244550998
 
  0.00000000E+00  0.00000000E+00  0.00000000E+00
  0.00000000E+00  0.00000000E+00  0.00000000E+00
  0.00000000E+00  0.00000000E+00  0.00000000E+00
  0.00000000E+00  0.00000000E+00  0.00000000E+00
  0.00000000E+00  0.00000000E+00  0.00000000E+00
  0.00000000E+00  0.00000000E+00  0.00000000E+00
  0.00000000E+00  0.00000000E+00  0.00000000E+00
  0.00000000E+00  0.00000000E+00  0.00000000E+00
  0.00000000E+00  0.00000000E+00  0.00000000E+00
  0.00000000E+00  0.00000000E+00  0.00000000E+00
  0.00000000E+00  0.00000000E+00  0.00000000E+00
  0.00000000E+00  0.00000000E+00  0.00000000E+00
  0.00000000E+00  0.00000000E+00  0.00000000E+00
  0.00000000E+00  0.00000000E+00  0.00000000E+00
  0.00000000E+00  0.00000000E+00  0.00000000E+00
  0.00000000E+00  0.00000000E+00  0.00000000E+00
