Na2 Mn2 O4 F2                           
   1.00000000000000     
    -2.6810260209623356   -4.4701612712414329    0.0113774422369288
    -5.3563397521335698    0.0067084815088314   -0.0029635123181070
    -2.6759334636121728   -1.4695960029110371   -4.2241903841179438
   Na   Mn   O    F 
     2     2     4     2
Direct
  0.2493910735959162  0.2728772180826695  0.2359396756911138
  0.7486513296212891  0.7427778726280678  0.7371844449989169
  0.0068614814238330  0.9747302725837841  0.9851160979283122
  0.5070716975969773  0.5327656610732490  0.4852409672024436
  0.2657041341877928  0.6938827130611926  0.2277166647985567
  0.6704687143548398  0.8419657745485978  0.2624157709959363
  0.1712815041885207  0.7240283090342245  0.7630314328223875
  0.7672738654391154  0.3123106106578177  0.7262405558463811
  0.3300241742422543  0.1793734177020170  0.7201967296277871
  0.8292720253494679  0.2712881506283722  0.2189176600881524
 
  0.00000000E+00  0.00000000E+00  0.00000000E+00
  0.00000000E+00  0.00000000E+00  0.00000000E+00
  0.00000000E+00  0.00000000E+00  0.00000000E+00
  0.00000000E+00  0.00000000E+00  0.00000000E+00
  0.00000000E+00  0.00000000E+00  0.00000000E+00
  0.00000000E+00  0.00000000E+00  0.00000000E+00
  0.00000000E+00  0.00000000E+00  0.00000000E+00
  0.00000000E+00  0.00000000E+00  0.00000000E+00
  0.00000000E+00  0.00000000E+00  0.00000000E+00
  0.00000000E+00  0.00000000E+00  0.00000000E+00
