Na4 V4 O8 F4                            
   1.00000000000000     
     5.3587891792583093    0.1534514844490512    0.0333941070335370
     0.1642552630662716    5.4245667583367689   -0.0050149494945914
     0.0269633212513459   -0.0247097553007407    7.4073012438192087
   Na   V    O    F 
     4     4     8     4
Direct
  0.9997730253444308  0.0234123048184442  0.2499853423593744
  0.0010389491063632  0.9761080330802556  0.7501119237108169
  0.4999723482858111  0.4569473218877685  0.7495277237030896
  0.4998642346975585  0.5430404415956229  0.2502505872098941
  0.5004796960311544  0.0000811407360361 -0.0000456528656316
  0.0000971888329352  0.4999097192476278 -0.0000551915134616
  0.5000116622005826 -0.0000295850822249  0.4999211581901099
 -0.0001202358136900  0.4996294373934145  0.4999503642575527
  0.0604930843981666  0.4955598623650520  0.2616772040036379
  0.9392909339899863  0.5047243561645207  0.7383747725617560
  0.5590452346446364  0.0200676921817961  0.7618742338395977
  0.4409683605029998  0.9801641574910858  0.2381072174935439
  0.1994386714125117  0.2243762379706127  0.9732712117806022
  0.8004556325953274  0.7758403156997229  0.0268524172457154
  0.7769051312280334  0.8002826629612458  0.4731630887344782
  0.2226957906374282  0.1995857435257339  0.5270578064303030
  0.7014495854808971  0.2969203779101305  0.0432687854054624
  0.2985224155474210  0.7033442190686090  0.9566890013154615
  0.2995469080130913  0.7015413947275263  0.5419534557021002
  0.7000713828643553  0.2984941662570263  0.4580645504356050
 
  0.00000000E+00  0.00000000E+00  0.00000000E+00
  0.00000000E+00  0.00000000E+00  0.00000000E+00
  0.00000000E+00  0.00000000E+00  0.00000000E+00
  0.00000000E+00  0.00000000E+00  0.00000000E+00
  0.00000000E+00  0.00000000E+00  0.00000000E+00
  0.00000000E+00  0.00000000E+00  0.00000000E+00
  0.00000000E+00  0.00000000E+00  0.00000000E+00
  0.00000000E+00  0.00000000E+00  0.00000000E+00
  0.00000000E+00  0.00000000E+00  0.00000000E+00
  0.00000000E+00  0.00000000E+00  0.00000000E+00
  0.00000000E+00  0.00000000E+00  0.00000000E+00
  0.00000000E+00  0.00000000E+00  0.00000000E+00
  0.00000000E+00  0.00000000E+00  0.00000000E+00
  0.00000000E+00  0.00000000E+00  0.00000000E+00
  0.00000000E+00  0.00000000E+00  0.00000000E+00
  0.00000000E+00  0.00000000E+00  0.00000000E+00
  0.00000000E+00  0.00000000E+00  0.00000000E+00
  0.00000000E+00  0.00000000E+00  0.00000000E+00
  0.00000000E+00  0.00000000E+00  0.00000000E+00
  0.00000000E+00  0.00000000E+00  0.00000000E+00
