Na4 Mn4 O8 F4                           
   1.00000000000000     
     5.3178598497288458   -0.0133630893537652    0.0000003846217407
    -2.6702971818112817    4.6252087959192885    0.0000001720419229
     0.0000010323796477    0.0000003054359490    8.9133190494731114
   Na   Mn   O    F 
     4     4     8     4
Direct
  0.9994036716380634  0.0023336143353418  0.0019703712670420
  0.9994032296057327  0.0023331071514292  0.4980293865264187
  0.3347344704327782  0.6525307633428952  0.2500000757270655
  0.6652254519584417  0.3178566959136688  0.7500000088333891
  0.3233681012163174  0.6493183039708228  0.6001674650845175
  0.6769491630100788  0.3263741142153336  0.4000549203166770
  0.6769505218950798  0.3263752602473033  0.0999447274313212
  0.3233697199014429  0.6493190313248292  0.8998323778055166
  0.5840040917202600  0.0168525388863472  0.9871582013739939
  0.9997901937467546  0.5850228711533774  0.9996036862140798
  0.4156645397874996  0.4327931232149709  0.0132076938085461
  0.5840032391893715  0.0168518380658682  0.5128416505661662
  0.9997885620741300  0.5850216645787043  0.5003965655845946
  0.4156636965309630  0.4327925986127568  0.4867924067234455
  0.1363371997477358  0.3783375303775784  0.7500002211319199
  0.8643219924783381  0.2429415491391680  0.2499999744425949
  0.7543063563570058  0.6383254502623004  0.2500001660131943
  0.3561709314961661  0.1086451554677268  0.2499999582137704
  0.6441032423649276  0.7522372445321466  0.7499999943287037
  0.2464416248488988  0.8837375452074383  0.7500001486070360
 
  0.00000000E+00  0.00000000E+00  0.00000000E+00
  0.00000000E+00  0.00000000E+00  0.00000000E+00
  0.00000000E+00  0.00000000E+00  0.00000000E+00
  0.00000000E+00  0.00000000E+00  0.00000000E+00
  0.00000000E+00  0.00000000E+00  0.00000000E+00
  0.00000000E+00  0.00000000E+00  0.00000000E+00
  0.00000000E+00  0.00000000E+00  0.00000000E+00
  0.00000000E+00  0.00000000E+00  0.00000000E+00
  0.00000000E+00  0.00000000E+00  0.00000000E+00
  0.00000000E+00  0.00000000E+00  0.00000000E+00
  0.00000000E+00  0.00000000E+00  0.00000000E+00
  0.00000000E+00  0.00000000E+00  0.00000000E+00
  0.00000000E+00  0.00000000E+00  0.00000000E+00
  0.00000000E+00  0.00000000E+00  0.00000000E+00
  0.00000000E+00  0.00000000E+00  0.00000000E+00
  0.00000000E+00  0.00000000E+00  0.00000000E+00
  0.00000000E+00  0.00000000E+00  0.00000000E+00
  0.00000000E+00  0.00000000E+00  0.00000000E+00
  0.00000000E+00  0.00000000E+00  0.00000000E+00
  0.00000000E+00  0.00000000E+00  0.00000000E+00
