Disodium dimanganate(II)                
   1.00000000000000     
     6.3757380150877712    0.0002364734299599    0.0000054915949873
     0.0002372214892282    6.3757533662260055   -0.0000155519548043
     0.0000090772807125    0.0001475821945689    9.4518731836358132
   Mn   Na   O 
     8     8    12
Direct
  0.7553428181248307  0.5374624965471355  0.1152827576623920
  0.2446623461194122  0.4625373865136524  0.6152878955815311
  0.9626014700237988  0.2553877027013485  0.8652604597905409
  0.0373943523328535  0.7446112742393396  0.3652712905879696
  0.7446154668169456  0.0373981628054949  0.6347313169747792
  0.2553868487037434  0.9626034973846060  0.1347379161060474
  0.5374596485562222  0.7553442932157211  0.8847085360649629
  0.4625338569990518  0.2446587374077751  0.3847170482824964
  0.4817558769518087  0.2609602956015280  0.8603605612987195
  0.5182287279598086  0.7390387245489620  0.3603586483018049
  0.2390182754806105  0.9817948317826719  0.6103413266119517
  0.7609891387225005  0.0182245416764886  0.1103441510569638
  0.0182063971160886  0.7609857410158085  0.8896591916860785
  0.9817800107502705  0.2390159307699733  0.3896548076840531
  0.2609649922602202  0.4817555325195855  0.1396397005727366
  0.7390414417690891  0.5182299207462862  0.6396397540766188
  0.9983448273007056  0.2546254504563663  0.6445748334520616
  0.0016665598353711  0.7453818843286726  0.1445829896155502
  0.2453372351620970  0.4983142156912308  0.3945613397250867
  0.7546651498011627  0.5016850938761195  0.8945522409027760
  0.5016905107992358  0.7546608755421929  0.1054380629686875
  0.4983199469665536  0.2453318159752556  0.6054477723847782
  0.2546254877772398  0.9983329687933704  0.3554257245112638
  0.7453805786379561  0.0016624663950893  0.8554171132282349
  0.1960070705886139  0.1960056799165244  0.9999993539225187
  0.8039872407356512  0.8039818401578529  0.5000033367577004
  0.3039667254492926  0.6960346474809640  0.7500008930090090
  0.6960269832588608  0.3039739769100080  0.2500009841826838
 
  0.00000000E+00  0.00000000E+00  0.00000000E+00
  0.00000000E+00  0.00000000E+00  0.00000000E+00
  0.00000000E+00  0.00000000E+00  0.00000000E+00
  0.00000000E+00  0.00000000E+00  0.00000000E+00
  0.00000000E+00  0.00000000E+00  0.00000000E+00
  0.00000000E+00  0.00000000E+00  0.00000000E+00
  0.00000000E+00  0.00000000E+00  0.00000000E+00
  0.00000000E+00  0.00000000E+00  0.00000000E+00
  0.00000000E+00  0.00000000E+00  0.00000000E+00
  0.00000000E+00  0.00000000E+00  0.00000000E+00
  0.00000000E+00  0.00000000E+00  0.00000000E+00
  0.00000000E+00  0.00000000E+00  0.00000000E+00
  0.00000000E+00  0.00000000E+00  0.00000000E+00
  0.00000000E+00  0.00000000E+00  0.00000000E+00
  0.00000000E+00  0.00000000E+00  0.00000000E+00
  0.00000000E+00  0.00000000E+00  0.00000000E+00
  0.00000000E+00  0.00000000E+00  0.00000000E+00
  0.00000000E+00  0.00000000E+00  0.00000000E+00
  0.00000000E+00  0.00000000E+00  0.00000000E+00
  0.00000000E+00  0.00000000E+00  0.00000000E+00
  0.00000000E+00  0.00000000E+00  0.00000000E+00
  0.00000000E+00  0.00000000E+00  0.00000000E+00
  0.00000000E+00  0.00000000E+00  0.00000000E+00
  0.00000000E+00  0.00000000E+00  0.00000000E+00
  0.00000000E+00  0.00000000E+00  0.00000000E+00
  0.00000000E+00  0.00000000E+00  0.00000000E+00
  0.00000000E+00  0.00000000E+00  0.00000000E+00
  0.00000000E+00  0.00000000E+00  0.00000000E+00
