Na4 Cr4 O8 F4                           
   1.00000000000000     
     6.0760545758550393    0.0550967171167071    0.1231248932922347
     0.1163679430227592    6.0756475693468213    0.0815019784180667
     0.0883774954990356    0.1397395370392045    7.3340229553614860
   Na   Cr   O    F 
     8     4     8     4
Direct
  0.8369679849464587  0.1470085568622522  0.8219453040527926
  0.1281922122719518  0.8383878918940605  0.7024250453917269
  0.8385510418214428  0.1296411066078909  0.2024414947179794
  0.1454619601948426  0.8383207562117294  0.3219138897181655
  0.3511960693878220  0.3666150852264841  0.7325830285779938
  0.6540518370174391  0.6688955938151325  0.7656560305726247
  0.3679640016768846  0.3514043324355787  0.2320055234228044
  0.6688552066395239  0.6539537878886592  0.2668697702669405
  0.3751510000141535  0.9723087515213392  0.9965144078909088
  0.0304952259519890  0.5089283247504922  0.9979501933991377
  0.5088953522472427  0.0304738380402185  0.4977575457525339
  0.9727979034260313  0.3749437323696576  0.4964320625889678
  0.3017075425630182  0.6741469514117958  0.9730047374358238
  0.1499066456166780  0.1960231173527981  0.0031882161873919
  0.6746157510846824  0.3015582050416836  0.4736851903130029
  0.1967842291746963  0.1497686498235242  0.5027443378883629
  0.0226334527467326  0.5082172913481361  0.2642869217170779
  0.9919773263762023  0.4937861939755943  0.7301619872006997
  0.5082392876865909  0.0222160514853705  0.7641379380757322
  0.4944419873030986  0.9921338258896636  0.2301939516006150
  0.7124797933487838  0.3956151097933093  0.0207793525825410
  0.8679054860497087  0.8055327818606483  0.9914821493484712
  0.3951543690203846  0.7124293674987658  0.5201343012882887
  0.8055743334336698  0.8676982528952154  0.4917066200094243
 
  0.00000000E+00  0.00000000E+00  0.00000000E+00
  0.00000000E+00  0.00000000E+00  0.00000000E+00
  0.00000000E+00  0.00000000E+00  0.00000000E+00
  0.00000000E+00  0.00000000E+00  0.00000000E+00
  0.00000000E+00  0.00000000E+00  0.00000000E+00
  0.00000000E+00  0.00000000E+00  0.00000000E+00
  0.00000000E+00  0.00000000E+00  0.00000000E+00
  0.00000000E+00  0.00000000E+00  0.00000000E+00
  0.00000000E+00  0.00000000E+00  0.00000000E+00
  0.00000000E+00  0.00000000E+00  0.00000000E+00
  0.00000000E+00  0.00000000E+00  0.00000000E+00
  0.00000000E+00  0.00000000E+00  0.00000000E+00
  0.00000000E+00  0.00000000E+00  0.00000000E+00
  0.00000000E+00  0.00000000E+00  0.00000000E+00
  0.00000000E+00  0.00000000E+00  0.00000000E+00
  0.00000000E+00  0.00000000E+00  0.00000000E+00
  0.00000000E+00  0.00000000E+00  0.00000000E+00
  0.00000000E+00  0.00000000E+00  0.00000000E+00
  0.00000000E+00  0.00000000E+00  0.00000000E+00
  0.00000000E+00  0.00000000E+00  0.00000000E+00
  0.00000000E+00  0.00000000E+00  0.00000000E+00
  0.00000000E+00  0.00000000E+00  0.00000000E+00
  0.00000000E+00  0.00000000E+00  0.00000000E+00
  0.00000000E+00  0.00000000E+00  0.00000000E+00
