Co4 O4 F8                               
   1.00000000000000     
     4.9540697614810236   -0.0215343298577807    0.0021509328481466
    -0.0332104287292077    5.1985724915816141   -0.0070849539048386
     0.0161507132753539   -0.0179275229404887    7.2551605946760080
   Co   O    F 
     4     4     8
Direct
  0.4950795695042022 -0.0004973214120307 -0.0004535414142835
  0.0023823333287759  0.4968848247368596  0.9979770156484173
  0.4897094541293793  0.9985940904294383  0.4967352696022381
  0.9916329052388867  0.5028402739840278  0.5004979827761639
  0.1850632828463803  0.1883349685068190  0.9416616167364484
  0.8266168258281532  0.8261385696560772  0.4511120626674111
  0.1690549336065630  0.1804138338110708  0.5462555740579237
  0.4075446769819917  0.9505099462806170  0.2513425069618865
  0.6779454287008734  0.3128773162416331  0.0598225289236932
  0.3292893279432962  0.6820093749389862  0.9365428823459215
  0.8327322096881401  0.8224221271431044  0.0584885451013786
  0.3183781908879383  0.6797785902591873  0.5626041561270076
  0.6688496331856407  0.3234998118596582  0.4462267712809148
  0.1151999370641405  0.4739008487559951  0.2468578309996921
  0.8753048688741247  0.5319663106863665  0.7554046526782392
  0.6152164221915070  0.0303264341222061  0.7489241455069537
 
  0.00000000E+00  0.00000000E+00  0.00000000E+00
  0.00000000E+00  0.00000000E+00  0.00000000E+00
  0.00000000E+00  0.00000000E+00  0.00000000E+00
  0.00000000E+00  0.00000000E+00  0.00000000E+00
  0.00000000E+00  0.00000000E+00  0.00000000E+00
  0.00000000E+00  0.00000000E+00  0.00000000E+00
  0.00000000E+00  0.00000000E+00  0.00000000E+00
  0.00000000E+00  0.00000000E+00  0.00000000E+00
  0.00000000E+00  0.00000000E+00  0.00000000E+00
  0.00000000E+00  0.00000000E+00  0.00000000E+00
  0.00000000E+00  0.00000000E+00  0.00000000E+00
  0.00000000E+00  0.00000000E+00  0.00000000E+00
  0.00000000E+00  0.00000000E+00  0.00000000E+00
  0.00000000E+00  0.00000000E+00  0.00000000E+00
  0.00000000E+00  0.00000000E+00  0.00000000E+00
  0.00000000E+00  0.00000000E+00  0.00000000E+00
