V8 O8 F16                               
   1.00000000000000     
     7.5305507447507534   -0.0063446248462042   -0.0045836750869560
    -0.0043423210043581    7.6094304698198876   -0.0028867396107785
    -0.0071273382936052   -0.0024212082612829    7.6519846778805265
   V    O    F 
     8     8    16
Direct
  0.0325978625954416  0.0005441904440597  0.9991146902561535
  0.0318898416277097  0.0035843831680287  0.4992056149800723
  0.0176554446443994  0.4996354676575815  0.9987435199624668
  0.9940154105414786  0.5265169649242020  0.4982986493895039
  0.5331233907935454  0.9996289445440026  0.9990515833162967
  0.5325013445951544  0.9983280246989829  0.4989039686254359
  0.4949627691980019  0.4997806936846468  0.0352145626542108
  0.4939156596996854  0.4975267420662421  0.5356375583337004
  0.2493845715524295  0.0005799901669804  0.4982060311076444
  0.4946001911325941  0.4995988857135147  0.2484930727931397
  0.4916674225426201  0.4987089642643078  0.7487702303068281
  0.2499414831900564 -0.0001827540207220  0.9981092288607261
  0.2391048279509234  0.4997604646296709  0.0022501351391420
  0.7500585400495718  0.9990420666446425  0.9985985273051090
  0.7499555378591812  0.9964051089490701  0.4979160113812999
  0.0004520314060142  0.7449368673153676  0.4989301556388935
  0.9947450195289940  0.0039139410133755  0.2485553899877983
  0.4946108283164733  0.9988238799876693  0.7482246245694555
  0.2439728297096020  0.4904437861444553  0.4916685166934723
  0.7501654084121153  0.5009694180155023  0.9960167138629258
  0.7434172033378369  0.4961247983975555  0.4946140011138412
  0.9903994175657543  0.7508429543309585  0.9973768077953811
  0.4973034090763326  0.2500884510509408  0.9948235288595101
  0.9945289671495695  0.0036957421790399  0.7488346703459259
  0.9861262831463317  0.4961821041797782  0.2480912319706502
  0.9901520630109862  0.4959251131364551  0.7483857067743348
  0.4937690737967940  0.9979386530970731  0.2484731157914303
  0.9891990396093564  0.2489576391317877  0.9974746983742349
  0.9942125186777829  0.2566471719151499  0.4983363183308179
  0.4951117949176997  0.2482006600205855  0.4942827838730882
  0.4958766529982744  0.7492445214160353  0.9942977005114727
  0.4905831613672966  0.7476061611330531  0.4951006510950450
 
  0.00000000E+00  0.00000000E+00  0.00000000E+00
  0.00000000E+00  0.00000000E+00  0.00000000E+00
  0.00000000E+00  0.00000000E+00  0.00000000E+00
  0.00000000E+00  0.00000000E+00  0.00000000E+00
  0.00000000E+00  0.00000000E+00  0.00000000E+00
  0.00000000E+00  0.00000000E+00  0.00000000E+00
  0.00000000E+00  0.00000000E+00  0.00000000E+00
  0.00000000E+00  0.00000000E+00  0.00000000E+00
  0.00000000E+00  0.00000000E+00  0.00000000E+00
  0.00000000E+00  0.00000000E+00  0.00000000E+00
  0.00000000E+00  0.00000000E+00  0.00000000E+00
  0.00000000E+00  0.00000000E+00  0.00000000E+00
  0.00000000E+00  0.00000000E+00  0.00000000E+00
  0.00000000E+00  0.00000000E+00  0.00000000E+00
  0.00000000E+00  0.00000000E+00  0.00000000E+00
  0.00000000E+00  0.00000000E+00  0.00000000E+00
  0.00000000E+00  0.00000000E+00  0.00000000E+00
  0.00000000E+00  0.00000000E+00  0.00000000E+00
  0.00000000E+00  0.00000000E+00  0.00000000E+00
  0.00000000E+00  0.00000000E+00  0.00000000E+00
  0.00000000E+00  0.00000000E+00  0.00000000E+00
  0.00000000E+00  0.00000000E+00  0.00000000E+00
  0.00000000E+00  0.00000000E+00  0.00000000E+00
  0.00000000E+00  0.00000000E+00  0.00000000E+00
  0.00000000E+00  0.00000000E+00  0.00000000E+00
  0.00000000E+00  0.00000000E+00  0.00000000E+00
  0.00000000E+00  0.00000000E+00  0.00000000E+00
  0.00000000E+00  0.00000000E+00  0.00000000E+00
  0.00000000E+00  0.00000000E+00  0.00000000E+00
  0.00000000E+00  0.00000000E+00  0.00000000E+00
  0.00000000E+00  0.00000000E+00  0.00000000E+00
  0.00000000E+00  0.00000000E+00  0.00000000E+00
