Na2 Co2 O4 F2                           
   1.00000000000000     
    -2.7496888294222104   -4.5235337655219254    0.1268138852919393
    -5.4176422137075475   -0.0048089023025751    0.0062888228705373
    -2.7565866147916629   -1.3964380242473000   -4.3093671635795481
   Na   Co   O    F 
     2     2     4     2
Direct
  0.2370554516539641  0.2729607901732363  0.2552514930348452
  0.7477131066010688  0.7381561391342982  0.7535296274125876
  0.0049983230950924  0.9912910283709572  0.9820137782221302
  0.4895727660252495  0.5468293051394263  0.4926625378421395
  0.2421086107380865  0.7271596745053919  0.2216013506516270
  0.6798075167632619  0.8122570191350148  0.2704620460876259
  0.1946005211240846  0.7110055931331843  0.7680165927886835
  0.7780948931534525  0.2699612597017164  0.7364842315274870
  0.3452945477696953  0.1887853536866851  0.6852712480939661
  0.8267542630760579  0.2875938370200960  0.1967070943389098
 
  0.00000000E+00  0.00000000E+00  0.00000000E+00
  0.00000000E+00  0.00000000E+00  0.00000000E+00
  0.00000000E+00  0.00000000E+00  0.00000000E+00
  0.00000000E+00  0.00000000E+00  0.00000000E+00
  0.00000000E+00  0.00000000E+00  0.00000000E+00
  0.00000000E+00  0.00000000E+00  0.00000000E+00
  0.00000000E+00  0.00000000E+00  0.00000000E+00
  0.00000000E+00  0.00000000E+00  0.00000000E+00
  0.00000000E+00  0.00000000E+00  0.00000000E+00
  0.00000000E+00  0.00000000E+00  0.00000000E+00
