Mn8 O8 F16                              
   1.00000000000000     
     7.2048409541326706    0.0294343562542967    0.1033519104583804
    -0.0299704710007634    6.9220458496877768    0.2606669398260683
     0.0309875295939443    0.2136359103777679    7.4072372489782543
   Mn   O    F 
     8     8    16
Direct
  0.0005941736657606  0.0014657009752998  0.9980709334768075
  0.0001717360820542  0.9966209927094882  0.5033859069871176
  0.0022113375619614  0.4828036145591483  0.0004127560232324
 -0.0008751384954181  0.4926316582183229  0.5025264648255783
  0.4983038132239382  0.9992413434648371 -0.0000892348381286
  0.5023274352399171  0.0066156480062911  0.4989361241974655
  0.5011317637440950  0.5215387768308819  0.9992481157102494
  0.5028562689531928  0.4986370445450760  0.4985466716262404
  0.2499287234596780  0.9490944145959316  0.0764743819696476
  0.7503421197622605  0.0261981723487245  0.9246081039692379
  0.0521291889491895  0.2406366414247150  0.9240339101254623
  0.9226912106308157  0.2404588769256321  0.5674116483926609
  0.0730058155016386  0.7486267076271091  0.4359954294466022
  0.5836863943590241  0.2480217531059411  0.5376540860461562
  0.5732208132099467  0.7597294784586867  0.0615378504215232
  0.4185541448417179  0.7561447869084136  0.4743744498997442
  0.9413793539102920  0.0551497910159662  0.2303983293640948
  0.4373803892709394  0.9516349894978284  0.7696317782676220
  0.2487709974845931  0.0891384481864989  0.4561675333136208
  0.2581788024912833  0.4327288114814780  0.5776561637684721
  0.7285131129366301  0.4220068211934347  0.0524862756607945
  0.7466644914184959  0.5659786789340356  0.4193984608540623
  0.9491100095371371  0.7378507375982871  0.0675257197678920
  0.4378696699152033  0.2639277654372493  0.9412593775032924
  0.0616672403353067  0.9253796203832523  0.7703559829180213
  0.0539723148285991  0.4233906686263815  0.2476554247191911
  0.9467723028659062  0.5594364179883400  0.7553456665213496
  0.5472205233785364  0.0673929453946743  0.2282413628729893
  0.4277655349617643  0.4619435754675311  0.2333302113413152
  0.5681603333788838  0.5662797123706919  0.7627250065716407
  0.2665374283944942  0.6004017603554064  0.9479483398569184
  0.7497576942021841  0.9088936453644599  0.5367467684191480
 
  0.00000000E+00  0.00000000E+00  0.00000000E+00
  0.00000000E+00  0.00000000E+00  0.00000000E+00
  0.00000000E+00  0.00000000E+00  0.00000000E+00
  0.00000000E+00  0.00000000E+00  0.00000000E+00
  0.00000000E+00  0.00000000E+00  0.00000000E+00
  0.00000000E+00  0.00000000E+00  0.00000000E+00
  0.00000000E+00  0.00000000E+00  0.00000000E+00
  0.00000000E+00  0.00000000E+00  0.00000000E+00
  0.00000000E+00  0.00000000E+00  0.00000000E+00
  0.00000000E+00  0.00000000E+00  0.00000000E+00
  0.00000000E+00  0.00000000E+00  0.00000000E+00
  0.00000000E+00  0.00000000E+00  0.00000000E+00
  0.00000000E+00  0.00000000E+00  0.00000000E+00
  0.00000000E+00  0.00000000E+00  0.00000000E+00
  0.00000000E+00  0.00000000E+00  0.00000000E+00
  0.00000000E+00  0.00000000E+00  0.00000000E+00
  0.00000000E+00  0.00000000E+00  0.00000000E+00
  0.00000000E+00  0.00000000E+00  0.00000000E+00
  0.00000000E+00  0.00000000E+00  0.00000000E+00
  0.00000000E+00  0.00000000E+00  0.00000000E+00
  0.00000000E+00  0.00000000E+00  0.00000000E+00
  0.00000000E+00  0.00000000E+00  0.00000000E+00
  0.00000000E+00  0.00000000E+00  0.00000000E+00
  0.00000000E+00  0.00000000E+00  0.00000000E+00
  0.00000000E+00  0.00000000E+00  0.00000000E+00
  0.00000000E+00  0.00000000E+00  0.00000000E+00
  0.00000000E+00  0.00000000E+00  0.00000000E+00
  0.00000000E+00  0.00000000E+00  0.00000000E+00
  0.00000000E+00  0.00000000E+00  0.00000000E+00
  0.00000000E+00  0.00000000E+00  0.00000000E+00
  0.00000000E+00  0.00000000E+00  0.00000000E+00
  0.00000000E+00  0.00000000E+00  0.00000000E+00
