Na4 Fe4 O8 F4                           
   1.00000000000000     
     5.2187260707510061    0.1549160260521265    0.0000003270611269
     0.1535601344716188    5.2771217698447073   -0.0000002085026859
     0.0000003856751407   -0.0000004766279065    7.6133769981758173
   Na   Fe   O    F 
     4     4     8     4
Direct
  0.9884394744993243  0.0332815124548627  0.2499984327650953
  0.0085611373822305  0.9687216860216371  0.7499990623395693
  0.4927598214959943  0.4587708616097237  0.7499997191283925
  0.5206387039996314  0.5422294537206325  0.2500056655041288
  0.4938043523806943  0.9851636380357828  0.9857613593245174
  0.0208564685392967  0.5111421456796404  0.0114710649155080
  0.4938048294911468  0.9851633646466771  0.5142382660078879
  0.0208570777444303  0.5111426239987139  0.4885287766250394
  0.2870770074487415  0.7108625530217347  0.9662159460425032
  0.2086185108131552  0.2168890709499364  0.9619542453677967
  0.7841471072555373  0.7848347137014305  0.0399373128054771
  0.2870783342713853  0.7108622374955902  0.5337835401434784
  0.7841468599780562  0.7848333817182170  0.4600615935021486
  0.2086217638675772  0.2168905264199883  0.5380448425939451
  0.0766891581803316  0.4833508643141805  0.2499995498528285
  0.5686401855921835  0.0026820170126491  0.7500000288136370
  0.7076269401333450  0.2896147966885453  0.0379569325227140
  0.7076320462652751  0.2896122894009050  0.4620445385773328
  0.9162149557160066  0.5182092653754791  0.7499994085857727
  0.4237852649456563  0.9957429977336949  0.2499997145822273
 
  0.00000000E+00  0.00000000E+00  0.00000000E+00
  0.00000000E+00  0.00000000E+00  0.00000000E+00
  0.00000000E+00  0.00000000E+00  0.00000000E+00
  0.00000000E+00  0.00000000E+00  0.00000000E+00
  0.00000000E+00  0.00000000E+00  0.00000000E+00
  0.00000000E+00  0.00000000E+00  0.00000000E+00
  0.00000000E+00  0.00000000E+00  0.00000000E+00
  0.00000000E+00  0.00000000E+00  0.00000000E+00
  0.00000000E+00  0.00000000E+00  0.00000000E+00
  0.00000000E+00  0.00000000E+00  0.00000000E+00
  0.00000000E+00  0.00000000E+00  0.00000000E+00
  0.00000000E+00  0.00000000E+00  0.00000000E+00
  0.00000000E+00  0.00000000E+00  0.00000000E+00
  0.00000000E+00  0.00000000E+00  0.00000000E+00
  0.00000000E+00  0.00000000E+00  0.00000000E+00
  0.00000000E+00  0.00000000E+00  0.00000000E+00
  0.00000000E+00  0.00000000E+00  0.00000000E+00
  0.00000000E+00  0.00000000E+00  0.00000000E+00
  0.00000000E+00  0.00000000E+00  0.00000000E+00
  0.00000000E+00  0.00000000E+00  0.00000000E+00
