Na1 Ti16 O16 F32                        
   1.00000000000000     
    11.4377680000000002    0.1411330000000000   -0.0000910000000000
     0.1377630000000000   11.5048670000000008    0.0002550000000000
    -0.0000580000000000    0.0001810000000000    8.0123359999999995
   Na   Ti   O    F 
     1    16    16    32
Direct
  0.4950894769708499  0.4709324914064164  0.5123515172492845
  0.2257041916615594  0.0134899960619970  0.0006211094832561
  0.2219526903614714  0.5341735323028939  0.0047615916552941
  0.7450008237059375  0.0237697620288215  0.0052732660934946
  0.7230528507316291  0.5226114418489183  0.0016223395412235
  1.0060666903132676  0.2550008756140145  0.9597950390377697
  0.9887861889239280  0.7561541393878929  0.9642415274055633
  0.5048470528010577  0.2368096031266820  0.9583807510458637
  0.5011163115250048  0.7577477377001672  0.9603024874282696
  0.2442219770134058  0.9847938121887008  0.4600708888401969
  0.2274566232655519  0.5013651112936327  0.4576448517881767
  0.7663250443351426  0.0002479366228875  0.4628840827876828
  0.7650087169321922  0.5100208595818825  0.4569206678525192
  0.0265666613119301  0.2249637346669154  0.5018816741687132
  0.0106599153132066  0.7370716721915508  0.5050113588181689
  0.5110011918733114  0.1881875236895347  0.5223158408681497
  0.5304502074745699  0.7484800348595849  0.5023302262446356
  0.1258246547242903  0.1288375028334977  0.0019576201842469
  0.1116754439710165  0.6395533784478474  0.0024622136980366
  0.6281533401553167  0.1317703365790021  0.0108699093543487
  0.6108886573345281  0.6286592430581714  0.0026085249549295
  0.1331647536141846  0.1142384498814603  0.5016942929713444
  0.1104939703545500  0.6190630944994566  0.5063577034271629
  0.6335034745100274  0.0964265133124211  0.5135098026329206
  0.6224224135867920  0.6257372072967178  0.4990260621890396
  0.5034975104713080  0.2490991215100922  0.7347895611108015
  0.4992373991608378  0.7527430925519187  0.7424404801196307
  0.0039320851349965  0.2472975422143457  0.7430182064800094
  0.9937508511646368  0.7566643376862623  0.7481776827195262
  0.2321928941142600  0.5001776107150415  0.2398689667335022
  0.2472219682713570  0.9922537028811331  0.2442240741170259
  0.7550243330056922  0.5111273448140402  0.2395731964091235
  0.7593706387412098  0.0009294123611636  0.2462797636360345
  0.3817898466756386  0.1227490988375823  0.9906917610559932
  0.3609751398332212  0.6284691922685809  1.0003911576623954
  0.8763655550816833  0.1291905606008118  0.9961504814562321
  0.8670971507449446  0.6436675668647498  1.0014650947852481
  0.1195560904621656  0.3776165669190877  0.9950605496208046
  0.1147900348365288  0.8842980755563988  0.9972037026607092
  0.6325421968516127  0.3833791937065577  0.9887915150408869
  0.6157118470496658  0.8753777002251188  0.9953031382124364
  0.4065355934440760  0.3525173210497952  0.0351953944141801
  0.3769711786825745  0.8641070562981130  0.0038960205186711
  0.8869971314063111  0.3636061723890806  0.0035601962985816
  0.8765061157361826  0.8794894888303078  0.0070990414385368
  0.1166805065706756  0.3684337733021588  0.4951783946175007
  0.1286169362034939  0.8654264624351122  0.4998261904749276
  0.6652230384562194  0.3909497830286909  0.5146954110877424
  0.6437980507238116  0.8657950294030891  0.4960564878641412
  0.3761259316322066  0.0991586001928499  0.4995731014459398
  0.3548490247567658  0.6063370583790012  0.4938100191154599
  0.8824897062837104  0.1213366022812764  0.5004528446352176
  0.8680587278681607  0.6430831654582115  0.5003696658941352
  0.3347495524602130  0.3795177218501605  0.5121479382512254
  0.3695740785034636  0.8731191557666498  0.5035835042337881
  0.8885685764192383  0.4078068497611543  0.4942384330591686
  0.8809724499582583  0.8826147122048811  0.5087604087569333
 -0.0000360843791982  0.2429940368842481  0.2724184701488344
  0.9960598656410719  0.7576634170380748  0.2723886736132117
  0.5116956537152038  0.2733500934960884  0.3316843060579645
  0.4941013088544058  0.7539128276879326  0.2748289199508959
  0.2508423189553648  0.9941645388415471  0.7701298798364932
  0.2437231628319400  0.4972675472888101  0.7810113063873702
  0.7560692877953179  0.9973786798946581  0.7750478410806481
  0.7608304730575322  0.5157485248831770  0.7756961528757542
 
             NaN             NaN             NaN
             NaN             NaN             NaN
             NaN             NaN             NaN
             NaN             NaN             NaN
             NaN             NaN             NaN
             NaN             NaN             NaN
             NaN             NaN             NaN
             NaN             NaN             NaN
             NaN             NaN             NaN
             NaN             NaN             NaN
             NaN             NaN             NaN
             NaN             NaN             NaN
             NaN             NaN             NaN
             NaN             NaN             NaN
             NaN             NaN             NaN
             NaN             NaN             NaN
             NaN             NaN             NaN
             NaN             NaN             NaN
             NaN             NaN             NaN
             NaN             NaN             NaN
             NaN             NaN             NaN
             NaN             NaN             NaN
             NaN             NaN             NaN
             NaN             NaN             NaN
             NaN             NaN             NaN
             NaN             NaN             NaN
             NaN             NaN             NaN
             NaN             NaN             NaN
             NaN             NaN             NaN
             NaN             NaN             NaN
             NaN             NaN             NaN
             NaN             NaN             NaN
             NaN             NaN             NaN
             NaN             NaN             NaN
             NaN             NaN             NaN
             NaN             NaN             NaN
             NaN             NaN             NaN
             NaN             NaN             NaN
             NaN             NaN             NaN
             NaN             NaN             NaN
             NaN             NaN             NaN
             NaN             NaN             NaN
             NaN             NaN             NaN
             NaN             NaN             NaN
             NaN             NaN             NaN
             NaN             NaN             NaN
             NaN             NaN             NaN
             NaN             NaN             NaN
             NaN             NaN             NaN
             NaN             NaN             NaN
             NaN             NaN             NaN
             NaN             NaN             NaN
             NaN             NaN             NaN
             NaN             NaN             NaN
             NaN             NaN             NaN
             NaN             NaN             NaN
             NaN             NaN             NaN
             NaN             NaN             NaN
             NaN             NaN             NaN
             NaN             NaN             NaN
             NaN             NaN             NaN
             NaN             NaN             NaN
             NaN             NaN             NaN
             NaN             NaN             NaN
             NaN             NaN             NaN
