Na1 Ti16 O16 F32
1.0
11.437768 0.141133 -0.000091
0.137763 11.504867 0.000255
-0.000058 0.000181 8.012336
Na Ti O F
1 16 16 32
direct
0.470747 0.473277 0.576769 Na
0.226588 0.021002 0.005255 Ti
0.221000 0.523708 0.007554 Ti
0.737765 0.016071 0.013533 Ti
0.732534 0.522807 0.005625 Ti
-0.002132 0.251356 0.963853 Ti
0.996731 0.756709 0.963259 Ti
0.502402 0.236267 0.965974 Ti
0.501678 0.752633 0.966416 Ti
0.251238 0.996650 0.463539 Ti
0.234407 0.505999 0.463876 Ti
0.754179 0.001507 0.474785 Ti
0.754162 0.502872 0.464758 Ti
0.021707 0.226354 0.505387 Ti
1.013373 0.740873 0.501460 Ti
0.518397 0.223228 0.505096 Ti
0.524533 0.735727 0.505694 Ti
0.121658 0.132339 0.006338 O
0.115680 0.634337 0.004085 O
0.625101 0.123654 0.003990 O
0.618338 0.626303 0.006593 O
0.132456 0.120645 0.505870 O
0.123366 0.626029 0.500500 O
0.634933 0.118922 0.503405 O
0.627532 0.622195 0.507697 O
0.502627 0.243013 0.746712 O
0.501780 0.747722 0.749370 O
0.001505 0.250132 0.747545 O
0.998781 0.754087 0.746986 O
0.244782 0.502388 0.245307 O
0.249231 0.999314 0.246785 O
0.751011 0.504483 0.247871 O
0.754156 0.000420 0.249016 O
0.373237 0.123508 0.998826 F
0.371954 0.623092 -0.001982 F
0.874128 0.129431 -0.002079 F
0.867905 0.633535 0.996652 F
0.120813 0.383113 -0.001985 F
0.115010 0.882809 0.998392 F
0.626375 0.380271 -0.000094 F
0.622036 0.875647 0.998812 F
0.396371 0.362249 0.004622 F
0.382259 0.861387 0.009263 F
0.884480 0.368545 0.006516 F
0.876061 0.872747 1.002171 F
0.130883 0.373880 0.499863 F
0.129154 0.872419 0.495949 F
0.627326 0.376774 0.498785 F
0.633520 0.870990 0.498828 F
0.382261 0.117736 0.496955 F
0.375284 0.616589 0.505942 F
0.884090 0.119939 0.500087 F
0.875072 0.624737 0.497834 F
0.377556 0.383476 0.508258 F
0.369309 0.882836 0.507443 F
0.866507 0.386649 0.507649 F
0.875341 0.878771 0.503073 F
0.001096 0.252269 0.276276 F
0.995855 0.754929 0.268277 F
0.505157 0.245054 0.271279 F
0.497684 0.747601 0.276303 F
0.250049 0.998178 0.775585 F
0.251089 0.502322 0.776040 F
0.755293 -0.001535 0.759697 F
0.747653 0.501889 0.772778 F
