Na4 Ni4 O8 F4                           
   1.00000000000000     
     5.2777548463270332    0.0184911681791217    0.0166732398320192
     0.0211639540140778    5.4671291274507992    0.0702183215708847
     0.0159458809346610    0.1016301825199924    7.1002190345043310
   Na   Ni   O    F 
     4     4     8     4
Direct
  0.9753635588246128  0.0491476624826383  0.2456858247779801
  0.0150173087328485  0.9498143244512791  0.7561284340953808
  0.4869058408773270  0.4537142183323769  0.7512774175462199
  0.5176214147106533  0.5455859084605307  0.2473541775997614
  0.5013217899833190  0.9824088218405459  0.9956181781409620
  0.0009446627727639  0.5144115135173576  0.0041353507767153
  0.5011420095151404  0.0128456593822986  0.4987549841832141
  0.9971014983959704  0.4893106940194050  0.5034824370391587
  0.2932400373473416  0.7098401596358574  0.9541807755342414
  0.7933053068993816  0.7819307547772507  0.0517360937787696
  0.7151975754310443  0.2899948070652624  0.4577516021508277
  0.2170773546710026  0.2046138655937282  0.5365928306247856
  0.0979855530737413  0.4770805359491330  0.2518593284118726
  0.9056627358459027  0.5174680825526647  0.7549791911314959
  0.5972540729957533  0.0300033490003845  0.7462210178770123
  0.4039296132911446  0.9891334599017405  0.2507850560304706
  0.7092052303861582  0.2813715065559526  0.0465087635846309
  0.2044132682778427  0.2191430736902846  0.9464555546011129
  0.2847836621492387  0.7116335959206637  0.5464302653951639
  0.7825275058188063  0.7905480068706382  0.4540627167202032
 
  0.00000000E+00  0.00000000E+00  0.00000000E+00
  0.00000000E+00  0.00000000E+00  0.00000000E+00
  0.00000000E+00  0.00000000E+00  0.00000000E+00
  0.00000000E+00  0.00000000E+00  0.00000000E+00
  0.00000000E+00  0.00000000E+00  0.00000000E+00
  0.00000000E+00  0.00000000E+00  0.00000000E+00
  0.00000000E+00  0.00000000E+00  0.00000000E+00
  0.00000000E+00  0.00000000E+00  0.00000000E+00
  0.00000000E+00  0.00000000E+00  0.00000000E+00
  0.00000000E+00  0.00000000E+00  0.00000000E+00
  0.00000000E+00  0.00000000E+00  0.00000000E+00
  0.00000000E+00  0.00000000E+00  0.00000000E+00
  0.00000000E+00  0.00000000E+00  0.00000000E+00
  0.00000000E+00  0.00000000E+00  0.00000000E+00
  0.00000000E+00  0.00000000E+00  0.00000000E+00
  0.00000000E+00  0.00000000E+00  0.00000000E+00
  0.00000000E+00  0.00000000E+00  0.00000000E+00
  0.00000000E+00  0.00000000E+00  0.00000000E+00
  0.00000000E+00  0.00000000E+00  0.00000000E+00
  0.00000000E+00  0.00000000E+00  0.00000000E+00
