Titanium(III) fluoride                  
   1.00000000000000     
     5.3995456337548591   -0.0646349284464621   -0.1079840485862702
     2.7125970087553419    4.6614363111473152   -0.1045479073741388
     2.7552750280616731    1.5671293616534494    4.3881083029741239
   Ti   F 
     2     6
Direct
  0.0001544191841469  0.9998931175945075  0.9999130090895587
  0.5000240490689954  0.4998385739963029  0.5001309603478494
  0.8443235272442977  0.6552826630973767  0.2501360820338466
  0.1552065979402652  0.3451030399248883  0.7500101546429997
  0.2482536161097667  0.8461373289540788  0.6545413795269343
  0.7520944434659397  0.1541521085477095  0.3450956283417050
  0.6538171741336355  0.2516899831436958  0.8458604975848931
  0.3461262018529516  0.7479032137414323  0.1543123174322121
 
  0.00000000E+00  0.00000000E+00  0.00000000E+00
  0.00000000E+00  0.00000000E+00  0.00000000E+00
  0.00000000E+00  0.00000000E+00  0.00000000E+00
  0.00000000E+00  0.00000000E+00  0.00000000E+00
  0.00000000E+00  0.00000000E+00  0.00000000E+00
  0.00000000E+00  0.00000000E+00  0.00000000E+00
  0.00000000E+00  0.00000000E+00  0.00000000E+00
  0.00000000E+00  0.00000000E+00  0.00000000E+00
