Fe8 O8 F16                              
    1.000000000000000     
     7.6436622499473783   -0.0153595280491960   -0.0029967014648636
    -0.0128784003683768    7.6743556446964849    0.0226867016854120
    -0.0015155612090784   -0.0255748522035097    7.7347492651049627
   Fe   O    F 
     8     8    16
Direct
  0.9974785613272914  0.9951496284830839  0.9998310626397924
  0.9998997632026274  0.9999452595271023  0.4997351179243452
  0.9982398557051084  0.4961115038220711  0.9999493660173613
  0.9878632891453094  0.4996951445452638  0.4999273975787517
  0.5007381156410133  0.9953912159389802  0.0004484880413926
  0.5000117265251873  0.0006413176453108  0.5012602096021936
  0.5030487111354205  0.5029602224795440  0.9999048769356378
  0.5131888724501792  0.5000410812249214  0.4998898434301324
  0.2489449412296665  0.9985531140245243  0.5002086774589500
  0.2499369822489541  0.5004388324812652  0.4998445569428398
  0.7513409345547473  0.5002978356700538  0.4995568962058599
  0.2618341977688559  0.9931652568169298  0.0009118107210782
  0.2517004248512009  0.5080950576098360  0.0001136259472361
  0.7360538889762012  0.9894965670990885  0.0006585776341410
  0.7509199276465921  0.9991052365911699  0.4998445704050525
  0.5014834114475022  0.7658088332607633  0.9987200379830128
  0.9903280238687771  0.0005840654696811  0.2487945784924861
  0.5103257739583213  0.0109183354812146  0.7444068592488833
  0.7501586694984965  0.5033928604264446  0.9996826881040093
  0.9919286447079472  0.7493972440133234  0.9990066618624880
  0.5060627001755904  0.2443735521887973  0.0005118162276432
  0.9900008912116647  0.9989261493774251  0.7508997379073961
  0.0166625546949959  0.4974449212267160  0.2465393182565521
  0.0166125982392273  0.4985641952380888  0.7531459354277388
  0.5110909486401241  0.0106895652579126  0.2568956141925014
  0.4845652354029184  0.4976951456836218  0.2466957715436990
  0.4850093906858746  0.4985945647933505  0.7530087678318651
  0.9927980041217523  0.2433740081636131  0.9999624886100307
  0.0086829181701304  0.2490066220041811  0.5001225560617755
  0.0090253892905920  0.7505246612287308  0.4991175318292562
  0.4914256466893860  0.2518023503969999  0.5003883770090098
  0.4926390067883446  0.7498156518299766  0.5000161819269024
 
  0.00000000E+00  0.00000000E+00  0.00000000E+00
  0.00000000E+00  0.00000000E+00  0.00000000E+00
  0.00000000E+00  0.00000000E+00  0.00000000E+00
  0.00000000E+00  0.00000000E+00  0.00000000E+00
  0.00000000E+00  0.00000000E+00  0.00000000E+00
  0.00000000E+00  0.00000000E+00  0.00000000E+00
  0.00000000E+00  0.00000000E+00  0.00000000E+00
  0.00000000E+00  0.00000000E+00  0.00000000E+00
  0.00000000E+00  0.00000000E+00  0.00000000E+00
  0.00000000E+00  0.00000000E+00  0.00000000E+00
  0.00000000E+00  0.00000000E+00  0.00000000E+00
  0.00000000E+00  0.00000000E+00  0.00000000E+00
  0.00000000E+00  0.00000000E+00  0.00000000E+00
  0.00000000E+00  0.00000000E+00  0.00000000E+00
  0.00000000E+00  0.00000000E+00  0.00000000E+00
  0.00000000E+00  0.00000000E+00  0.00000000E+00
  0.00000000E+00  0.00000000E+00  0.00000000E+00
  0.00000000E+00  0.00000000E+00  0.00000000E+00
  0.00000000E+00  0.00000000E+00  0.00000000E+00
  0.00000000E+00  0.00000000E+00  0.00000000E+00
  0.00000000E+00  0.00000000E+00  0.00000000E+00
  0.00000000E+00  0.00000000E+00  0.00000000E+00
  0.00000000E+00  0.00000000E+00  0.00000000E+00
  0.00000000E+00  0.00000000E+00  0.00000000E+00
  0.00000000E+00  0.00000000E+00  0.00000000E+00
  0.00000000E+00  0.00000000E+00  0.00000000E+00
  0.00000000E+00  0.00000000E+00  0.00000000E+00
  0.00000000E+00  0.00000000E+00  0.00000000E+00
  0.00000000E+00  0.00000000E+00  0.00000000E+00
  0.00000000E+00  0.00000000E+00  0.00000000E+00
  0.00000000E+00  0.00000000E+00  0.00000000E+00
  0.00000000E+00  0.00000000E+00  0.00000000E+00
