Na4 Fe4 O8 F4                           
   1.00000000000000     
     5.3740547186099317   -0.0067388837852066    0.0002904513499727
    -0.0064863256269136    5.4269531018704322    0.0077076258813914
     0.0010444789516624    0.0009081617114719    7.1895581672101594
   Na   Fe   O    F 
     4     4     8     4
Direct
  0.0023441772511293  0.0457674860816991  0.2520877891759520
  0.0063105866148778  0.9701311534681543  0.7523731687894677
  0.4937878746127869  0.4555203423822922  0.7491288309592067
  0.4969102914059724  0.5326250579680126  0.2495472280211901
  0.5294247371429862  0.0017458404937390  0.0049161311724753
  0.9729823683636201  0.5053418429631067  0.0035076050732004
  0.5054045287575558  0.9731777681636110  0.5012966916238241
  0.0017457560989015  0.5298743143538657  0.4992630995690806
  0.0695512716123985  0.4850127040066562  0.2495346913736333
  0.9300124900817176  0.5085311324165969  0.7481055595148938
  0.5691046553300515  0.0183035078485261  0.7498655556161677
  0.4304211692168200  0.9838613614047290  0.2484890394629254
  0.7130719199198492  0.2841245793494420  0.0387780252121098
  0.7895273240380770  0.7864225287263863  0.0403397430812038
  0.2855732700941198  0.7147525779073923  0.5388873768082856
  0.7874939424924852  0.7867981002605077  0.4589429990384674
  0.2916739318848863  0.7074908221870284  0.9578487111975615
  0.2120149925588996  0.2088770753795083  0.9622068031697976
  0.7056638497568766  0.2887229126815103  0.4590757419768223
  0.2069808627659747  0.2129188919572499  0.5358052091637348
 
  0.00000000E+00  0.00000000E+00  0.00000000E+00
  0.00000000E+00  0.00000000E+00  0.00000000E+00
  0.00000000E+00  0.00000000E+00  0.00000000E+00
  0.00000000E+00  0.00000000E+00  0.00000000E+00
  0.00000000E+00  0.00000000E+00  0.00000000E+00
  0.00000000E+00  0.00000000E+00  0.00000000E+00
  0.00000000E+00  0.00000000E+00  0.00000000E+00
  0.00000000E+00  0.00000000E+00  0.00000000E+00
  0.00000000E+00  0.00000000E+00  0.00000000E+00
  0.00000000E+00  0.00000000E+00  0.00000000E+00
  0.00000000E+00  0.00000000E+00  0.00000000E+00
  0.00000000E+00  0.00000000E+00  0.00000000E+00
  0.00000000E+00  0.00000000E+00  0.00000000E+00
  0.00000000E+00  0.00000000E+00  0.00000000E+00
  0.00000000E+00  0.00000000E+00  0.00000000E+00
  0.00000000E+00  0.00000000E+00  0.00000000E+00
  0.00000000E+00  0.00000000E+00  0.00000000E+00
  0.00000000E+00  0.00000000E+00  0.00000000E+00
  0.00000000E+00  0.00000000E+00  0.00000000E+00
  0.00000000E+00  0.00000000E+00  0.00000000E+00
