Na15 Ti16 O16 F32
1.0
  11.1119085654798724    0.1399483349679471   -0.0279437459111261
   0.1712917139705260   11.2847720645205385   -0.0159890462716881
   0.0143331637351524    0.0162105416630974    7.8438789327583800
Na Ti O F
15 16 16 32
direct
   0.4995643309132447    0.4814968736939136   -0.2500083867230032 Na
   0.9978429152883734    0.0147199462297252    0.2500489184851702 Na
   0.9957489333568859    0.5129928743844943    0.2490154072985220 Na
   0.4980948944420120    0.0097963821755442    0.2495404450922507 Na
   0.0017365960450775    0.4827068549932676    0.7510831539489473 Na
   1.0006633559430185    0.9846275217179539    0.7505077199647943 Na
   0.4996976827827737    0.9846777261467921    0.7499732671047639 Na
   0.2512279948264222    0.2279914529151696    0.7504609141218879 Na
   0.2523092936694056    0.7236802492407293    0.7499821019364319 Na
   0.7461487527777564    0.2256501646222446    0.7491185247502443 Na
   0.7470535459148309    0.7231486517626848    0.7505750812948406 Na
   0.2551081585416313    0.2753151817649950    0.2505101512947334 Na
   0.2496556544776141    0.7653398874881319    0.2497326857669151 Na
   0.7407671710630765    0.2693977283214863    0.2481401306338427 Na
   0.7445315217213206    0.7675218573621052    0.2480969589602182 Na
   0.2371360125630844    0.0034929258864480    0.0146843021628555 Ti
   0.2393941916961850    0.5051729366313324    0.0156191821047713 Ti
   0.7381490564035715    0.0042549968883279    0.0145578921386402 Ti
   0.7367288358887762    0.5050702637410325    0.0143488568039842 Ti
   0.0025935330828588    0.2404267641977782    0.9806480119830212 Ti
   0.0033422853893867    0.7401582293684328    0.9796335682451627 Ti
   0.5014905370471752    0.2398070566160939    0.9821046109700973 Ti
   0.5030429123249363    0.7378393260635150    0.9797247749293874 Ti
   0.2372283758428821    0.0033268234806343    0.4866505154901404 Ti
   0.2389417750949789    0.5055298468133884    0.4852820380016922 Ti
   0.7383499121733621    0.0048527479594469    0.4861443095353906 Ti
   0.7385935333525779    0.5046982023743070    0.4831485546416801 Ti
   0.0029313127903734    0.2403263808745990    0.5190797551598152 Ti
   0.0030931690940292    0.7402336370557236    0.5203810531107749 Ti
   0.5018389309715658    0.2405820098779685    0.5172377160729127 Ti
   0.5048011475788954    0.7374446673721096    0.5160024953268163 Ti
   0.1037636118050358    0.1041080026178491    0.9688086710283841 O
   0.1048491146620947    0.6050230224316095    0.9647568029373517 O
   0.6051206341725930    0.1040767994533809    0.9679956038532538 O
   0.6070707620251881    0.6066019580865358    0.9588582896344278 O
   0.1038910143225920    0.1039620071332976    0.5318718925207548 O
   0.1040539710581712    0.6044730311099187    0.5359146451359038 O
   0.6059478087740615    0.1053192056437950    0.5325108889440173 O
   0.6063972810234830    0.6082460770449316    0.5413584817237407 O
   0.4654316321422201    0.2552698538865101    0.7499114962620084 O
   0.4658587366191256    0.7608804836690481    0.7531188889469362 O
   0.9611831142782563    0.2562174781874305    0.7497111089391666 O
   0.9604074621092522    0.7600660136847637    0.7500714507430217 O
   0.2150513770017071    0.4916362311858009    0.2503348425826175 O
   0.2181863056755020    0.9838257771965928    0.2506945688127118 O
   0.7271918033606255    0.4879723309405222    0.2496197135647265 O
   0.7190296734501587    0.9869430903722218    0.2504370183141518 O
   0.3488553206005136    0.1482593330508095    0.0489047938678411 F
   0.3474734654792044    0.6543014655993034    0.0393499196347591 F
   0.8495293468364622    0.1511299943625559    0.0512131188674587 F
   0.8502268042909478    0.6515827994209076    0.0476092006471447 F
   0.1510101559711359    0.3507069785425685    0.9509456480763205 F
   0.1535138086657497    0.8488652914368373    0.9499039931770028 F
   0.6523409195276599    0.3486063839880202    0.9554992974620404 F
   0.6546762314178665    0.8477162171372541    0.9566374699838960 F
   0.3905820033388920    0.3906476029540542    0.0262875444151973 F
   0.4009948429906487    0.9003228521823914    0.0316647736983811 F
   0.9023057977127493    0.4006827712650605    0.0305148726996194 F
   0.9033787336711256    0.9011992314845472    0.0349200046375913 F
   0.1519016090114178    0.3500792740884577    0.5487349149659408 F
   0.1538353331837641    0.8484891170589037    0.5509717297560428 F
   0.6507330159173463    0.3510398316877925    0.5443943020116535 F
   0.6531730479861508    0.8501072995709862    0.5471370566002776 F
   0.3496760047680709    0.1476633465687414    0.4517601609864101 F
   0.3463599703764828    0.6552611320942461    0.4632936207633520 F
   0.8493002742226636    0.1518792275472762    0.4484872308518888 F
   0.8497042149424416    0.6519565134267822    0.4521085051991705 F
   0.3908189331390446    0.3912974922939938    0.4736765944489605 F
   0.4028724992865023    0.8989009647789032    0.4701144921368510 F
   0.9020711967760064    0.4006649889408322    0.4690496689140957 F
   0.9034286857206268    0.9015644132510161    0.4658301523427966 F
   0.0362752289299735    0.2514734052231944    0.2498917817758155 F
   0.0356086339606279    0.7491128756351273    0.2500334947182878 F
   0.5316547452836673    0.2425311623590716    0.2496487837620407 F
   0.5337385605491320    0.7595216804734051    0.2470757679270719 F
   0.2915849274392528    0.0152667331981959    0.7502202996370926 F
   0.2932961795899303    0.5150114647732025    0.7502294742330093 F
   0.7933254226856903    0.0147001479777344    0.7502819163991745 F
   0.7938984601900998    0.5116164769632476    0.7494643408519224 F
