Co4 O4 F8                               
    1.000000000000000     
     4.9188547073394897    0.0349609620387523   -0.0403209661835619
     0.0540817083654900    5.2596725022383071   -0.0184527985310098
    -0.0036635623868404    0.0967071219992549    7.1382895220748344
   Co   O    F 
     4     4     8
Direct
  0.4983887206160005  0.0017753147808371  0.9965662594421226
  0.0070663325487769  0.4948983826983993  0.9968028603155059
  0.4933172740968544  0.0023859011692820  0.4993697520964481
  0.9910613286420948  0.5019433421139795  0.4946315598001711
  0.6127885824141126  0.0338400683343518  0.7535710790454724
  0.3901376425589280  0.9785371584154336  0.2405540172729510
  0.1982803040241604  0.1714502174295689  0.9413721682877128
  0.6689938601437220  0.3143812281287318  0.4480812297724843
  0.1415930113306073  0.4642107874145278  0.2512456909710559
  0.8586188115424408  0.5329639265691878  0.7483577100002106
  0.7082770302483663  0.3130375402255728  0.0690518283985223
  0.3158901831547524  0.6663655854285606  0.9409323766029316
  0.8099451947198126  0.8119661969398639  0.0553686993729380
  0.3101504762089372  0.7002485557321418  0.5595716209592537
  0.8226708780614446  0.8128799855316141  0.4354721954235844
  0.1728203696889966  0.1991158090879476  0.5690509522386281
 
  0.00000000E+00  0.00000000E+00  0.00000000E+00
  0.00000000E+00  0.00000000E+00  0.00000000E+00
  0.00000000E+00  0.00000000E+00  0.00000000E+00
  0.00000000E+00  0.00000000E+00  0.00000000E+00
  0.00000000E+00  0.00000000E+00  0.00000000E+00
  0.00000000E+00  0.00000000E+00  0.00000000E+00
  0.00000000E+00  0.00000000E+00  0.00000000E+00
  0.00000000E+00  0.00000000E+00  0.00000000E+00
  0.00000000E+00  0.00000000E+00  0.00000000E+00
  0.00000000E+00  0.00000000E+00  0.00000000E+00
  0.00000000E+00  0.00000000E+00  0.00000000E+00
  0.00000000E+00  0.00000000E+00  0.00000000E+00
  0.00000000E+00  0.00000000E+00  0.00000000E+00
  0.00000000E+00  0.00000000E+00  0.00000000E+00
  0.00000000E+00  0.00000000E+00  0.00000000E+00
  0.00000000E+00  0.00000000E+00  0.00000000E+00
