Chromium oxide (5/12)                   
   1.00000000000000     
    12.0112563594002584    0.0000032657911318   -0.0000033951096643
     0.0000022455959303    8.1596871070447534   -0.0000016870221383
    -0.0000023361753372   -0.0000017511222064    8.1534834368142501
   Cr   O 
    20    48
Direct
  0.9999890274884322  0.3932898598607508  0.2500040397345771
  0.9999891378515287  0.6067098867787379  0.7500040824664325
  0.4999890003279077  0.1067101887161854  0.7499957087562450
  0.4999888609068819  0.8932899057499526  0.2499956440899851
  0.1718773595160457  0.8873224003688946  0.4764766958135596
  0.8281257276916492  0.1126646050544409  0.5235025452512616
  0.3281257191312648  0.6126646764031491  0.9764974244701747
  0.6718774394187434  0.3873222653536459  0.0235233555947758
  0.8281256288710850  0.8873357707315535  0.0235024668201689
  0.1718773596527825  0.1126771220674883  0.9764769091930532
  0.6718774768784428  0.6126774416132506  0.5235234118812144
  0.3281258001030523  0.3873364305732778  0.4764976318441043
  0.0869762629316426  0.7530390377338421  0.1111261150326186
  0.9130444336333738  0.2468992099716729  0.8888597663635238
  0.4130444616558933  0.7468995864902084  0.6111402309897613
  0.5869769586116007  0.2530413659581257  0.3888749158740410
  0.9130446109587425  0.7531011073992602  0.3888597405923022
  0.0869767594560429  0.2469585831994507  0.6111250946222100
  0.5869766910120475  0.7469581587605845  0.8888749281085282
  0.4130448848609518  0.2531012240246255  0.1111404531380700
  0.2472163454802256  0.7320433952879597  0.0920368453187663
  0.7527791156700161  0.2679363639905290  0.9079833884643449
  0.2527791132646371  0.7679364677513973  0.5920165945585794
  0.7472164318897612  0.2320435857364131  0.4079631906506904
  0.7527789746342251  0.7320634904857641  0.4079833537284401
  0.2472166917650114  0.2679569824429961  0.5920367725458107
  0.7472164817564533  0.7679564574326250  0.9079631887526176
  0.2527790517502240  0.2320634027509456  0.0920165820767025
  0.0789134423739668  0.7738456417497872  0.3553117394595589
  0.9210681698636236  0.2261317737938882  0.6446847949059205
  0.4210682076375747  0.7261317036421318  0.8553152062350122
  0.5789135574338573  0.2738458940494084  0.1446884698638655
  0.9210682394858480  0.7738682709210281  0.1446847333474608
  0.0789134630562032  0.2261540620683817  0.8553118628772793
  0.5789135178313529  0.7261540952527810  0.6446883847104132
  0.4210681860039571  0.2738686152513381  0.3553154792483184
  0.0987883274429606  0.9878301386449948  0.0950862758873896
  0.9012390253379010  0.0121203073624869  0.9048665987295692
  0.4012407481168552  0.5121218326841799  0.5951324642544122
  0.5987881085061844  0.4878305774519589  0.4049135112351081
  0.9012391375475275  0.9878796416331141  0.4048665868426156
  0.0987881311271579  0.0121699725511775  0.5950862865685593
  0.5987889324976337  0.5121692299292775  0.9049122643334613
  0.4012392250850496  0.4878795433818865  0.0951332845407862
  0.0799994538779529  0.5142036176626448  0.1411569466177482
  0.9199688258770138  0.4857891967780645  0.8588635743537978
  0.4199686316057196  0.9857887942573171  0.6411362514496872
  0.5799993587856704  0.0142038935349120  0.3588433111035485
  0.9199688249897733  0.5142110116421321  0.3588635607502795
  0.0799994867643008  0.4857961169983867  0.6411569838909088
  0.5799993918904462  0.9857960186518255  0.8588432160424020
  0.4199686538010283  0.0142114412436882  0.1411363045316065
  0.0713167467197735  0.2733828016016489  0.3767576058253823
  0.9287080069451434  0.7266889364937086  0.6232654468285972
  0.4287081174568499  0.2266888881723901  0.8767350996037493
  0.5713171604657532  0.7733826970411712  0.1232423342515645
  0.9287080703395105  0.2733111376354742  0.1232653793715031
  0.0713167360721201  0.7266170730681196  0.8767576209685899
  0.5713171575408822  0.2266172236599857  0.6232423853170559
  0.4287081115403524  0.7733112734927232  0.3767351180448628
  0.2528854391972857  0.4932135880229538  0.3609831276902966
  0.7471029092811889  0.5068698851474593  0.6391000100462492
  0.2471029601890251  0.0068697177135206  0.8608997373198903
  0.7528853569594887  0.9932137114170914  0.1390170071461014
  0.7471027383469249  0.4931298338595056  0.1390998328060391
  0.2528855202238276  0.5067866405067463  0.8609830218979013
  0.7528854474065128  0.0067864952564562  0.6390168587714129
  0.2471026532071292  0.9931297330865192  0.3609001875985172
 
  0.00000000E+00  0.00000000E+00  0.00000000E+00
  0.00000000E+00  0.00000000E+00  0.00000000E+00
  0.00000000E+00  0.00000000E+00  0.00000000E+00
  0.00000000E+00  0.00000000E+00  0.00000000E+00
  0.00000000E+00  0.00000000E+00  0.00000000E+00
  0.00000000E+00  0.00000000E+00  0.00000000E+00
  0.00000000E+00  0.00000000E+00  0.00000000E+00
  0.00000000E+00  0.00000000E+00  0.00000000E+00
  0.00000000E+00  0.00000000E+00  0.00000000E+00
  0.00000000E+00  0.00000000E+00  0.00000000E+00
  0.00000000E+00  0.00000000E+00  0.00000000E+00
  0.00000000E+00  0.00000000E+00  0.00000000E+00
  0.00000000E+00  0.00000000E+00  0.00000000E+00
  0.00000000E+00  0.00000000E+00  0.00000000E+00
  0.00000000E+00  0.00000000E+00  0.00000000E+00
  0.00000000E+00  0.00000000E+00  0.00000000E+00
  0.00000000E+00  0.00000000E+00  0.00000000E+00
  0.00000000E+00  0.00000000E+00  0.00000000E+00
  0.00000000E+00  0.00000000E+00  0.00000000E+00
  0.00000000E+00  0.00000000E+00  0.00000000E+00
  0.00000000E+00  0.00000000E+00  0.00000000E+00
  0.00000000E+00  0.00000000E+00  0.00000000E+00
  0.00000000E+00  0.00000000E+00  0.00000000E+00
  0.00000000E+00  0.00000000E+00  0.00000000E+00
  0.00000000E+00  0.00000000E+00  0.00000000E+00
  0.00000000E+00  0.00000000E+00  0.00000000E+00
  0.00000000E+00  0.00000000E+00  0.00000000E+00
  0.00000000E+00  0.00000000E+00  0.00000000E+00
  0.00000000E+00  0.00000000E+00  0.00000000E+00
  0.00000000E+00  0.00000000E+00  0.00000000E+00
  0.00000000E+00  0.00000000E+00  0.00000000E+00
  0.00000000E+00  0.00000000E+00  0.00000000E+00
  0.00000000E+00  0.00000000E+00  0.00000000E+00
  0.00000000E+00  0.00000000E+00  0.00000000E+00
  0.00000000E+00  0.00000000E+00  0.00000000E+00
  0.00000000E+00  0.00000000E+00  0.00000000E+00
  0.00000000E+00  0.00000000E+00  0.00000000E+00
  0.00000000E+00  0.00000000E+00  0.00000000E+00
  0.00000000E+00  0.00000000E+00  0.00000000E+00
  0.00000000E+00  0.00000000E+00  0.00000000E+00
  0.00000000E+00  0.00000000E+00  0.00000000E+00
  0.00000000E+00  0.00000000E+00  0.00000000E+00
  0.00000000E+00  0.00000000E+00  0.00000000E+00
  0.00000000E+00  0.00000000E+00  0.00000000E+00
  0.00000000E+00  0.00000000E+00  0.00000000E+00
  0.00000000E+00  0.00000000E+00  0.00000000E+00
  0.00000000E+00  0.00000000E+00  0.00000000E+00
  0.00000000E+00  0.00000000E+00  0.00000000E+00
  0.00000000E+00  0.00000000E+00  0.00000000E+00
  0.00000000E+00  0.00000000E+00  0.00000000E+00
  0.00000000E+00  0.00000000E+00  0.00000000E+00
  0.00000000E+00  0.00000000E+00  0.00000000E+00
  0.00000000E+00  0.00000000E+00  0.00000000E+00
  0.00000000E+00  0.00000000E+00  0.00000000E+00
  0.00000000E+00  0.00000000E+00  0.00000000E+00
  0.00000000E+00  0.00000000E+00  0.00000000E+00
  0.00000000E+00  0.00000000E+00  0.00000000E+00
  0.00000000E+00  0.00000000E+00  0.00000000E+00
  0.00000000E+00  0.00000000E+00  0.00000000E+00
  0.00000000E+00  0.00000000E+00  0.00000000E+00
  0.00000000E+00  0.00000000E+00  0.00000000E+00
  0.00000000E+00  0.00000000E+00  0.00000000E+00
  0.00000000E+00  0.00000000E+00  0.00000000E+00
  0.00000000E+00  0.00000000E+00  0.00000000E+00
  0.00000000E+00  0.00000000E+00  0.00000000E+00
  0.00000000E+00  0.00000000E+00  0.00000000E+00
  0.00000000E+00  0.00000000E+00  0.00000000E+00
  0.00000000E+00  0.00000000E+00  0.00000000E+00
