Na2 Ni2 O4 F2                           
   1.00000000000000     
     3.6709120443059522    0.0125049845642740    0.0005911902838167
     0.0139792449576296    3.8122525362408561   -0.0274293218979941
    -0.0038458611170618   -0.0785998495348096    7.7495974922973874
   Na   Ni   O    F 
     2     2     4     2
Direct
  0.0003475534928036 -0.0026130711252558  0.0000993402225848
 -0.0008922165344088  0.9965514435273790  0.4993315653058080
  0.4987552055569363  0.4944342582419500  0.2450801314631963
  0.5007723934234303  0.5065201366085423  0.7568969322489725
  0.5008189971712630  0.4949479196557574  0.0038685701084149
  0.5010119638855102  0.0075078229814484  0.7788008693700238
 -0.0007624791320862  0.4947237811623528  0.2473625620055113
  0.0005603211439694  0.5081512803832983  0.7394736692166630
  0.5000517190276715  0.5037489231801014  0.4997511165571282
  0.4993365419649250  0.9960275053844259  0.2723352435016823
 
  0.00000000E+00  0.00000000E+00  0.00000000E+00
  0.00000000E+00  0.00000000E+00  0.00000000E+00
  0.00000000E+00  0.00000000E+00  0.00000000E+00
  0.00000000E+00  0.00000000E+00  0.00000000E+00
  0.00000000E+00  0.00000000E+00  0.00000000E+00
  0.00000000E+00  0.00000000E+00  0.00000000E+00
  0.00000000E+00  0.00000000E+00  0.00000000E+00
  0.00000000E+00  0.00000000E+00  0.00000000E+00
  0.00000000E+00  0.00000000E+00  0.00000000E+00
  0.00000000E+00  0.00000000E+00  0.00000000E+00
