Na2 Mn2 O4 F2                           
   1.00000000000000     
     3.7013526115312056    0.0000000167184963   -0.0001132233234433
     0.0000000196895590    3.9138576333814856    0.0000000204807959
    -0.0001710617577901    0.0000000364286381    7.4102376157997547
   Na   Mn   O    F 
     2     2     4     2
Direct
  0.9999653106070922  0.0000000004742826  0.0007383851747035
  0.9999653150260497  0.0000000155125250  0.5007381407107033
  0.4998969042352629  0.4999999760157482  0.2558525194524052
  0.4998986136634121  0.5000000159968380  0.7558369077275450
  0.5000408355709826  0.4999999905837282  0.0052708802345220
  0.5000408712122134  0.5000000123521273  0.5052670704138473
  0.0001269772189168  0.4999999715262743  0.2548905761268614
  0.0001262126407847  0.5000000195640620  0.7548859488585394
  0.4999695094803491  0.9999999948352517  0.2547591491069047
  0.4999694503449367  0.0000000031391552  0.7547604221939530
 
  0.00000000E+00  0.00000000E+00  0.00000000E+00
  0.00000000E+00  0.00000000E+00  0.00000000E+00
  0.00000000E+00  0.00000000E+00  0.00000000E+00
  0.00000000E+00  0.00000000E+00  0.00000000E+00
  0.00000000E+00  0.00000000E+00  0.00000000E+00
  0.00000000E+00  0.00000000E+00  0.00000000E+00
  0.00000000E+00  0.00000000E+00  0.00000000E+00
  0.00000000E+00  0.00000000E+00  0.00000000E+00
  0.00000000E+00  0.00000000E+00  0.00000000E+00
  0.00000000E+00  0.00000000E+00  0.00000000E+00
