Octasodium tetradecaoxopentatitanate    
   1.00000000000000     
    10.5285081277891948    0.0151713760735248    0.0076290896611615
    -1.7535627494581636    8.1604298450724908    0.0138236954322374
    -2.0816130776280954   -3.8006148937925031    7.3423641004492701
   Ti   Na   O 
    10    16    28
Direct
  0.3256405270001679  0.1894005608479645  0.1143556679879296
  0.6743548061237234  0.8106045929566861  0.8856524928849510
  0.4689671883893141  0.0358051759066598  0.8226866578630521
  0.5310321006128618  0.9641861635566684  0.1773219151399559
  0.6547569780670131  0.3786890571594697  0.2263219989440728
  0.3452440718711429  0.6213053364151833  0.7736748431708094
  0.7911322644490397  0.2166846408708949  0.9241543208471157
  0.2088570488413808  0.7833119456650763  0.0758290990739710
  0.8509557843723456  0.1460516823433125  0.2780812482929917
  0.1490438492445207  0.8539510909103427  0.7219053007642344
  0.0137970775221845  0.4478656780586761  0.6777116491821999
  0.9861994323127661  0.5521343753890307  0.3222860428189520
  0.1097644022695405  0.3759948048423780  0.0134033234878643
  0.8902282770695535  0.6240085077683304  0.9866105433103129
  0.1686247938003476  0.3088657796455934  0.3765090493041612
  0.8313748196487509  0.6911426087315817  0.6234995425345389
  0.3836527186721312  0.1138253626447536  0.4787405013614716
  0.6163359769838266  0.8861676275032835  0.5212609333633225
  0.5659107438051763  0.4361450880440856  0.8718039976290868
  0.4340906212138620  0.5638716475647385  0.1282202956901202
  0.7067636629621745  0.2925246605509528  0.5837353334858975
  0.2932124743116873  0.7074746801275040  0.4162473298608873
  0.1757113372444721  0.1842586930329304  0.6657802967099400
  0.8242865710853451  0.8157469625602829  0.3342232847793127
  0.0000047299361228  0.0000209570521719  0.9999632665917204
  0.5000969951950154  0.4999821243209723  0.5000098507708017
  0.1726477054710784  0.1077400183709472  0.8973129295971134
  0.8273532281191933  0.8922805934940001  0.1026872989961234
  0.2258144638906430  0.0449225680571956  0.2024591373708802
  0.7741769410115538  0.9550663219771209  0.7975350914728097
  0.3106576029816708  0.4102056910653289  0.2440742584451669
  0.6893524055578268  0.5898050209058496  0.7559614596322533
  0.4693201422776170  0.2734581946403978  0.0088058604526893
  0.5306809229097880  0.7265463799857912  0.9911959213585888
  0.5157787214973268  0.2155518215657111  0.2945327159366613
  0.4842198808881264  0.7844556301808865  0.7054836739701642
  0.5925201915657539  0.1476904081979384  0.7385622898820614
  0.4074844919415526  0.8522949974883645  0.2614421835408081
  0.6445949381366205  0.0818128254114967  0.0474318772881333
  0.3554057265271453  0.9181854422032032  0.9525718678683575
  0.6993252625895892  0.0201296092926171  0.3506056267123441
  0.3006583294043637  0.9798500015063993  0.6493841793567512
  0.7581535138679598  0.4396854417786855  0.0888304392717743
  0.2418423050477401  0.5602986830187362  0.9111645721894917
  0.8110842455366694  0.3780941064165972  0.3999522241968307
  0.1889048910021103  0.6219117203198081  0.6000475697438361
  0.8868191268881844  0.3244120145039560  0.8255369197810438
  0.1131608187946114  0.6755849366039826  0.1744467643275982
  0.9382966568508522  0.2475523013887013  0.1391722158331348
  0.0617116288024988  0.7524556706669259  0.8608292749946500
  0.9992696634647871  0.1828539605560664  0.4541133968980375
  0.0007173837956387  0.8171286293068505  0.5458786500671806
  0.3584338127325211  0.4002040318962869  0.6444329995648772
  0.6415756534421178  0.5998030367306413  0.3555597594009470
 
  0.00000000E+00  0.00000000E+00  0.00000000E+00
  0.00000000E+00  0.00000000E+00  0.00000000E+00
  0.00000000E+00  0.00000000E+00  0.00000000E+00
  0.00000000E+00  0.00000000E+00  0.00000000E+00
  0.00000000E+00  0.00000000E+00  0.00000000E+00
  0.00000000E+00  0.00000000E+00  0.00000000E+00
  0.00000000E+00  0.00000000E+00  0.00000000E+00
  0.00000000E+00  0.00000000E+00  0.00000000E+00
  0.00000000E+00  0.00000000E+00  0.00000000E+00
  0.00000000E+00  0.00000000E+00  0.00000000E+00
  0.00000000E+00  0.00000000E+00  0.00000000E+00
  0.00000000E+00  0.00000000E+00  0.00000000E+00
  0.00000000E+00  0.00000000E+00  0.00000000E+00
  0.00000000E+00  0.00000000E+00  0.00000000E+00
  0.00000000E+00  0.00000000E+00  0.00000000E+00
  0.00000000E+00  0.00000000E+00  0.00000000E+00
  0.00000000E+00  0.00000000E+00  0.00000000E+00
  0.00000000E+00  0.00000000E+00  0.00000000E+00
  0.00000000E+00  0.00000000E+00  0.00000000E+00
  0.00000000E+00  0.00000000E+00  0.00000000E+00
  0.00000000E+00  0.00000000E+00  0.00000000E+00
  0.00000000E+00  0.00000000E+00  0.00000000E+00
  0.00000000E+00  0.00000000E+00  0.00000000E+00
  0.00000000E+00  0.00000000E+00  0.00000000E+00
  0.00000000E+00  0.00000000E+00  0.00000000E+00
  0.00000000E+00  0.00000000E+00  0.00000000E+00
  0.00000000E+00  0.00000000E+00  0.00000000E+00
  0.00000000E+00  0.00000000E+00  0.00000000E+00
  0.00000000E+00  0.00000000E+00  0.00000000E+00
  0.00000000E+00  0.00000000E+00  0.00000000E+00
  0.00000000E+00  0.00000000E+00  0.00000000E+00
  0.00000000E+00  0.00000000E+00  0.00000000E+00
  0.00000000E+00  0.00000000E+00  0.00000000E+00
  0.00000000E+00  0.00000000E+00  0.00000000E+00
  0.00000000E+00  0.00000000E+00  0.00000000E+00
  0.00000000E+00  0.00000000E+00  0.00000000E+00
  0.00000000E+00  0.00000000E+00  0.00000000E+00
  0.00000000E+00  0.00000000E+00  0.00000000E+00
  0.00000000E+00  0.00000000E+00  0.00000000E+00
  0.00000000E+00  0.00000000E+00  0.00000000E+00
  0.00000000E+00  0.00000000E+00  0.00000000E+00
  0.00000000E+00  0.00000000E+00  0.00000000E+00
  0.00000000E+00  0.00000000E+00  0.00000000E+00
  0.00000000E+00  0.00000000E+00  0.00000000E+00
  0.00000000E+00  0.00000000E+00  0.00000000E+00
  0.00000000E+00  0.00000000E+00  0.00000000E+00
  0.00000000E+00  0.00000000E+00  0.00000000E+00
  0.00000000E+00  0.00000000E+00  0.00000000E+00
  0.00000000E+00  0.00000000E+00  0.00000000E+00
  0.00000000E+00  0.00000000E+00  0.00000000E+00
  0.00000000E+00  0.00000000E+00  0.00000000E+00
  0.00000000E+00  0.00000000E+00  0.00000000E+00
  0.00000000E+00  0.00000000E+00  0.00000000E+00
  0.00000000E+00  0.00000000E+00  0.00000000E+00
