Na4 Ni4 O8 F4                           
   1.00000000000000     
     5.4801732870983235    0.3981605433108957    0.0340066785584173
     0.4815687421566359    5.5072441385935376    0.0101659022992639
    -0.1289713888090923   -0.0200238858495834    6.9175393095784088
   Na   Ni   O    F 
     4     4     8     4
Direct
  0.9844927413484368  0.0231505730083906  0.2457937147236478
  0.0332499033370131  0.9444986067078325  0.7429600552636998
  0.4906143126452245  0.4835113867500117  0.7576463047256347
  0.4864293140341361  0.5473305163492979  0.2516247274804004
  0.4991568082946535  0.0061046922320992  0.0007947066461785
  0.9970299997273400  0.4908810070529673  0.9972172217527558
  0.5025937761341774  0.0213328051303522  0.5014375572310965
  0.0079545431264146  0.4801131972340316  0.5016033167754155
  0.1155908555016755  0.4177328666752887  0.2505890520549491
  0.8845684983061814  0.5623834659916420  0.7447794564766597
  0.6216509747230691  0.9756334751188145  0.7478125605758945
  0.3830836919916107  0.0502797649034995  0.2550826031179088
  0.2098017587130063  0.2210035784262255  0.9182403033951649
  0.7846324598663342  0.7720524144914227  0.0592648998372983
  0.7286611339707867  0.2767262758200479  0.4754523247579213
  0.2346169212858241  0.2286199885731906  0.6028865709085215
  0.7105784985933666  0.2832154378313129  0.0400453367102958
  0.2801577293006331  0.7235473408980266  0.9755083860940682
  0.2754762763046047  0.7250288001956602  0.5232530715892892
  0.7696598027955109  0.7668538066098857  0.4080078298831920
 
  0.00000000E+00  0.00000000E+00  0.00000000E+00
  0.00000000E+00  0.00000000E+00  0.00000000E+00
  0.00000000E+00  0.00000000E+00  0.00000000E+00
  0.00000000E+00  0.00000000E+00  0.00000000E+00
  0.00000000E+00  0.00000000E+00  0.00000000E+00
  0.00000000E+00  0.00000000E+00  0.00000000E+00
  0.00000000E+00  0.00000000E+00  0.00000000E+00
  0.00000000E+00  0.00000000E+00  0.00000000E+00
  0.00000000E+00  0.00000000E+00  0.00000000E+00
  0.00000000E+00  0.00000000E+00  0.00000000E+00
  0.00000000E+00  0.00000000E+00  0.00000000E+00
  0.00000000E+00  0.00000000E+00  0.00000000E+00
  0.00000000E+00  0.00000000E+00  0.00000000E+00
  0.00000000E+00  0.00000000E+00  0.00000000E+00
  0.00000000E+00  0.00000000E+00  0.00000000E+00
  0.00000000E+00  0.00000000E+00  0.00000000E+00
  0.00000000E+00  0.00000000E+00  0.00000000E+00
  0.00000000E+00  0.00000000E+00  0.00000000E+00
  0.00000000E+00  0.00000000E+00  0.00000000E+00
  0.00000000E+00  0.00000000E+00  0.00000000E+00
