Mn4 O4 F8                               
   1.00000000000000     
     4.7306616523005163    0.0372346283831580    0.0824967726286411
    -2.3356697683858227    4.1046225495432269    0.0832222428200506
    -0.0468538431574225   -0.1007627444782989    9.1557625680165682
   Mn   O    F 
     4     4     8
Direct
  0.3582780672611869  0.6671966768886158  0.6018897541806603
  0.6525601256469185  0.3130202128283905  0.3981022252782624
  0.6709393113799205  0.3610903233816352  0.1022984015486531
  0.3147437957810701  0.6545781485410743  0.8978720965644881
  0.9979446282406957  0.6675777980886531  0.9984067353968135
  0.3465209403325333  0.3553034616476256  0.0038936283569367
  0.6645146673197941  0.9952146991604937  0.4980121373794533
  0.3509898318752605  0.3422027425376160  0.5031457867302142
  0.6410687572119809  0.0068467360169972  0.9979763102932963
  0.0050907932651172  0.6398014973690637  0.4979345331936815
  0.6858486176528503  0.6396802643511985  0.2475442608725393
  0.0567245335649407  0.3628873272654903  0.7593360374272217
  0.3640284410348908  0.0571840099840497  0.2585389777344285
  0.6381383421357031  0.6841846815962515  0.7459983939066381
  0.9411214827719968  0.3117720821015847  0.2447628921019671
  0.3114876645251469  0.9414593382412673  0.7442878290347463
 
  0.00000000E+00  0.00000000E+00  0.00000000E+00
  0.00000000E+00  0.00000000E+00  0.00000000E+00
  0.00000000E+00  0.00000000E+00  0.00000000E+00
  0.00000000E+00  0.00000000E+00  0.00000000E+00
  0.00000000E+00  0.00000000E+00  0.00000000E+00
  0.00000000E+00  0.00000000E+00  0.00000000E+00
  0.00000000E+00  0.00000000E+00  0.00000000E+00
  0.00000000E+00  0.00000000E+00  0.00000000E+00
  0.00000000E+00  0.00000000E+00  0.00000000E+00
  0.00000000E+00  0.00000000E+00  0.00000000E+00
  0.00000000E+00  0.00000000E+00  0.00000000E+00
  0.00000000E+00  0.00000000E+00  0.00000000E+00
  0.00000000E+00  0.00000000E+00  0.00000000E+00
  0.00000000E+00  0.00000000E+00  0.00000000E+00
  0.00000000E+00  0.00000000E+00  0.00000000E+00
  0.00000000E+00  0.00000000E+00  0.00000000E+00
