Na4 Fe4 O8 F4                           
   1.00000000000000     
     5.2977347501230136    0.0609125005481592    0.0242503061497037
     0.0614329593605101    5.3405834711692775   -0.0225234628541407
     0.0324399245744881   -0.0305163518514070    7.4073741897724910
   Na   Fe   O    F 
     4     4     8     4
Direct
  0.9865221437204815  0.0302808839862642  0.2536651123705395
  0.0071346851143669  0.9630804471015579  0.7493483217084411
  0.4963004618287454  0.4570746774278415  0.7403035776791330
  0.5053421215081655  0.5339280379649745  0.2612079311066335
  0.4953545239665156  0.9976386312862110  0.0118183226195797
  0.0054752364081529  0.4970726523025339  0.0026896554108294
  0.4792150439861100  0.0065529272045225  0.4923782287143885
  0.0003666825877684  0.4846459629618629  0.5000813600406604
  0.2115381065778713  0.2124512804428884  0.9623805739679377
  0.7943045130055130  0.7841031483279794  0.0283470126330117
  0.2862597012024680  0.7268528850232795  0.5363519220955366
  0.7180396459076200  0.2832054795759347  0.4653319032162206
  0.2177725040124825  0.2197591671016751  0.5430078717034342
  0.0703202392016123  0.4918574709313387  0.2473980908819517
  0.9290745997845395  0.5182384103138052  0.7504460116278784
  0.4219420781918578  0.9803774004406597  0.2510630484127518
  0.6983003196395636  0.2932498471512645  0.0448636059049462
  0.3056349579488734  0.7062444659008272  0.9446292339293545
  0.7860434704736952  0.7922256170167059  0.4630591776977740
  0.5850589649335975  0.0211606075378875  0.7516290382789976
 
  0.00000000E+00  0.00000000E+00  0.00000000E+00
  0.00000000E+00  0.00000000E+00  0.00000000E+00
  0.00000000E+00  0.00000000E+00  0.00000000E+00
  0.00000000E+00  0.00000000E+00  0.00000000E+00
  0.00000000E+00  0.00000000E+00  0.00000000E+00
  0.00000000E+00  0.00000000E+00  0.00000000E+00
  0.00000000E+00  0.00000000E+00  0.00000000E+00
  0.00000000E+00  0.00000000E+00  0.00000000E+00
  0.00000000E+00  0.00000000E+00  0.00000000E+00
  0.00000000E+00  0.00000000E+00  0.00000000E+00
  0.00000000E+00  0.00000000E+00  0.00000000E+00
  0.00000000E+00  0.00000000E+00  0.00000000E+00
  0.00000000E+00  0.00000000E+00  0.00000000E+00
  0.00000000E+00  0.00000000E+00  0.00000000E+00
  0.00000000E+00  0.00000000E+00  0.00000000E+00
  0.00000000E+00  0.00000000E+00  0.00000000E+00
  0.00000000E+00  0.00000000E+00  0.00000000E+00
  0.00000000E+00  0.00000000E+00  0.00000000E+00
  0.00000000E+00  0.00000000E+00  0.00000000E+00
  0.00000000E+00  0.00000000E+00  0.00000000E+00
