Na4 V4 O8 F4                            
   1.00000000000000     
     5.5078830103189400   -0.0386537536728096   -0.0012604721597653
    -2.7842652607684513    4.6773023080750207    0.0004031690921670
    -0.0009009495160530   -0.0012464639812784    9.2686355019687952
   Na   V    O    F 
     4     4     8     4
Direct
  0.0107253716042282  0.9933492966686869  0.0725221772877237
  0.0102168526423362  0.9933015938895445  0.4275212849267109
  0.3425677445516403  0.6551030075636347  0.2499766192589189
  0.6332743992609400  0.3326951313564505  0.7500828803670383
  0.3236164401172643  0.6595058399503985  0.6110741541411394
  0.6905589238900628  0.3159527848704423  0.3928640681170869
  0.6920012376852964  0.3143862606101176  0.1071052236006924
  0.3238556486047751  0.6579007021746480  0.8886504357564063
  0.4411315851773204  0.0221133091872998  0.0059391993482831
  0.0313671085142219  0.4469858096291326  0.0117984111721607
  0.4411550559401934  0.0243539666224983  0.4948975181163713
  0.0304832472287508  0.4493954918893283  0.4883336613840703
  0.8303354124790634  0.6078093719294857  0.2495654134888735
  0.2557455098349486  0.3814467250142137  0.7494949867932835
  0.5753731056016647  0.9030757048782364  0.7500849515621936
  0.7578025823351289  0.1106844856170185  0.2505422795801928
  0.6047996194467470  0.5974902496920940  0.9915023565201109
  0.6038444177002101  0.5994796463483684  0.5073253098953935
  0.3368293304529798  0.2208342287963006  0.2502653201181191
  0.0643164069322292  0.7141363933121009  0.7504537485652315
 
  0.00000000E+00  0.00000000E+00  0.00000000E+00
  0.00000000E+00  0.00000000E+00  0.00000000E+00
  0.00000000E+00  0.00000000E+00  0.00000000E+00
  0.00000000E+00  0.00000000E+00  0.00000000E+00
  0.00000000E+00  0.00000000E+00  0.00000000E+00
  0.00000000E+00  0.00000000E+00  0.00000000E+00
  0.00000000E+00  0.00000000E+00  0.00000000E+00
  0.00000000E+00  0.00000000E+00  0.00000000E+00
  0.00000000E+00  0.00000000E+00  0.00000000E+00
  0.00000000E+00  0.00000000E+00  0.00000000E+00
  0.00000000E+00  0.00000000E+00  0.00000000E+00
  0.00000000E+00  0.00000000E+00  0.00000000E+00
  0.00000000E+00  0.00000000E+00  0.00000000E+00
  0.00000000E+00  0.00000000E+00  0.00000000E+00
  0.00000000E+00  0.00000000E+00  0.00000000E+00
  0.00000000E+00  0.00000000E+00  0.00000000E+00
  0.00000000E+00  0.00000000E+00  0.00000000E+00
  0.00000000E+00  0.00000000E+00  0.00000000E+00
  0.00000000E+00  0.00000000E+00  0.00000000E+00
  0.00000000E+00  0.00000000E+00  0.00000000E+00
