Na8 Fe8 O16 F8                          
   1.00000000000000     
     8.1698908346151313    0.0000000010811840   -0.0000000097935744
     0.0000000006414276    7.3895467732777957   -0.0000000631754986
    -0.0000000103440062   -0.0000000627115167    7.3894115721600890
   Na   Fe   O    F 
     8     8    16     8
Direct
  0.2500010938143618  0.2499999811514257  0.2499994845748787
  0.2500009634320008  0.2499999990273807  0.7500004929058619
  0.2499999722493129  0.7500000204309174  0.2500006116815783
  0.2499998819971481  0.7499999891049782  0.7499994256763429
  0.7499998267180104  0.2499999955326047  0.2499994702070794
  0.7499999034212976  0.2500000201186268  0.7500005424469691
  0.7500008718067193  0.7500000031818814  0.2500005749482099
  0.7500010202658061  0.7499999719546082  0.7499993931519313
  0.9999984062361449  0.9999988576849432  0.9999994984271368
  0.9999983849074852  0.9999997744691882  0.5000005025842569
  0.9999984438501883  0.5000012562481331  0.0000002088216817
  0.9999984198557996  0.5000003229853718  0.4999998024296275
  0.4999984545312799  0.9999990723509526  0.0000002057326611
  0.4999984328463469  0.0000010739350955  0.4999997813504677
  0.4999984033567131  0.5000009438370441  0.9999996130086259
  0.4999984263300377  0.4999989085194869  0.5000003150476147
  0.0000010297630979  0.2499999449653032  0.0000000877844855
  0.0000010340251322  0.2499999787215756  0.4999999160830555
  0.0000010294746247  0.7499999809451978  0.0000000850404902
  0.0000010399893497  0.7499999406245053  0.4999999261754553
  0.5000010371450330  0.2499998598747197  0.0000000364205945
  0.5000010280496454  0.2500000881070079  0.4999999558332178
  0.5000010304810587  0.7500001343339093  0.0000000437766872
  0.5000010341171546  0.7499999230417629  0.4999999699015518
  0.9999994109556738  0.0000003279343019  0.2499999632398655
  0.9999994031673580  0.0000003656033272  0.7500000351553666
  0.9999993963961984  0.4999996168213272  0.2499999987882902
  0.9999994095277813  0.4999996616204641  0.7499999877668060
  0.4999993986269402  0.9999999902911227  0.2499998970952007
  0.4999994052011729  0.9999999914041524  0.7500001065413571
  0.4999994079271417  0.5000000115365140  0.2500001325393058
  0.4999994042617075  0.5000000145128283  0.7499999115239930
  0.2500006962136538  0.0000000226692194  0.0000000293595264
  0.2500007279095087  0.0000001599801607  0.4999999752378201
  0.2500007760279743  0.4999999687385142  0.0000000413279935
  0.2500007091829843  0.4999998377421662  0.4999999655170768
  0.7500007017837547  0.0000000230334081  0.0000000328842731
  0.7500006725978494  0.0000001566251342  0.4999999725664068
  0.7500006219755804  0.4999999733897553  0.0000000379133880
  0.7500006895809861  0.4999998369509839  0.4999999685328902
 
  0.00000000E+00  0.00000000E+00  0.00000000E+00
  0.00000000E+00  0.00000000E+00  0.00000000E+00
  0.00000000E+00  0.00000000E+00  0.00000000E+00
  0.00000000E+00  0.00000000E+00  0.00000000E+00
  0.00000000E+00  0.00000000E+00  0.00000000E+00
  0.00000000E+00  0.00000000E+00  0.00000000E+00
  0.00000000E+00  0.00000000E+00  0.00000000E+00
  0.00000000E+00  0.00000000E+00  0.00000000E+00
  0.00000000E+00  0.00000000E+00  0.00000000E+00
  0.00000000E+00  0.00000000E+00  0.00000000E+00
  0.00000000E+00  0.00000000E+00  0.00000000E+00
  0.00000000E+00  0.00000000E+00  0.00000000E+00
  0.00000000E+00  0.00000000E+00  0.00000000E+00
  0.00000000E+00  0.00000000E+00  0.00000000E+00
  0.00000000E+00  0.00000000E+00  0.00000000E+00
  0.00000000E+00  0.00000000E+00  0.00000000E+00
  0.00000000E+00  0.00000000E+00  0.00000000E+00
  0.00000000E+00  0.00000000E+00  0.00000000E+00
  0.00000000E+00  0.00000000E+00  0.00000000E+00
  0.00000000E+00  0.00000000E+00  0.00000000E+00
  0.00000000E+00  0.00000000E+00  0.00000000E+00
  0.00000000E+00  0.00000000E+00  0.00000000E+00
  0.00000000E+00  0.00000000E+00  0.00000000E+00
  0.00000000E+00  0.00000000E+00  0.00000000E+00
  0.00000000E+00  0.00000000E+00  0.00000000E+00
  0.00000000E+00  0.00000000E+00  0.00000000E+00
  0.00000000E+00  0.00000000E+00  0.00000000E+00
  0.00000000E+00  0.00000000E+00  0.00000000E+00
  0.00000000E+00  0.00000000E+00  0.00000000E+00
  0.00000000E+00  0.00000000E+00  0.00000000E+00
  0.00000000E+00  0.00000000E+00  0.00000000E+00
  0.00000000E+00  0.00000000E+00  0.00000000E+00
  0.00000000E+00  0.00000000E+00  0.00000000E+00
  0.00000000E+00  0.00000000E+00  0.00000000E+00
  0.00000000E+00  0.00000000E+00  0.00000000E+00
  0.00000000E+00  0.00000000E+00  0.00000000E+00
  0.00000000E+00  0.00000000E+00  0.00000000E+00
  0.00000000E+00  0.00000000E+00  0.00000000E+00
  0.00000000E+00  0.00000000E+00  0.00000000E+00
  0.00000000E+00  0.00000000E+00  0.00000000E+00
