Ni4 O4 F8                               
   1.00000000000000     
     4.8932310890750355   -0.0563999155899095   -0.0075812115676502
    -0.0486619291876072    5.1333084408107013    0.1666512787227978
    -0.0427198281541143    0.2783041469664954    7.1744450893845011
   Ni   O    F 
     4     4     8
Direct
  0.4979454042617300 -0.0100007446850001 -0.0009587180314373
  0.0007130367851162  0.4874902276489689  0.0087273586648875
  0.5002996542271714  0.0042382230074013  0.4864705370098886
 -0.0150339520689817  0.5205949469442595  0.5150068824995597
  0.0891395173249568  0.4676831238153506  0.2655085391154192
  0.8978206749065891  0.5274163558253983  0.7558107060310629
  0.3798005628347135  0.9222582279862932  0.2359092766487518
  0.1830057277984289  0.1878377151640186  0.5305004339613363
  0.6194310522420180  0.0521771289609903  0.7578605148873323
  0.6638986709302133  0.2820780884394463  0.0631667173297935
  0.3288164252366264  0.6973073757766420  0.9364589870494208
  0.1954475821211082  0.1705524563392325  0.9418271454422824
  0.7958775585294906  0.8080505601010380  0.0632951637312568
  0.3401301095831856  0.6719364203773788  0.5714910903870927
  0.6654833977050979  0.3465744743391237  0.4218289741962725
  0.8572245775825368  0.8638054199594577  0.4470963910770812
 
  0.00000000E+00  0.00000000E+00  0.00000000E+00
  0.00000000E+00  0.00000000E+00  0.00000000E+00
  0.00000000E+00  0.00000000E+00  0.00000000E+00
  0.00000000E+00  0.00000000E+00  0.00000000E+00
  0.00000000E+00  0.00000000E+00  0.00000000E+00
  0.00000000E+00  0.00000000E+00  0.00000000E+00
  0.00000000E+00  0.00000000E+00  0.00000000E+00
  0.00000000E+00  0.00000000E+00  0.00000000E+00
  0.00000000E+00  0.00000000E+00  0.00000000E+00
  0.00000000E+00  0.00000000E+00  0.00000000E+00
  0.00000000E+00  0.00000000E+00  0.00000000E+00
  0.00000000E+00  0.00000000E+00  0.00000000E+00
  0.00000000E+00  0.00000000E+00  0.00000000E+00
  0.00000000E+00  0.00000000E+00  0.00000000E+00
  0.00000000E+00  0.00000000E+00  0.00000000E+00
  0.00000000E+00  0.00000000E+00  0.00000000E+00
