Cr4 O4 F8                               
   1.00000000000000     
     4.9448870666584597    0.0775411410631690    0.0716137943362798
     0.0528310300925554    5.1346736973059590    0.0069501979979432
    -0.0648915787046055   -0.0226556772753443    7.0989071466430627
   Cr   O    F 
     4     4     8
Direct
  0.4888858378848260  0.9975561531434506  0.0067932904402252
  0.0039161369588906  0.4775359787958899  0.9747146954236051
  0.5122079105711581  0.9837469789046549  0.4773677991184133
  0.9900891910144308  0.5109406325902380  0.5027076517583396
  0.1763594471202574  0.1924273186631877  0.9589098103956067
  0.8147918685972952  0.8207823242502461  0.4496595591101165
  0.9014152493087001  0.5431403917235205  0.7568442704725058
  0.3892416329150323  0.9882200533338973  0.2564332827684664
  0.6865723224952355  0.3044463233349868  0.0518842141614278
  0.3190935102500767  0.6779196141419797  0.9458406555652972
  0.8091286368140512  0.7948077017842539  0.0625029614941923
  0.3219829640460977  0.6901802652506387  0.5538749752964228
  0.6856008302477274  0.3122653351908692  0.4440204958612857
  0.1951916098193004  0.1980645607102029  0.5602784117717788
  0.1063709212651037  0.4828798123684166  0.2483376932875639
  0.5991519306918307  0.0250865558135674  0.7498302330747456
 
  0.00000000E+00  0.00000000E+00  0.00000000E+00
  0.00000000E+00  0.00000000E+00  0.00000000E+00
  0.00000000E+00  0.00000000E+00  0.00000000E+00
  0.00000000E+00  0.00000000E+00  0.00000000E+00
  0.00000000E+00  0.00000000E+00  0.00000000E+00
  0.00000000E+00  0.00000000E+00  0.00000000E+00
  0.00000000E+00  0.00000000E+00  0.00000000E+00
  0.00000000E+00  0.00000000E+00  0.00000000E+00
  0.00000000E+00  0.00000000E+00  0.00000000E+00
  0.00000000E+00  0.00000000E+00  0.00000000E+00
  0.00000000E+00  0.00000000E+00  0.00000000E+00
  0.00000000E+00  0.00000000E+00  0.00000000E+00
  0.00000000E+00  0.00000000E+00  0.00000000E+00
  0.00000000E+00  0.00000000E+00  0.00000000E+00
  0.00000000E+00  0.00000000E+00  0.00000000E+00
  0.00000000E+00  0.00000000E+00  0.00000000E+00
