Fe2 O2 F4                               
   1.00000000000000     
     3.8667976822948695    0.0156994802748369   -0.0011441660764347
    -0.0127896300855767    3.8677416676817513    0.0004189419645262
    -0.0020467464492862    0.0002496271484474    7.7858276535300730
   Fe   O    F 
     2     2     4
Direct
  0.4996009654333378  0.4996972332272804  0.2558831399644959
  0.5001675031159039  0.5000640919384907  0.7559722921556045
  0.4998045496277470  0.5000938483770909  0.0055242493720442
  0.5001653714886416  0.5001795024801936  0.5055037831823270
  0.5000525642369311  0.9996537652070501  0.2793933347797903
  0.5000531312747754  0.0001156919693557  0.7308505643471221
  0.9997519992582582  0.4992733681929664  0.2305624008254696
  0.0004039155643980  0.5009224986075793  0.7793102353731314
 
  0.00000000E+00  0.00000000E+00  0.00000000E+00
  0.00000000E+00  0.00000000E+00  0.00000000E+00
  0.00000000E+00  0.00000000E+00  0.00000000E+00
  0.00000000E+00  0.00000000E+00  0.00000000E+00
  0.00000000E+00  0.00000000E+00  0.00000000E+00
  0.00000000E+00  0.00000000E+00  0.00000000E+00
  0.00000000E+00  0.00000000E+00  0.00000000E+00
  0.00000000E+00  0.00000000E+00  0.00000000E+00
