Na8 Mn8 O16 F8                          
   1.00000000000000     
     7.6700421469818956    0.0000001058027644   -0.0000012861949511
     0.0000001130317806    7.4704118561703670   -0.0000018914436414
    -0.0000012532044349   -0.0000019619360956    7.4681755496810620
   Na   Mn   O    F 
     8     8    16     8
Direct
  0.2530971822027362  0.2513794665743170  0.2470565407061340
  0.2530987435939988  0.2513787966871852  0.7529391897058163
  0.2530980398121139  0.7486209956425242  0.2470592742237328
  0.2530978306497311  0.7486206592173233  0.7529419131387501
  0.7531335112293818  0.2470479961493120  0.2513807089972375
  0.7531328971530462  0.2470478728991117  0.7486202543136121
  0.7531330848341418  0.7529518140607165  0.2513792837323649
  0.7531332991194482  0.7529524759982790  0.7486187156170936
  0.0135551435285712  0.0000000346510569 -0.0000000326279166
  0.0126569237737636 -0.0000000040559965  0.5000000224596290
  0.9881423033601231  0.5000000238524206 -0.0000001240590177
  0.9985243887268278  0.4999999993130503  0.4999999705475195
  0.5135757560605976 -0.0000000071158849 -0.0000001764805285
  0.4881300095704596 -0.0000000046697180  0.5000001710361123
  0.5126664818509468  0.4999999957903878  0.0000000301146799
  0.4985249775361535  0.4999999955524995  0.4999999586681640
  0.2490189208927655 -0.0000000083046406  0.0000001440279920
  0.2453693307688399 -0.0000000131398508  0.5000003596421417
  0.7489964050437822  0.0000000021431551  0.0000002325443207
  0.7453165417107546  0.4999999825064655  0.0000002207370091
  0.9889598242193565  0.2512811115567881  0.5000006609483388
  0.9889598161024149  0.7487188774433586  0.4999996439161780
  0.4864588972271236  0.2480308987299147  0.0000000289812349
  0.5062940500998955  0.2500667113276242  0.5000003632665122
  0.4864589033853431  0.7519690920964065  0.0000003342634358
  0.5062940599074330  0.7499332821331045  0.5000001144736991
  0.9865159679194127  0.0000003134476951  0.2480288162900858
  0.9865159522941711  0.9999996979544497  0.7519714069101476
  0.0062400379079144  0.4999968677963842  0.2500797575305259
  0.0062399953692213  0.5000031255955276  0.7499203793047702
  0.4889102839264834  0.4999999027050717  0.2512948489968710
  0.4889103329673871  0.5000000805883656  0.7487053195958442
  0.2483865130551827  0.5000000081447540  0.0000001454789078
  0.2482367279926881  0.5000000040274996  0.4999999905871635
  0.7483913018425140  0.9999999925733057  0.5000003323609868
  0.7482897680201794  0.4999999823998734  0.5000000133983568
  0.0101270230812263  0.2434725042434541  0.9999995169879896
  0.0101270020484301  0.7565274872330719  0.0000009150693544
  0.5101408127420154  0.0000001381400201  0.2434939438640535
  0.5101409584734318  0.9999998481116236  0.7565068107307052
 
  0.00000000E+00  0.00000000E+00  0.00000000E+00
  0.00000000E+00  0.00000000E+00  0.00000000E+00
  0.00000000E+00  0.00000000E+00  0.00000000E+00
  0.00000000E+00  0.00000000E+00  0.00000000E+00
  0.00000000E+00  0.00000000E+00  0.00000000E+00
  0.00000000E+00  0.00000000E+00  0.00000000E+00
  0.00000000E+00  0.00000000E+00  0.00000000E+00
  0.00000000E+00  0.00000000E+00  0.00000000E+00
  0.00000000E+00  0.00000000E+00  0.00000000E+00
  0.00000000E+00  0.00000000E+00  0.00000000E+00
  0.00000000E+00  0.00000000E+00  0.00000000E+00
  0.00000000E+00  0.00000000E+00  0.00000000E+00
  0.00000000E+00  0.00000000E+00  0.00000000E+00
  0.00000000E+00  0.00000000E+00  0.00000000E+00
  0.00000000E+00  0.00000000E+00  0.00000000E+00
  0.00000000E+00  0.00000000E+00  0.00000000E+00
  0.00000000E+00  0.00000000E+00  0.00000000E+00
  0.00000000E+00  0.00000000E+00  0.00000000E+00
  0.00000000E+00  0.00000000E+00  0.00000000E+00
  0.00000000E+00  0.00000000E+00  0.00000000E+00
  0.00000000E+00  0.00000000E+00  0.00000000E+00
  0.00000000E+00  0.00000000E+00  0.00000000E+00
  0.00000000E+00  0.00000000E+00  0.00000000E+00
  0.00000000E+00  0.00000000E+00  0.00000000E+00
  0.00000000E+00  0.00000000E+00  0.00000000E+00
  0.00000000E+00  0.00000000E+00  0.00000000E+00
  0.00000000E+00  0.00000000E+00  0.00000000E+00
  0.00000000E+00  0.00000000E+00  0.00000000E+00
  0.00000000E+00  0.00000000E+00  0.00000000E+00
  0.00000000E+00  0.00000000E+00  0.00000000E+00
  0.00000000E+00  0.00000000E+00  0.00000000E+00
  0.00000000E+00  0.00000000E+00  0.00000000E+00
  0.00000000E+00  0.00000000E+00  0.00000000E+00
  0.00000000E+00  0.00000000E+00  0.00000000E+00
  0.00000000E+00  0.00000000E+00  0.00000000E+00
  0.00000000E+00  0.00000000E+00  0.00000000E+00
  0.00000000E+00  0.00000000E+00  0.00000000E+00
  0.00000000E+00  0.00000000E+00  0.00000000E+00
  0.00000000E+00  0.00000000E+00  0.00000000E+00
  0.00000000E+00  0.00000000E+00  0.00000000E+00
