Mn4 O4 F8                               
   1.00000000000000     
     4.7364561671723946    0.0002810835734950   -0.0001451207082850
    -0.0001593855695885    5.0856709806589526   -0.0127204119993848
    -0.0000124814320206    0.0137997486144016    7.1197722442546052
   Mn   O    F 
     4     4     8
Direct
  0.4951798197762544  0.0242903387263590  0.0005782723336536
  0.9952503177877425  0.4756861797569552  0.9993613569341845
  0.5049021574418889  0.9757652179147289  0.5006343136824899
  0.0048922478823686  0.5242549586640737  0.4993882342385871
  0.6802391490039575  0.3114965700338799  0.0695804633371867
  0.1802670682303418  0.1885387708775663  0.9304171498390006
  0.3192141345539602  0.6891704297795088  0.5695949311158400
  0.8192065480135101  0.8108019665460448  0.4304022402228236
  0.3116269807477325  0.6943072501537239  0.9464062536842810
  0.8116312380948927  0.8057223209074128  0.0536131697038544
  0.6887746067893872  0.3053407425820863  0.4464618468657559
  0.1887627487147574  0.1946253829180566  0.5535475214188184
  0.1296550328846475  0.4726521785083911  0.2495827709157241
  0.8703640902468233  0.5272621470489357  0.7496463371838735
  0.6296602777718303  0.0273342511395476  0.7504250554730386
  0.3703735820598982  0.9727512944427223  0.2503600830508950
 
  0.00000000E+00  0.00000000E+00  0.00000000E+00
  0.00000000E+00  0.00000000E+00  0.00000000E+00
  0.00000000E+00  0.00000000E+00  0.00000000E+00
  0.00000000E+00  0.00000000E+00  0.00000000E+00
  0.00000000E+00  0.00000000E+00  0.00000000E+00
  0.00000000E+00  0.00000000E+00  0.00000000E+00
  0.00000000E+00  0.00000000E+00  0.00000000E+00
  0.00000000E+00  0.00000000E+00  0.00000000E+00
  0.00000000E+00  0.00000000E+00  0.00000000E+00
  0.00000000E+00  0.00000000E+00  0.00000000E+00
  0.00000000E+00  0.00000000E+00  0.00000000E+00
  0.00000000E+00  0.00000000E+00  0.00000000E+00
  0.00000000E+00  0.00000000E+00  0.00000000E+00
  0.00000000E+00  0.00000000E+00  0.00000000E+00
  0.00000000E+00  0.00000000E+00  0.00000000E+00
  0.00000000E+00  0.00000000E+00  0.00000000E+00
