Na4 Cr4 O8 F4                           
   1.00000000000000     
     5.3677239421483964    0.0160183272852792    0.0063318808034693
    -0.0061878033285397    5.4230987410756439   -0.0240878323843717
    -0.0099558849959338    0.0058982622911009    7.1282938140567387
   Na   Cr   O    F 
     4     4     8     4
Direct
  0.0117260565433712  0.0471578413657775  0.2526941031908532
  0.0040841937107419  0.9732804059988144  0.7521124335107428
  0.4816190305845734  0.4463173643369361  0.7494232460935341
  0.4778919051621915  0.5106428528165420  0.2501180864434850
  0.5456289220676263  0.9854647094311499  0.0032792333927674
  0.9633381784237616  0.4869043545448977  0.0023777797384952
  0.4867715702554881  0.9629052392857192  0.4998820702266037
  0.9852803569524260  0.5445173701581222  0.4965670581614190
  0.0556371754487913  0.4841030357039194  0.2495573369190695
  0.9567641134261111  0.5165475850343465  0.7490877875936562
  0.5541465322735075  0.0156992573181534  0.7486792952459828
  0.4472637232497106  0.0009358699862882  0.2481335386310330
  0.6996840838057323  0.2995716900615618  0.0280804745430069
  0.8103837656427099  0.8014132967418337  0.0341789121246680
  0.3021901253632924  0.6986369579572868  0.5256264813685324
  0.8030240481024243  0.8097806881204668  0.4679036275900827
  0.3152018472957475  0.7019972563490792  0.9708323601614661
  0.1958752177802358  0.2048013641352633  0.9679585501661222
  0.7010147528893922  0.3132643467985856  0.4715610811619018
  0.2024744010221578  0.1960585138552562  0.5319465437365709
 
  0.00000000E+00  0.00000000E+00  0.00000000E+00
  0.00000000E+00  0.00000000E+00  0.00000000E+00
  0.00000000E+00  0.00000000E+00  0.00000000E+00
  0.00000000E+00  0.00000000E+00  0.00000000E+00
  0.00000000E+00  0.00000000E+00  0.00000000E+00
  0.00000000E+00  0.00000000E+00  0.00000000E+00
  0.00000000E+00  0.00000000E+00  0.00000000E+00
  0.00000000E+00  0.00000000E+00  0.00000000E+00
  0.00000000E+00  0.00000000E+00  0.00000000E+00
  0.00000000E+00  0.00000000E+00  0.00000000E+00
  0.00000000E+00  0.00000000E+00  0.00000000E+00
  0.00000000E+00  0.00000000E+00  0.00000000E+00
  0.00000000E+00  0.00000000E+00  0.00000000E+00
  0.00000000E+00  0.00000000E+00  0.00000000E+00
  0.00000000E+00  0.00000000E+00  0.00000000E+00
  0.00000000E+00  0.00000000E+00  0.00000000E+00
  0.00000000E+00  0.00000000E+00  0.00000000E+00
  0.00000000E+00  0.00000000E+00  0.00000000E+00
  0.00000000E+00  0.00000000E+00  0.00000000E+00
  0.00000000E+00  0.00000000E+00  0.00000000E+00
