Na8 Ti8 O16 F8                          
   1.00000000000000     
     7.6455643399772510    0.0217129587193160   -0.0190840691589781
     0.0052989956125164    7.6576858192264625    0.0013186869081735
    -0.0153987667306457   -0.0050307557519369    7.6506423694800443
   Na   Ti   O    F 
     8     8    16     8
Direct
  0.2353774233025504  0.2557026135003912  0.2545961481162455
  0.2448804084159003  0.2621636291479604  0.7630785691722061
  0.2520441327956160  0.7390020077922519  0.2417111772858567
  0.2623331654858717  0.7435283139829377  0.7631460602443670
  0.7358528778315556  0.2466398122877766  0.2440465848523592
  0.7491764149347967  0.2542159178540008  0.7623989877915149
  0.7451009513335861  0.7371830290433230  0.2376286511751873
  0.7628779210703674  0.7363497786747252  0.7552683800493910
  0.0012442475701127  0.9996943030375712  0.0101106886259904
  0.0023091484806892  0.9866549093758057  0.5096365910174968
  0.9992593572227699  0.5007165970939792 -0.0004631433689455
  0.0002263203307966  0.5119365422710466  0.5014882364839454
  0.5004819916298900  0.9971258798806946  0.9879829630164886
  0.5022489259622773  0.9902154889063060  0.5130850791591222
  0.4993611712643080  0.4993235270283187  0.9993877568482639
  0.5011239107285428  0.4894945478923734  0.5008370659335816
  0.2463971353444647  0.0116062841806098  0.9634308024924884
  0.2492828029682471  0.4921826239320139  0.9802356600508907
  0.2538752215092354  0.4641103312507802  0.5163690429727797
  0.7539832662424558  0.9910835765485159  0.0370223341818949
  0.7493804173187756  0.5125182795297394  0.0165375911127827
  0.7460383799083448  0.5356666615925272  0.4817393819442740
  0.0345458406955241  0.7555969023086654  0.5497683358655568
  0.5133436600830371  0.2527118195845173  0.9588238473151315
  0.5421462430758170  0.2467541292943103  0.5326196694220808
  0.4856618504319685  0.7496495425039007  0.0436204734614806
  0.4625071612833819  0.7577266403088772  0.4587212646245121
  0.0422042424525105  0.9664400849057516  0.2535232307780014
  0.9631412562541543  0.0421096818337887  0.7426389590728011
  0.0192783045131769  0.5405060386541084  0.2477153331363039
  0.9793565979770988  0.4568697494326004  0.7508602164119508
  0.5369335871811360  0.9512162326395838  0.7443380276413021
  0.2511731941203524  0.0549040470341682  0.5371005404658420
  0.7509565667889443  0.9633330371344336  0.4448580835609525
  0.9908159746097065  0.2510284675781486  0.0577562191643198
  0.9656829366765619  0.2467743325991610  0.4460696778995891
  0.0076664187943325  0.7519510913359255  0.9413999793868334
  0.4645595007999302  0.0537267155986449  0.2531087287398809
  0.4803271187027524  0.4427108360613479  0.2492719914607177
  0.5168439539084542  0.5588759963884198  0.7485308124345403
 
  0.00000000E+00  0.00000000E+00  0.00000000E+00
  0.00000000E+00  0.00000000E+00  0.00000000E+00
  0.00000000E+00  0.00000000E+00  0.00000000E+00
  0.00000000E+00  0.00000000E+00  0.00000000E+00
  0.00000000E+00  0.00000000E+00  0.00000000E+00
  0.00000000E+00  0.00000000E+00  0.00000000E+00
  0.00000000E+00  0.00000000E+00  0.00000000E+00
  0.00000000E+00  0.00000000E+00  0.00000000E+00
  0.00000000E+00  0.00000000E+00  0.00000000E+00
  0.00000000E+00  0.00000000E+00  0.00000000E+00
  0.00000000E+00  0.00000000E+00  0.00000000E+00
  0.00000000E+00  0.00000000E+00  0.00000000E+00
  0.00000000E+00  0.00000000E+00  0.00000000E+00
  0.00000000E+00  0.00000000E+00  0.00000000E+00
  0.00000000E+00  0.00000000E+00  0.00000000E+00
  0.00000000E+00  0.00000000E+00  0.00000000E+00
  0.00000000E+00  0.00000000E+00  0.00000000E+00
  0.00000000E+00  0.00000000E+00  0.00000000E+00
  0.00000000E+00  0.00000000E+00  0.00000000E+00
  0.00000000E+00  0.00000000E+00  0.00000000E+00
  0.00000000E+00  0.00000000E+00  0.00000000E+00
  0.00000000E+00  0.00000000E+00  0.00000000E+00
  0.00000000E+00  0.00000000E+00  0.00000000E+00
  0.00000000E+00  0.00000000E+00  0.00000000E+00
  0.00000000E+00  0.00000000E+00  0.00000000E+00
  0.00000000E+00  0.00000000E+00  0.00000000E+00
  0.00000000E+00  0.00000000E+00  0.00000000E+00
  0.00000000E+00  0.00000000E+00  0.00000000E+00
  0.00000000E+00  0.00000000E+00  0.00000000E+00
  0.00000000E+00  0.00000000E+00  0.00000000E+00
  0.00000000E+00  0.00000000E+00  0.00000000E+00
  0.00000000E+00  0.00000000E+00  0.00000000E+00
  0.00000000E+00  0.00000000E+00  0.00000000E+00
  0.00000000E+00  0.00000000E+00  0.00000000E+00
  0.00000000E+00  0.00000000E+00  0.00000000E+00
  0.00000000E+00  0.00000000E+00  0.00000000E+00
  0.00000000E+00  0.00000000E+00  0.00000000E+00
  0.00000000E+00  0.00000000E+00  0.00000000E+00
  0.00000000E+00  0.00000000E+00  0.00000000E+00
  0.00000000E+00  0.00000000E+00  0.00000000E+00
