Disodium pentafluoromanganate(III)      
   1.00000000000000     
     7.6163472935361005   -0.0000091573412294    0.0227034304510418
    -0.0000062008781041    5.1866811648965339   -0.0000016079793148
    -3.4636942185472219    0.0000014486710638   10.1793413947573370
   Mn   Na   F 
     4     8    20
Direct
 -0.0000136778315903 -0.0000256451410888  0.0000044217770285
 -0.0000159295484119  0.5000235135624059  0.5000018532073230
  0.5000309940944981  0.0000189985375151  0.0000201538756187
  0.5000306952360437  0.4999811865642870  0.5000198457374254
  0.1508215928201715  0.9905410708870793  0.3680210006390880
  0.8491724077953899  0.0094570702282022  0.6319742816958737
  0.8491729313616581  0.4905435322911663  0.1319746416419961
  0.1508218454852154  0.5094595220439095  0.8680213687996261
  0.3442030694635346  0.4393090835123707  0.1816979196158800
  0.6557961197260105  0.5606945444267427  0.8183148715981055
  0.6557957016669550  0.9393060727214014  0.3183144621614355
  0.3442027888889705  0.0606913584420499  0.6816978766610788
  0.0486377550532941  0.1568457997979649  0.1678831757671720
  0.9513741586008442  0.8431803714180530  0.8321246768856120
  0.9513740720929156  0.6568184212231135  0.3321251024971182
  0.0486377791697052  0.3431545022326608  0.6678836948661543
  0.8904795220310036  0.3036759750429456  0.9244668095466091
  0.1095245703734912  0.6963570960244720  0.0755100579523218
  0.1095250149812422  0.8036436439744399  0.5755104763427690
  0.8904806580895677  0.1963254964300833  0.4244680290867139
  0.2506610947794928  0.1681014222893659  0.0038367942660352
  0.7493359163303173  0.8319368861234624  0.9961676621466108
  0.7493356058301071  0.6680633768518174  0.4961676501095590
  0.2506609226880655  0.3318988063758623  0.5038368869794766
  0.6212025908666936  0.2198596287085469  0.1378901035550852
  0.3787950167315853  0.7801076435463881  0.8620961573287601
  0.3787875407095344  0.7198867531514737  0.3620969805022139
  0.6212026070603109  0.2801415449837931  0.6378903215818390
  0.4921298690324648  0.2509017139911777  0.8739650145028900
  0.5078534115570171  0.7490960121777189  0.1260261287425608
  0.5078535471918426  0.7509052301390428  0.6260265113284854
  0.4921297996720663  0.2490993594415759  0.3739650876015470
 
  0.00000000E+00  0.00000000E+00  0.00000000E+00
  0.00000000E+00  0.00000000E+00  0.00000000E+00
  0.00000000E+00  0.00000000E+00  0.00000000E+00
  0.00000000E+00  0.00000000E+00  0.00000000E+00
  0.00000000E+00  0.00000000E+00  0.00000000E+00
  0.00000000E+00  0.00000000E+00  0.00000000E+00
  0.00000000E+00  0.00000000E+00  0.00000000E+00
  0.00000000E+00  0.00000000E+00  0.00000000E+00
  0.00000000E+00  0.00000000E+00  0.00000000E+00
  0.00000000E+00  0.00000000E+00  0.00000000E+00
  0.00000000E+00  0.00000000E+00  0.00000000E+00
  0.00000000E+00  0.00000000E+00  0.00000000E+00
  0.00000000E+00  0.00000000E+00  0.00000000E+00
  0.00000000E+00  0.00000000E+00  0.00000000E+00
  0.00000000E+00  0.00000000E+00  0.00000000E+00
  0.00000000E+00  0.00000000E+00  0.00000000E+00
  0.00000000E+00  0.00000000E+00  0.00000000E+00
  0.00000000E+00  0.00000000E+00  0.00000000E+00
  0.00000000E+00  0.00000000E+00  0.00000000E+00
  0.00000000E+00  0.00000000E+00  0.00000000E+00
  0.00000000E+00  0.00000000E+00  0.00000000E+00
  0.00000000E+00  0.00000000E+00  0.00000000E+00
  0.00000000E+00  0.00000000E+00  0.00000000E+00
  0.00000000E+00  0.00000000E+00  0.00000000E+00
  0.00000000E+00  0.00000000E+00  0.00000000E+00
  0.00000000E+00  0.00000000E+00  0.00000000E+00
  0.00000000E+00  0.00000000E+00  0.00000000E+00
  0.00000000E+00  0.00000000E+00  0.00000000E+00
  0.00000000E+00  0.00000000E+00  0.00000000E+00
  0.00000000E+00  0.00000000E+00  0.00000000E+00
  0.00000000E+00  0.00000000E+00  0.00000000E+00
  0.00000000E+00  0.00000000E+00  0.00000000E+00
