Sodium trifluoroniccolate               
   1.00000000000000     
     5.3024698414831528   -0.0000001337761223   -0.0000031059542526
    -0.0000001257944511    5.4973066988663923    0.0000008863908213
    -0.0000044695747074    0.0000011934997801    7.6026779772833546
   Ni   Na   F 
     4     4    12
Direct
  0.9995938904932028  0.0001162953119755  0.0003660237421963
  0.4995937231522535  0.4998836185828112  0.9996336499057282
  0.9995935010777888  0.0001164983654859  0.4996334481622157
  0.4995934595714302  0.4998835018070246  0.5003665281857174
  0.0175046878269978  0.4382029524617568  0.2499995346147985
  0.9829105841069867  0.5617166899088976  0.7500006620887552
  0.5175047209597456  0.0617970374290927  0.7499992473867496
  0.4829107166101659  0.9382833414905467  0.2500012286287845
  0.3067375750724812  0.1976101723530566  0.0553164552544552
  0.6934365844282075  0.8022337317120583  0.9447252262978778
  0.8067375247351821  0.3023899127639859  0.9446837907372141
  0.1934365486367109  0.6977661462570620  0.0552744363266577
  0.6934365412648962  0.8022337232786683  0.5552744598919386
  0.3067373681516949  0.1976101298764718  0.4446837460355854
  0.1934365394454288  0.6977664152985428  0.4447252416633424
  0.8067373792982580  0.3023897799443089  0.5553164253298992
  0.6073798534297650  0.5373373582482062  0.2500001516051185
  0.3926693611277465  0.4623998695812086  0.7500000076329409
  0.1073799503918599  0.9626626736843953  0.7499999038756147
  0.8926694892192085  0.0376001216444630  0.2499998486344045
 
  0.00000000E+00  0.00000000E+00  0.00000000E+00
  0.00000000E+00  0.00000000E+00  0.00000000E+00
  0.00000000E+00  0.00000000E+00  0.00000000E+00
  0.00000000E+00  0.00000000E+00  0.00000000E+00
  0.00000000E+00  0.00000000E+00  0.00000000E+00
  0.00000000E+00  0.00000000E+00  0.00000000E+00
  0.00000000E+00  0.00000000E+00  0.00000000E+00
  0.00000000E+00  0.00000000E+00  0.00000000E+00
  0.00000000E+00  0.00000000E+00  0.00000000E+00
  0.00000000E+00  0.00000000E+00  0.00000000E+00
  0.00000000E+00  0.00000000E+00  0.00000000E+00
  0.00000000E+00  0.00000000E+00  0.00000000E+00
  0.00000000E+00  0.00000000E+00  0.00000000E+00
  0.00000000E+00  0.00000000E+00  0.00000000E+00
  0.00000000E+00  0.00000000E+00  0.00000000E+00
  0.00000000E+00  0.00000000E+00  0.00000000E+00
  0.00000000E+00  0.00000000E+00  0.00000000E+00
  0.00000000E+00  0.00000000E+00  0.00000000E+00
  0.00000000E+00  0.00000000E+00  0.00000000E+00
  0.00000000E+00  0.00000000E+00  0.00000000E+00
