Co4 O4 F8                               
   1.00000000000000     
     4.9436529406502672    0.0241415835471356   -0.0038153625866767
     0.0166889347984233    5.2284617825890027    0.0005321624103133
     0.0038355148812119   -0.0029388588964259    7.2119274850180899
   Co   O    F 
     4     4     8
Direct
  0.4856702658600285  0.9942472098478822  0.0044589789559326
  0.9842375534036606  0.5042850139873039  0.0068488990119553
  0.5142535653916963  0.0057019269075535  0.5044713639949222
  0.0157291550535198  0.4957453391751002  0.5068144669314757
  0.8092889894692195  0.8179776159348380  0.0606814604951061
  0.1908806083847731  0.1821544413008752  0.5607933786727149
  0.6193217396954475  0.0223289962070703  0.7531153794546733
  0.3804886224895593  0.9776939944269267  0.2531026078325154
  0.6728378551331154  0.3174360282868793  0.0563618482261301
  0.2969194493548670  0.6903972535380611  0.9372691348278412
  0.1753495323410980  0.1939189578434240  0.9319993994577677
  0.3273315879164251  0.6826683690939417  0.5564652052270718
  0.7032197183314571  0.3093309317301709  0.4372095541029622
  0.8247194411058775  0.8059478597431141  0.4320295550371450
  0.1360494968825910  0.4654912414194455  0.2492540658904438
  0.8637024191866715  0.5346748205574207  0.7491247018813281
 
  0.00000000E+00  0.00000000E+00  0.00000000E+00
  0.00000000E+00  0.00000000E+00  0.00000000E+00
  0.00000000E+00  0.00000000E+00  0.00000000E+00
  0.00000000E+00  0.00000000E+00  0.00000000E+00
  0.00000000E+00  0.00000000E+00  0.00000000E+00
  0.00000000E+00  0.00000000E+00  0.00000000E+00
  0.00000000E+00  0.00000000E+00  0.00000000E+00
  0.00000000E+00  0.00000000E+00  0.00000000E+00
  0.00000000E+00  0.00000000E+00  0.00000000E+00
  0.00000000E+00  0.00000000E+00  0.00000000E+00
  0.00000000E+00  0.00000000E+00  0.00000000E+00
  0.00000000E+00  0.00000000E+00  0.00000000E+00
  0.00000000E+00  0.00000000E+00  0.00000000E+00
  0.00000000E+00  0.00000000E+00  0.00000000E+00
  0.00000000E+00  0.00000000E+00  0.00000000E+00
  0.00000000E+00  0.00000000E+00  0.00000000E+00
