Ti4 O4 F8                               
   1.00000000000000     
     5.4423917925419412   -0.0000000118129811   -0.0000001896696600
    -0.0000000126860988    5.5145326200217939   -0.0000000270939710
    -0.0000002516298382   -0.0000000418139450    7.2669048856104981
   Ti   O    F 
     4     4     8
Direct
  0.4999977565341780  0.0000011835334774  0.9999993495660036
  0.9999976442326854  0.4999986881239948  0.0000006283467471
  0.4999976896188443  0.0000013197643156  0.5000010716387067
  0.9999976008120086  0.4999987362828122  0.4999991517498614
  0.0611951357183500  0.4929232951092501  0.2499999235554498
  0.9388055877745529  0.5070761083325692  0.7500000195494323
  0.5611951247705989  0.0070767257705739  0.7499999688046515
  0.4388055634306411  0.9929238951483512  0.2500000371168767
  0.7216966482034977  0.2772960838685279  0.0368467354668383
  0.2783053160285505  0.7227051885125988  0.9631555532315232
  0.2216966914478107  0.2227039250777452  0.9631531637131872
  0.7783053463873912  0.7772947648668023  0.0368444744523018
  0.2783053078530884  0.7227052129922384  0.5368443967179815
  0.7216966300098306  0.2772960849263271  0.4631532408762880
  0.7783053230185004  0.7772948477813344  0.4631556278344888
  0.2216966341594642  0.2227039399090813  0.5368466573796553
 
  0.00000000E+00  0.00000000E+00  0.00000000E+00
  0.00000000E+00  0.00000000E+00  0.00000000E+00
  0.00000000E+00  0.00000000E+00  0.00000000E+00
  0.00000000E+00  0.00000000E+00  0.00000000E+00
  0.00000000E+00  0.00000000E+00  0.00000000E+00
  0.00000000E+00  0.00000000E+00  0.00000000E+00
  0.00000000E+00  0.00000000E+00  0.00000000E+00
  0.00000000E+00  0.00000000E+00  0.00000000E+00
  0.00000000E+00  0.00000000E+00  0.00000000E+00
  0.00000000E+00  0.00000000E+00  0.00000000E+00
  0.00000000E+00  0.00000000E+00  0.00000000E+00
  0.00000000E+00  0.00000000E+00  0.00000000E+00
  0.00000000E+00  0.00000000E+00  0.00000000E+00
  0.00000000E+00  0.00000000E+00  0.00000000E+00
  0.00000000E+00  0.00000000E+00  0.00000000E+00
  0.00000000E+00  0.00000000E+00  0.00000000E+00
