Na4 Ni4 O8 F4                           
   1.00000000000000     
     5.1943439624349814    0.1919591433679713   -0.0178233551368232
     0.2030426811579339    5.3195210333612319   -0.0318415147902264
     0.0435524296955932    0.0100554054485167    7.4310636989513927
   Na   Ni   O    F 
     4     4     8     4
Direct
  0.9781369723281628  0.0516600814964787  0.2520287097469655
 -0.0013924898485033  0.9605214820044178  0.7386159658760246
  0.5135262047880469  0.4539842932612404  0.7416873628714925
  0.5233413325069197  0.5437723623777450  0.2622423261189422
  0.4919085222456961  0.9790883621448124  0.9936891701435190
  0.0062290664824557  0.5050227471122948  0.0025650144438966
  0.4951500180428137  0.9833153548786161  0.5079723089283612
  0.0128811241236168  0.5139756862809253  0.4947970806995656
  0.2928078536534629  0.6898056683847114  0.9583057917742173
  0.1945778100060722  0.2042519164501089  0.9457286722186145
  0.7967553295533869  0.7823637193153243  0.0615105527541994
  0.2911458047582060  0.7087658281467829  0.5462244171140621
  0.7908399996373024  0.7877253214094759  0.4412578922119313
  0.2058934798739629  0.2143374473621344  0.5530791486993325
  0.0977762839590026  0.4738319562420583  0.2542124494598560
  0.5658529543068286  0.0231374621458695  0.7477405616920282
  0.7107411885675159  0.2948595014647194  0.0375817673622949
  0.7172920859792646  0.2861448215019216  0.4632976538654916
  0.9097079803686835  0.5458459654775046  0.7455809041157794
  0.4068284786670879  0.9975900225428591  0.2518822499034254
 
  0.00000000E+00  0.00000000E+00  0.00000000E+00
  0.00000000E+00  0.00000000E+00  0.00000000E+00
  0.00000000E+00  0.00000000E+00  0.00000000E+00
  0.00000000E+00  0.00000000E+00  0.00000000E+00
  0.00000000E+00  0.00000000E+00  0.00000000E+00
  0.00000000E+00  0.00000000E+00  0.00000000E+00
  0.00000000E+00  0.00000000E+00  0.00000000E+00
  0.00000000E+00  0.00000000E+00  0.00000000E+00
  0.00000000E+00  0.00000000E+00  0.00000000E+00
  0.00000000E+00  0.00000000E+00  0.00000000E+00
  0.00000000E+00  0.00000000E+00  0.00000000E+00
  0.00000000E+00  0.00000000E+00  0.00000000E+00
  0.00000000E+00  0.00000000E+00  0.00000000E+00
  0.00000000E+00  0.00000000E+00  0.00000000E+00
  0.00000000E+00  0.00000000E+00  0.00000000E+00
  0.00000000E+00  0.00000000E+00  0.00000000E+00
  0.00000000E+00  0.00000000E+00  0.00000000E+00
  0.00000000E+00  0.00000000E+00  0.00000000E+00
  0.00000000E+00  0.00000000E+00  0.00000000E+00
  0.00000000E+00  0.00000000E+00  0.00000000E+00
