Ti8 O8 F16                              
   1.00000000000000     
     7.5827159038618914   -0.0000000368532912   -0.0000000862379537
    -0.0000000441884039    7.8620229077246426   -0.0000001048501741
    -0.0000000917761134   -0.0000001001188623    7.6178411584704691
   Ti   O    F 
     8     8    16
Direct
  0.9999987041295534  0.9999999929933019  0.9873837138065886
  0.9999986905528324 -0.0000000009913924  0.5126162738314241
  0.9999133646794004  0.4999999928819275  0.0120205406718362
  0.9999133271635063  0.5000000080779914  0.4879796767267372
  0.4999976183156453  0.0000000813811262  0.0006002668552147
  0.4999976091897034  0.9999999641625787  0.4993997061887119
  0.4999339627360653  0.5000000441222917  0.9994485525791330
  0.4999340683942251  0.4999999386581417  0.5005514168202234
  0.9999959392204048 -0.0000000001899925  0.7500000062856044
  0.0000094891714310  0.5000000017106129  0.2499999529396881
  0.4999932123862260  0.0000000026887964  0.2500000124823851
  0.4999941050447508  0.0000000064925584  0.7499999770283398
  0.2531186095632716  0.5000000009890627  0.9960211037151837
  0.2531185779747424  0.4999999973696417  0.5039788717765356
  0.7469899646570449  0.4999999982217629  0.9960166853978938
  0.7469899544126353  0.4999999936440542  0.5039833274953739
  0.9999944682293048 -0.0000000018430045  0.2500000042095640
  0.0000390137910719  0.4999999900239945  0.7499999966551548
  0.5000214904344162  0.4999999864317441  0.2500000138647278
  0.5000240500501743  0.4999999809568163  0.7499999667854182
  0.2462354602181493  0.0000000091407596  0.0068038086978950
  0.2462354660874018 -0.0000000001224001  0.4931962282823676
  0.7537544912836591  0.0000000032077619  0.0068098106957145
  0.7537544885705962  0.9999999951114945  0.4931901313159209
  0.0000113219303396  0.2400974654761922  0.0020596598918945
  0.0000113317685648  0.2400975209885077  0.4979402031528127
  0.0000113228409574  0.7599025377365141  0.0020597819945528
  0.0000113348322982  0.7599024998303098  0.4979403386534934
  0.4999996457100673  0.2459293299549086  0.0000828313707559
  0.4999996375630437  0.2459292592784646  0.4999173510205525
  0.4999996389562787  0.7540707417311712  0.0000826336904903
  0.4999996401422312  0.7540706598843091  0.4999171551177971
 
  0.00000000E+00  0.00000000E+00  0.00000000E+00
  0.00000000E+00  0.00000000E+00  0.00000000E+00
  0.00000000E+00  0.00000000E+00  0.00000000E+00
  0.00000000E+00  0.00000000E+00  0.00000000E+00
  0.00000000E+00  0.00000000E+00  0.00000000E+00
  0.00000000E+00  0.00000000E+00  0.00000000E+00
  0.00000000E+00  0.00000000E+00  0.00000000E+00
  0.00000000E+00  0.00000000E+00  0.00000000E+00
  0.00000000E+00  0.00000000E+00  0.00000000E+00
  0.00000000E+00  0.00000000E+00  0.00000000E+00
  0.00000000E+00  0.00000000E+00  0.00000000E+00
  0.00000000E+00  0.00000000E+00  0.00000000E+00
  0.00000000E+00  0.00000000E+00  0.00000000E+00
  0.00000000E+00  0.00000000E+00  0.00000000E+00
  0.00000000E+00  0.00000000E+00  0.00000000E+00
  0.00000000E+00  0.00000000E+00  0.00000000E+00
  0.00000000E+00  0.00000000E+00  0.00000000E+00
  0.00000000E+00  0.00000000E+00  0.00000000E+00
  0.00000000E+00  0.00000000E+00  0.00000000E+00
  0.00000000E+00  0.00000000E+00  0.00000000E+00
  0.00000000E+00  0.00000000E+00  0.00000000E+00
  0.00000000E+00  0.00000000E+00  0.00000000E+00
  0.00000000E+00  0.00000000E+00  0.00000000E+00
  0.00000000E+00  0.00000000E+00  0.00000000E+00
  0.00000000E+00  0.00000000E+00  0.00000000E+00
  0.00000000E+00  0.00000000E+00  0.00000000E+00
  0.00000000E+00  0.00000000E+00  0.00000000E+00
  0.00000000E+00  0.00000000E+00  0.00000000E+00
  0.00000000E+00  0.00000000E+00  0.00000000E+00
  0.00000000E+00  0.00000000E+00  0.00000000E+00
  0.00000000E+00  0.00000000E+00  0.00000000E+00
  0.00000000E+00  0.00000000E+00  0.00000000E+00
