Na8 V8 O16 F8                           
   1.00000000000000     
     7.7900641910736725    0.0070537608553727   -0.0006738667031523
     0.0394945499720892    7.4130940110880363   -0.0001131753414918
     0.0002610342968634   -0.0000689263915970    7.4839241819182147
   Na   V    O    F 
     8     8    16     8
Direct
  0.2442887923153087  0.2433806435929657  0.2582539242998662
  0.2442372562806628  0.2434119448868489  0.7417549619559598
  0.2472907444910260  0.7592475261822029  0.2482617041223965
  0.2462547644688976  0.7595631061072875  0.7511772051291054
  0.7567162995803449  0.2538201335621293  0.2432473868368244
  0.7575305446247024  0.2527899663138315  0.7580138647144560
  0.7559790886528419  0.7500573047719830  0.2513985233630963
  0.7568756776860538  0.7497506122401932  0.7499219845324347
  0.0029153886607452  0.9999105211093220  0.0001811526116975
  0.9908405241586127  0.0046123933838132  0.4999911594465530
  0.0005815620679771  0.4991505634603967 -0.0000612212160557
  0.9969151760704892  0.5030853369645611  0.4998154855301960
  0.5023218108337824  0.0018104521048889 -0.0000637462994539
  0.5298097462438462  0.9910732462781672  0.5000282978053694
  0.4970625904106864  0.4977545620479403 -0.0001302024555847
  0.4988836148666620  0.5112331164673845  0.4999723356311655
  0.7419185153402877  0.0619298509160369  0.4998749767264836
  0.9548601678445880  0.2379915121178657  0.0002810102022641
  0.0434520334656748  0.2652550562366558  0.4996049240838276
  0.0493846569016388  0.7623339821508529  0.9997050449820262
  0.9491160028073311  0.7402065173949745  0.5003491817134040
  0.5515504118674753  0.2572479795049267  0.9996713991980273
  0.4525913808092140  0.7348692399858757 -0.0000725536745319
  0.5562939232137728  0.7513698500683201  0.4999598904696668
  0.0029294467077785  0.0007760094158949  0.2604118721262135
  0.0027876738039454  0.0014099440023355  0.7395878027258175
  0.9964716979503337  0.5021211848467978  0.2387100596215707
  0.9976303015341684  0.5015726270551260  0.7611342739331602
  0.5012692777325986  0.9957192092782845  0.2425053464056302
  0.5013834930869043  0.9955992236978121  0.7573181110767568
  0.4956142494413707  0.4895826814356612  0.2614274130479343
  0.4942013390004927  0.4897585073541604  0.7383213738243508
  0.2527040205071856  0.0608298190142079 -0.0001329785352683
  0.2551877796248287  0.9487967337781869  0.4999073594144527
  0.2491853932448132  0.4336529466568741  0.0005456383224873
  0.2477211455886059  0.5676536656580597  0.4990594306649250
  0.7520937732775510  0.9389355504415010  0.0000468872311966
  0.7481923474678324  0.5597359958409825  0.9993880602236835
  0.7465661954611508  0.4394045705304592  0.5007542170608962
  0.4283911919078111  0.2425959131442313  0.4998784431470055
 
  0.00000000E+00  0.00000000E+00  0.00000000E+00
  0.00000000E+00  0.00000000E+00  0.00000000E+00
  0.00000000E+00  0.00000000E+00  0.00000000E+00
  0.00000000E+00  0.00000000E+00  0.00000000E+00
  0.00000000E+00  0.00000000E+00  0.00000000E+00
  0.00000000E+00  0.00000000E+00  0.00000000E+00
  0.00000000E+00  0.00000000E+00  0.00000000E+00
  0.00000000E+00  0.00000000E+00  0.00000000E+00
  0.00000000E+00  0.00000000E+00  0.00000000E+00
  0.00000000E+00  0.00000000E+00  0.00000000E+00
  0.00000000E+00  0.00000000E+00  0.00000000E+00
  0.00000000E+00  0.00000000E+00  0.00000000E+00
  0.00000000E+00  0.00000000E+00  0.00000000E+00
  0.00000000E+00  0.00000000E+00  0.00000000E+00
  0.00000000E+00  0.00000000E+00  0.00000000E+00
  0.00000000E+00  0.00000000E+00  0.00000000E+00
  0.00000000E+00  0.00000000E+00  0.00000000E+00
  0.00000000E+00  0.00000000E+00  0.00000000E+00
  0.00000000E+00  0.00000000E+00  0.00000000E+00
  0.00000000E+00  0.00000000E+00  0.00000000E+00
  0.00000000E+00  0.00000000E+00  0.00000000E+00
  0.00000000E+00  0.00000000E+00  0.00000000E+00
  0.00000000E+00  0.00000000E+00  0.00000000E+00
  0.00000000E+00  0.00000000E+00  0.00000000E+00
  0.00000000E+00  0.00000000E+00  0.00000000E+00
  0.00000000E+00  0.00000000E+00  0.00000000E+00
  0.00000000E+00  0.00000000E+00  0.00000000E+00
  0.00000000E+00  0.00000000E+00  0.00000000E+00
  0.00000000E+00  0.00000000E+00  0.00000000E+00
  0.00000000E+00  0.00000000E+00  0.00000000E+00
  0.00000000E+00  0.00000000E+00  0.00000000E+00
  0.00000000E+00  0.00000000E+00  0.00000000E+00
  0.00000000E+00  0.00000000E+00  0.00000000E+00
  0.00000000E+00  0.00000000E+00  0.00000000E+00
  0.00000000E+00  0.00000000E+00  0.00000000E+00
  0.00000000E+00  0.00000000E+00  0.00000000E+00
  0.00000000E+00  0.00000000E+00  0.00000000E+00
  0.00000000E+00  0.00000000E+00  0.00000000E+00
  0.00000000E+00  0.00000000E+00  0.00000000E+00
  0.00000000E+00  0.00000000E+00  0.00000000E+00
