Na15 Ti16 O16 F32                       
   1.00000000000000     
    11.1138729001018710    0.1357930428174217   -0.0269138829710971
     0.1669632414284213   11.2892686909504860   -0.0183211842595947
     0.0151099358424256    0.0145988518247491    7.8415661705459758
   Na   Ti   O    F 
    15    16    16    32
Direct
  0.4913207878821384  0.4925931019368069  1.0006358940914846
  0.9984216360442337  0.0147887770141894  0.2541013303530552
  0.9922286576201635  0.5162124625068399  0.2576868545819459
  0.4985362121492623  0.0104011335740210  0.2551471933501451
  0.0031365542199243  0.4818857419896335  0.7441644083388669
  0.0008782642108450  0.9865393093933974  0.7457426611215161
  0.4992558530244416  0.9891312308136975  0.7418706625896984
  0.2491831794182404  0.2297397967021090  0.7490170468915645
  0.2564927057396799  0.7183561577421372  0.7492867931862472
  0.7414305510111024  0.2303081919579524  0.7524834320913751
  0.7463386338165103  0.7242164003657227  0.7432690851274968
  0.2526730839370195  0.2713584114493220  0.2582775642929898
  0.2532445775617397  0.7615790651872693  0.2465922483225717
  0.7389716382081892  0.2722634460079165  0.2524163269351132
  0.7411962109888112  0.7623758873723026  0.2546454189065839
  0.2354235724083438  0.0016559849689215  0.0151076777263765
  0.2271303502138322  0.5015965224316040  0.0149439244648478
  0.7424839342346193  0.0060043799827829  0.0143626278053088
  0.7475843458770537  0.5105814653523807  0.0145513034844114
  0.0002263645252526  0.2387038937649826  0.9794689015546915
  0.0046151279660582  0.7445860615012381  0.9794538923117089
  0.4983497316026104  0.2302762971090359  0.9815802657820278
  0.5094184404389304  0.7495915967098021  0.9797155925709221
  0.2369385844925690  0.0029543645742821  0.4863722069244787
  0.2410391296572228  0.5046944737108932  0.4874812561257656
  0.7390071064446251  0.0066879673186624  0.4849101513883974
  0.7353930040261899  0.5056263124930701  0.4848336746709747
  0.0013702728707289  0.2400915469818940  0.5179736605938126
  0.0056796071223896  0.7410374534117311  0.5217623821636703
  0.5011213076769849  0.2432023672453999  0.5189492173875396
  0.5042744576204825  0.7401121332679258  0.5185584549882861
  0.1037722256935006  0.1040788519898468  0.9688870210219868
  0.1027392122836706  0.6090627718375083  0.9623386009848919
  0.6097381202649721  0.1037517307819756  0.9657324185407107
  0.6245348110911690  0.6239639289768621  0.9710570080477424
  0.1040745692263884  0.1048223984712310  0.5297396690532269
  0.1072298836763041  0.6064852386965194  0.5391957581868831
  0.6067858887010124  0.1072018000502867  0.5285929034373210
  0.6121495915675615  0.6132784397989398  0.5291541435927770
  0.4627884132381689  0.2469845615485030  0.7510854777802459
  0.4679760916142457  0.7657697094635504  0.7490981567290128
  0.9576487050126254  0.2525707027189779  0.7487223732534757
  0.9595005615876834  0.7618166821037711  0.7510711882723273
  0.2100083094064433  0.4933817283858350  0.2509831136696670
  0.2155094756755938  0.9817827502665393  0.2509828027477947
  0.7290607649330695  0.4898302213431492  0.2495212860538803
  0.7209483354251701  0.9857291296224421  0.2486118843351060
  0.3535803817015855  0.1354124869945597  0.0567509691250713
  0.3565990156375435  0.6435008794023316  0.0378039814598544
  0.8486700845016258  0.1535951204607529  0.0557015170619039
  0.8598656073163294  0.6527228047324050  0.0605995989624494
  0.1393229112997448  0.3533021480314840  0.9406419343761918
  0.1567219327872273  0.8472439150526471  0.9465042372262998
  0.6437037123200101  0.3562450606864610  0.9637917223033102
  0.6584203477841569  0.8563426028710377  0.9454472459695007
  0.3645056664468435  0.3639572220905678  0.0419226382090558
  0.3985598589941382  0.8983925758586407  0.0340576152193554
  0.9025744214533084  0.3994774715361096  0.0301345618890880
  0.9081145115668838  0.9058811861735078  0.0331896832361807
  0.1483167398903449  0.3509882771831720  0.5476035438447245
  0.1537449497624311  0.8500168204127629  0.5553193384289179
  0.6539833993686150  0.3479184374903733  0.5364448413354730
  0.6542836811156214  0.8529787909146016  0.5444280215749222
  0.3511376793756869  0.1451375626770057  0.4528399596383527
  0.3483344855270423  0.6533908974201627  0.4634456306724816
  0.8511014131597380  0.1503722013178910  0.4437764434754277
  0.8546914835444370  0.6495081112223915  0.4530219004898720
  0.3853598032311477  0.3847184927033102  0.4615376275071961
  0.4002350592347984  0.9012753704379745  0.4696242593902924
  0.9018310144420973  0.3991821481091035  0.4690669357934998
  0.9038391843931532  0.9015252183207182  0.4676990972451430
  0.0371205127722204  0.2508954515332829  0.2485084084889396
  0.0402040817760999  0.7531668354325495  0.2515957003778865
  0.5320045369868900  0.2419412855268720  0.2475035994141134
  0.5319442336879167  0.7660430381131075  0.2505113743898295
  0.2904388769397397  0.0157920345541017  0.7512361556815450
  0.2883191250525798  0.5064807578519264  0.7573180065529747
  0.7955270753914614  0.0191636959423166  0.7486916024084442
  0.7966116222800229  0.5131099982671836  0.7482927950898159
 
             NaN             NaN             NaN
             NaN             NaN             NaN
             NaN             NaN             NaN
             NaN             NaN             NaN
             NaN             NaN             NaN
             NaN             NaN             NaN
             NaN             NaN             NaN
             NaN             NaN             NaN
             NaN             NaN             NaN
             NaN             NaN             NaN
             NaN             NaN             NaN
             NaN             NaN             NaN
             NaN             NaN             NaN
             NaN             NaN             NaN
             NaN             NaN             NaN
             NaN             NaN             NaN
             NaN             NaN             NaN
             NaN             NaN             NaN
             NaN             NaN             NaN
             NaN             NaN             NaN
             NaN             NaN             NaN
             NaN             NaN             NaN
             NaN             NaN             NaN
             NaN             NaN             NaN
             NaN             NaN             NaN
             NaN             NaN             NaN
             NaN             NaN             NaN
             NaN             NaN             NaN
             NaN             NaN             NaN
             NaN             NaN             NaN
             NaN             NaN             NaN
             NaN             NaN             NaN
             NaN             NaN             NaN
             NaN             NaN             NaN
             NaN             NaN             NaN
             NaN             NaN             NaN
             NaN             NaN             NaN
             NaN             NaN             NaN
             NaN             NaN             NaN
             NaN             NaN             NaN
             NaN             NaN             NaN
             NaN             NaN             NaN
             NaN             NaN             NaN
             NaN             NaN             NaN
             NaN             NaN             NaN
             NaN             NaN             NaN
             NaN             NaN             NaN
             NaN             NaN             NaN
             NaN             NaN             NaN
             NaN             NaN             NaN
             NaN             NaN             NaN
             NaN             NaN             NaN
             NaN             NaN             NaN
             NaN             NaN             NaN
             NaN             NaN             NaN
             NaN             NaN             NaN
             NaN             NaN             NaN
             NaN             NaN             NaN
             NaN             NaN             NaN
             NaN             NaN             NaN
             NaN             NaN             NaN
             NaN             NaN             NaN
             NaN             NaN             NaN
             NaN             NaN             NaN
             NaN             NaN             NaN
             NaN             NaN             NaN
             NaN             NaN             NaN
             NaN             NaN             NaN
             NaN             NaN             NaN
             NaN             NaN             NaN
             NaN             NaN             NaN
             NaN             NaN             NaN
             NaN             NaN             NaN
             NaN             NaN             NaN
             NaN             NaN             NaN
             NaN             NaN             NaN
             NaN             NaN             NaN
             NaN             NaN             NaN
             NaN             NaN             NaN
