Na15 Ti16 O16 F32
1.0
  11.1138729001018710    0.1357930428174217   -0.0269138829710971
   0.1669632414284213   11.2892686909504860   -0.0183211842595947
   0.0151099358424256    0.0145988518247491    7.8415661705459758
Na Ti O F
15 16 16 32
direct
   0.4980415094248793    0.4970482134292752   -0.0001427914542053 Na
   0.9972793078329263    0.0145417773812758    0.2502469252004784 Na
   0.9962412564484868    0.5137383766907485    0.2494144680312337 Na
   0.4973141345923709    0.0138210333973685    0.2499492383757013 Na
   0.0014113166333851    0.4837810829983787    0.7505957324619745 Na
   1.0002328370760050    0.9843880993683882    0.7502141951982211 Na
   0.4995133890225443    0.9870426884838583    0.7498314421709678 Na
   0.2499304881139696    0.2275861015112549    0.7501475134184146 Na
   0.2521925097678713    0.7221228614474670    0.7498620104946803 Na
   0.7466647206414917    0.2263910831762983    0.7494695371136103 Na
   0.7468281427002320    0.7231937345819142    0.7502953907058998 Na
   0.2544603162765218    0.2748814953579244    0.2504773212213991 Na
   0.2488513808544724    0.7660627575125734    0.2495817145555113 Na
   0.7431612368029683    0.2692596602160051    0.2491232978803700 Na
   0.7437249918964577    0.7664632979099784    0.2485065901013894 Na
   0.2373076013209932    0.0038345727004222    0.0144548946809191 Ti
   0.2390339249521514    0.5046725480529485    0.0140275742197751 Ti
   0.7376027761373143    0.0048047102328612    0.0145672124675675 Ti
   0.7361261261570826    0.5045038947041031    0.0137083017871216 Ti
   0.0027462330282783    0.2402647594446599    0.9807713505201032 Ti
   0.0032183814090424    0.7401859285485679    0.9800337498300713 Ti
   0.5019007330787348    0.2413512850510556    0.9806975625574921 Ti
   0.5032271181827905    0.7395020587687580    0.9797780065786392 Ti
   0.2373872667738898    0.0037808343914256    0.4864162742971634 Ti
   0.2387923886509457    0.5049947662862940    0.4864055817971248 Ti
   0.7377267034509117    0.0051909658379705    0.4861532098405698 Ti
   0.7370891567194220    0.5045274833488576    0.4847906380659164 Ti
   0.0030178801637537    0.2403311712978040    0.5190339209533164 Ti
   0.0030461028641488    0.7402624257394921    0.5200663607127424 Ti
   0.5021977145447094    0.2419483260211460    0.5190828974425581 Ti
   0.5040921632395500    0.7394044329568290    0.5181993713568740 Ti
   0.1040350863311362    0.1041556143632437    0.9675500590114836 O
   0.1048510328442711    0.6053550347865606    0.9659173138588388 O
   0.6052460208049905    0.1049936502772068    0.9684178221611999 O
   0.6075726754448674    0.6082487659106940    0.9686353187991248 O
   0.1042160360503304    0.1042161664741336    0.5329820921696069 O
   0.1043068510748216    0.6050652719221111    0.5345746211439387 O
   0.6058411643007070    0.1058871165497368    0.5321482004205791 O
   0.6071928054972549    0.6091960819687305    0.5313481084113461 O
   0.4631317403844981    0.2532912641920269    0.7499967719912655 O
   0.4648788936736293    0.7622254387108458    0.7516779468858702 O
   0.9613814598417201    0.2573569818410290    0.7498145893446344 O
   0.9605525399247912    0.7594928554328695    0.7501245120395850 O
   0.2159683966983135    0.4917905379088167    0.2501926926659017 O
   0.2176367370604604    0.9849283412828893    0.2504675098281428 O
   0.7233647629623441    0.4866214864199758    0.2497321690902883 O
   0.7183358891100662    0.9867052461397272    0.2504487050969426 O
   0.3499517612374106    0.1485835935509755    0.0493490135798614 F
   0.3490385892894136    0.6520967573177744    0.0423186885732523 F
   0.8502222146057443    0.1502945402153222    0.0514360529176730 F
   0.8509436199239282    0.6500999831710419    0.0486990792382315 F
   0.1517620607782403    0.3496562560860935    0.9530564983623073 F
   0.1540098633118920    0.8485646364268384    0.9506195921736158 F
   0.6540070151656966    0.3471657291794362    0.9578979736464447 F
   0.6546397857775541    0.8489721581492468    0.9549673909926717 F
   0.3927549850344512    0.3916414709250210    0.0365174686792501 F
   0.4010132203161131    0.9007226619589142    0.0330384642653381 F
   0.9021058406159612    0.4000137541760196    0.0324634139074218 F
   0.9026649401235409    0.9008677809117083    0.0346190472454453 F
   0.1524837322040211    0.3493098787451174    0.5464540161160052 F
   0.1541039214153071    0.8484955436502317    0.5501620751811500 F
   0.6533368436638609    0.3486479902372944    0.5420324868776436 F
   0.6536411483727183    0.8505752681534289    0.5478742182542043 F
   0.3504666907139830    0.1483002856829098    0.4513067373547667 F
   0.3481424057620409    0.6529966861300410    0.4594243329266952 F
   0.8501394715632746    0.1507130344805370    0.4487034116798233 F
   0.8503784998200911    0.6507222867310423    0.4511080902360379 F
   0.3931016431442264    0.3922035034424149    0.4635731247775976 F
   0.4020780589331308    0.9002203083774737    0.4681880450261233 F
   0.9022001567912994    0.4001553100554667    0.4672305669394514 F
   0.9028304298329308    0.9012782030230507    0.4664119098384849 F
   0.0364204146560242    0.2501326247908370    0.2498723294287848 F
   0.0353447365784531    0.7500956856025310    0.2500508237496056 F
   0.5334379013895902    0.2445517537896996    0.2498346932326739 F
   0.5317579046279863    0.7574378534527424    0.2486062164459041 F
   0.2918543106681719    0.0148274516285726    0.7501998805907726 F
   0.2876676527067532    0.5117749871510201    0.7500655167736213 F
   0.7930576885229832    0.0153400506090791    0.7503151037065998 F
   0.7931345916906984    0.5127436911716160    0.7495903117801828 F
