Na4 V4 O8 F4                            
   1.00000000000000     
     5.3703060832325349    0.1046759613870139    0.0311291637035412
     0.1030228455593487    5.4310236693506742   -0.0070213817711004
     0.0418430317980382   -0.0016941991249510    7.3636178500413019
   Na   V    O    F 
     4     4     8     4
Direct
  0.9992986669789811  0.0137323643112182  0.2493964495572710
  0.0008213744511288  0.9575895960505667  0.7548950277324875
  0.5079581055716629  0.4771361083773484  0.7495860863578825
  0.4978374645544524  0.5456412902711623  0.2561887670011064
  0.5048585721717868  0.0021677195690149 -0.0000535870097466
  0.0031633407083044  0.5000212602267147  0.0004573351872795
  0.4874998799692025  0.0349676648774646  0.5008553632660860
  0.9832978711577928  0.4678541353423742  0.4983845216518242
  0.0641596789501895  0.4992540032436703  0.2627636361822775
  0.9463103974009585  0.5145351711255647  0.7374516623901254
  0.5594532428524545  0.0228274156725342  0.7571227195947073
  0.4480847703192714  0.9889661459801018  0.2406028283258723
  0.2007315430773350  0.2276595340957620  0.9728352178965628
  0.8005415941415098  0.7773045624447804  0.0245705622032959
  0.6996225469747980  0.2849499109360032  0.4626777248040001
  0.1972776329650520  0.1810182363378547  0.5301342190297480
  0.7021917108942061  0.3015372975640458  0.0405591520015863
  0.3002669155837362  0.7076116354622201  0.9605875472629301
  0.3121070738111290  0.7014801416864843  0.5341629001170641
  0.7845176174660414  0.7937458064251137  0.4668218664476396
 
  0.00000000E+00  0.00000000E+00  0.00000000E+00
  0.00000000E+00  0.00000000E+00  0.00000000E+00
  0.00000000E+00  0.00000000E+00  0.00000000E+00
  0.00000000E+00  0.00000000E+00  0.00000000E+00
  0.00000000E+00  0.00000000E+00  0.00000000E+00
  0.00000000E+00  0.00000000E+00  0.00000000E+00
  0.00000000E+00  0.00000000E+00  0.00000000E+00
  0.00000000E+00  0.00000000E+00  0.00000000E+00
  0.00000000E+00  0.00000000E+00  0.00000000E+00
  0.00000000E+00  0.00000000E+00  0.00000000E+00
  0.00000000E+00  0.00000000E+00  0.00000000E+00
  0.00000000E+00  0.00000000E+00  0.00000000E+00
  0.00000000E+00  0.00000000E+00  0.00000000E+00
  0.00000000E+00  0.00000000E+00  0.00000000E+00
  0.00000000E+00  0.00000000E+00  0.00000000E+00
  0.00000000E+00  0.00000000E+00  0.00000000E+00
  0.00000000E+00  0.00000000E+00  0.00000000E+00
  0.00000000E+00  0.00000000E+00  0.00000000E+00
  0.00000000E+00  0.00000000E+00  0.00000000E+00
  0.00000000E+00  0.00000000E+00  0.00000000E+00
