Na8 Co8 O16 F8                          
   1.00000000000000     
     8.3254988077931369    0.0001908884320274   -0.0001725596840227
     0.0000712984830951    7.2635029046259030   -0.0002306288697524
    -0.0001426003798644   -0.0002579064642818    7.2632950480278362
   Na   Co   O    F 
     8     8    16     8
Direct
  0.2475820620411125  0.2501044631324713  0.2500145617530066
  0.2482742847535345  0.2500637638283760  0.7499289513157348
  0.2482765600700149  0.7500144205503848  0.2500099242499706
  0.2482672515271107  0.7500227705918761  0.7499663578305776
  0.7523325600424894  0.2500069036023851  0.2500143388336745
  0.7517010622280332  0.2500945765747977  0.7498867083402126
  0.7523399244316966  0.7498820112314452  0.2500184746891684
  0.7516721230365290  0.7500406804713573  0.7499949701685712
 -0.0000242343665559  0.9998452054871273  0.0000490456980533
  0.0000400719087932 -0.0000689335861260  0.5000787924352453
  0.0000062724444120  0.4999149140465538  0.0000975788930163
  0.0000005988361557  0.4998386739858408  0.5000779079179176
  0.4999657475982634  0.0001064078963967 -0.0000475487399868
  0.4999835249659073  0.0000230734018417  0.4999463175675473
  0.5000030285868355  0.4999903696881087  0.9999686799569171
  0.4999593778409078  0.5000871737487521  0.4999504789974700
 -0.0000603994228984  0.2576383455404080  0.0003731579790096
  0.9999266880980655  0.2420639393347179  0.5002604819267327
 -0.0000037790006509  0.7420861056450265  0.0002416455597013
  0.9999718982440267  0.7576451289622970  0.5004078360418588
  0.4999937995876612  0.2578896043415270  0.9998144917369436
  0.4999430861063959  0.2424236059019820  0.4996658806890537
  0.4998881080849848  0.7424421143032846  0.9996618324762337
  0.4998908130356672  0.7578875371031500  0.4998172159679468
  0.9999677223540705  0.9995841506597335  0.2424569869858793
  0.0000120535434305  0.9996920637123342  0.7577340935946897
 -0.0000172929707730  0.4996903273203221  0.2577548820251755
 -0.0000003014291187  0.4995969431702783  0.7425000489404197
  0.4999752567682253  0.0002666967005896  0.2422484851450772
  0.4999553886344693  0.0004137092341764  0.7574438513969114
  0.4999202884575880  0.5004174656558245  0.2574474931155120
  0.5000058577596902  0.5002798338371656  0.7422851520989464
  0.2498783151253621  0.0002056894381515  0.0000067613395567
  0.2498747691706580  0.9998968892169343  0.4999610059867480
  0.2498892464662752  0.5000752202640317  0.9999949193116744
  0.2498653113832319  0.4998385239159692  0.5000073351080829
  0.7501949106129703  0.0001163479623048  0.9999856742549768
  0.7501782007697394  0.9998452798024350  0.4999784855308532
  0.7501910679156774  0.5001711023582647  0.0000260126497982
  0.7501787747600323  0.4998669009675318  0.4999707302311296
 
  0.00000000E+00  0.00000000E+00  0.00000000E+00
  0.00000000E+00  0.00000000E+00  0.00000000E+00
  0.00000000E+00  0.00000000E+00  0.00000000E+00
  0.00000000E+00  0.00000000E+00  0.00000000E+00
  0.00000000E+00  0.00000000E+00  0.00000000E+00
  0.00000000E+00  0.00000000E+00  0.00000000E+00
  0.00000000E+00  0.00000000E+00  0.00000000E+00
  0.00000000E+00  0.00000000E+00  0.00000000E+00
  0.00000000E+00  0.00000000E+00  0.00000000E+00
  0.00000000E+00  0.00000000E+00  0.00000000E+00
  0.00000000E+00  0.00000000E+00  0.00000000E+00
  0.00000000E+00  0.00000000E+00  0.00000000E+00
  0.00000000E+00  0.00000000E+00  0.00000000E+00
  0.00000000E+00  0.00000000E+00  0.00000000E+00
  0.00000000E+00  0.00000000E+00  0.00000000E+00
  0.00000000E+00  0.00000000E+00  0.00000000E+00
  0.00000000E+00  0.00000000E+00  0.00000000E+00
  0.00000000E+00  0.00000000E+00  0.00000000E+00
  0.00000000E+00  0.00000000E+00  0.00000000E+00
  0.00000000E+00  0.00000000E+00  0.00000000E+00
  0.00000000E+00  0.00000000E+00  0.00000000E+00
  0.00000000E+00  0.00000000E+00  0.00000000E+00
  0.00000000E+00  0.00000000E+00  0.00000000E+00
  0.00000000E+00  0.00000000E+00  0.00000000E+00
  0.00000000E+00  0.00000000E+00  0.00000000E+00
  0.00000000E+00  0.00000000E+00  0.00000000E+00
  0.00000000E+00  0.00000000E+00  0.00000000E+00
  0.00000000E+00  0.00000000E+00  0.00000000E+00
  0.00000000E+00  0.00000000E+00  0.00000000E+00
  0.00000000E+00  0.00000000E+00  0.00000000E+00
  0.00000000E+00  0.00000000E+00  0.00000000E+00
  0.00000000E+00  0.00000000E+00  0.00000000E+00
  0.00000000E+00  0.00000000E+00  0.00000000E+00
  0.00000000E+00  0.00000000E+00  0.00000000E+00
  0.00000000E+00  0.00000000E+00  0.00000000E+00
  0.00000000E+00  0.00000000E+00  0.00000000E+00
  0.00000000E+00  0.00000000E+00  0.00000000E+00
  0.00000000E+00  0.00000000E+00  0.00000000E+00
  0.00000000E+00  0.00000000E+00  0.00000000E+00
  0.00000000E+00  0.00000000E+00  0.00000000E+00
