Na4 Mn4 O8 F4                           
   1.00000000000000     
     5.1472903990522410    0.0000038701354718   -0.0000196171012141
     0.0000038802459045    5.1934266984606623   -0.0000004802280174
    -0.0000264886582788   -0.0000006183934830    7.8042270378795937
   Na   Mn   O    F 
     4     4     8     4
Direct
  0.9773047261855083  0.0264297506946463  0.2499992175753150
  0.0227291980323443  0.9734393050686521  0.7500007116393661
  0.4773073698268604  0.4735714713399446  0.7499994736633155
  0.5227305090569914  0.5265598679784986  0.2499994464854041
  0.4999914660623332  0.0000104372697294  0.0000006067380980
  0.9999908759251142  0.4999884001949653  0.9999997718863582
  0.4999908010062910  0.0000106209194897  0.4999992729235458
  0.9999905653975034  0.4999890288443112  0.4999996700445450
  0.7283935420735759  0.2711004202216856  0.0433013512768312
  0.2716056989178028  0.7288769781567552  0.9567193835987311
  0.2283858222326742  0.2289021169681149  0.9566961939378231
  0.7716160792760718  0.7711182600787794  0.0432833880544763
  0.2716124635665409  0.7288828878581128  0.5432822588969231
  0.7283864065551739  0.2710955375202388  0.4566973308588018
  0.7716068308387420  0.7711227819100230  0.4567174428641181
  0.2283936932025128  0.2288986294058546  0.5433027803447672
  0.0850566781179651  0.4890225716781700  0.2499897338163919
  0.9149256063346058  0.5110215322496288  0.7500111424265370
  0.5850569478454020  0.0109724995840921  0.7499878048366000
  0.4149247195459793  0.9889869020583149  0.2500130181320515
 
  0.00000000E+00  0.00000000E+00  0.00000000E+00
  0.00000000E+00  0.00000000E+00  0.00000000E+00
  0.00000000E+00  0.00000000E+00  0.00000000E+00
  0.00000000E+00  0.00000000E+00  0.00000000E+00
  0.00000000E+00  0.00000000E+00  0.00000000E+00
  0.00000000E+00  0.00000000E+00  0.00000000E+00
  0.00000000E+00  0.00000000E+00  0.00000000E+00
  0.00000000E+00  0.00000000E+00  0.00000000E+00
  0.00000000E+00  0.00000000E+00  0.00000000E+00
  0.00000000E+00  0.00000000E+00  0.00000000E+00
  0.00000000E+00  0.00000000E+00  0.00000000E+00
  0.00000000E+00  0.00000000E+00  0.00000000E+00
  0.00000000E+00  0.00000000E+00  0.00000000E+00
  0.00000000E+00  0.00000000E+00  0.00000000E+00
  0.00000000E+00  0.00000000E+00  0.00000000E+00
  0.00000000E+00  0.00000000E+00  0.00000000E+00
  0.00000000E+00  0.00000000E+00  0.00000000E+00
  0.00000000E+00  0.00000000E+00  0.00000000E+00
  0.00000000E+00  0.00000000E+00  0.00000000E+00
  0.00000000E+00  0.00000000E+00  0.00000000E+00
