Ni4 O4 F8                               
   1.00000000000000     
     4.9009508770255295    0.0162403041313315    0.0492035653231750
    -0.0058554370431645    5.1341275709167347    0.1168800816164638
     0.0227293037986536    0.1112454603426103    7.2488422019326411
   Ni   O    F 
     4     4     8
Direct
  0.5088834274291638  0.0164040647758604  0.0093115460135272
  0.0179033528578215  0.5062202797231932  0.9999413680571645
  0.4969940671444002  0.9947312615911124  0.4912725353193406
  0.0091329474121258  0.5058368742940260  0.4999665142884976
  0.8206356650217459  0.8165937045216224  0.0464754728424258
  0.6890789831548124  0.3064856071869617  0.4553341788596398
  0.1047935046573582  0.4751022258316132  0.2499498166722446
  0.5846755451599537  0.0297570302449776  0.7464226377204818
  0.6769987181433610  0.3295325957767981  0.0877207565423151
  0.3488625798424151  0.6864669396726163  0.9322805099834680
  0.1597375445588852  0.1708743424073975  0.9452612363216937
  0.3590408830666038  0.6527455391540149  0.5509124837087134
  0.8307931400685359  0.8276948020465033  0.4107393967601439
  0.1648638888821155  0.1665532286053081  0.5725791415786993
  0.8785685852180403  0.5499683307974593  0.7506349604968007
  0.3490371673826557  0.9650331733705436  0.2511974448348444
 
  0.00000000E+00  0.00000000E+00  0.00000000E+00
  0.00000000E+00  0.00000000E+00  0.00000000E+00
  0.00000000E+00  0.00000000E+00  0.00000000E+00
  0.00000000E+00  0.00000000E+00  0.00000000E+00
  0.00000000E+00  0.00000000E+00  0.00000000E+00
  0.00000000E+00  0.00000000E+00  0.00000000E+00
  0.00000000E+00  0.00000000E+00  0.00000000E+00
  0.00000000E+00  0.00000000E+00  0.00000000E+00
  0.00000000E+00  0.00000000E+00  0.00000000E+00
  0.00000000E+00  0.00000000E+00  0.00000000E+00
  0.00000000E+00  0.00000000E+00  0.00000000E+00
  0.00000000E+00  0.00000000E+00  0.00000000E+00
  0.00000000E+00  0.00000000E+00  0.00000000E+00
  0.00000000E+00  0.00000000E+00  0.00000000E+00
  0.00000000E+00  0.00000000E+00  0.00000000E+00
  0.00000000E+00  0.00000000E+00  0.00000000E+00
