Na4 V4 O8 F4                            
   1.00000000000000     
     5.7482780751295550   -0.0677558838209620   -0.3644216335583335
    -2.9786081634909647    4.7991823564035787    0.5154844939184162
    -0.7147236197359789    0.5316280350231791    9.5194460753216958
   Na   V    O    F 
     4     4     8     4
Direct
  0.0812924086191854  0.0335279352588929  0.9100101417633477
  0.0330210681709679  0.9508010168733179  0.4052029670703901
  0.2829004421392982  0.6206515927281147  0.2287559824322325
  0.6954711101073068  0.3819755765986428  0.7332552294395361
  0.3856723386701484  0.6995967735871792  0.6251721601321175
  0.7498858494599133  0.3219624564121644  0.4065435904558847
  0.5803408506998105  0.3032182021679806  0.1264494380406876
  0.4072072661088578  0.7525939186898676  0.9043959175613998
  0.4907808734793198  0.0423607201946402  0.9853054435520113
  0.3541480358301270  0.4624039917092503  0.0213852670534107
  0.5175398589537052  0.0857833578972499  0.5347185974944134
  0.0755779202272866  0.5477651563690308  0.4744534940900155
  0.6297186764742596  0.5077371999728693  0.2873403733865783
  0.6687510025822418  0.8565724936005983  0.7982025894717945
  0.7932044882291038  0.1616126336656603  0.2843963272144454
  0.1511850811682038  0.6817936686485186  0.7681813337288440
  0.9151309738482379  0.5865714337208429  0.0385136626960753
  0.6619199586867729  0.6842566684477592  0.5398837233541239
  0.2795228944662024  0.3205043172308150  0.7122373007233813
  0.2467289020790523 -0.0016891137733956  0.2155964603393192
 
  0.00000000E+00  0.00000000E+00  0.00000000E+00
  0.00000000E+00  0.00000000E+00  0.00000000E+00
  0.00000000E+00  0.00000000E+00  0.00000000E+00
  0.00000000E+00  0.00000000E+00  0.00000000E+00
  0.00000000E+00  0.00000000E+00  0.00000000E+00
  0.00000000E+00  0.00000000E+00  0.00000000E+00
  0.00000000E+00  0.00000000E+00  0.00000000E+00
  0.00000000E+00  0.00000000E+00  0.00000000E+00
  0.00000000E+00  0.00000000E+00  0.00000000E+00
  0.00000000E+00  0.00000000E+00  0.00000000E+00
  0.00000000E+00  0.00000000E+00  0.00000000E+00
  0.00000000E+00  0.00000000E+00  0.00000000E+00
  0.00000000E+00  0.00000000E+00  0.00000000E+00
  0.00000000E+00  0.00000000E+00  0.00000000E+00
  0.00000000E+00  0.00000000E+00  0.00000000E+00
  0.00000000E+00  0.00000000E+00  0.00000000E+00
  0.00000000E+00  0.00000000E+00  0.00000000E+00
  0.00000000E+00  0.00000000E+00  0.00000000E+00
  0.00000000E+00  0.00000000E+00  0.00000000E+00
  0.00000000E+00  0.00000000E+00  0.00000000E+00
