Cr4 O4 F8                               
   1.00000000000000     
     5.3657318512366210    0.0364914419111255    0.0022103782816617
    -2.6527634098936086    4.6639484185658269   -0.0094205673020236
    -0.0034881585604708    0.0180298470474373    9.0959888069610546
   Cr   O    F 
     4     4     8
Direct
  0.3236021578587400  0.6763470409421315  0.6052601516365791
  0.6826770058347197  0.3171466400865713  0.4063367380282130
  0.6763561245362283  0.3235274459274944  0.1052524111686772
  0.3170556548656986  0.6826639975956188  0.9062530252472183
  0.5056989885643649  0.9908143620701911  0.9942959203603502
  0.0091522991306682  0.4914389992586199  0.9940763099264819
  0.4915116218673277  0.0091374946390233  0.4940979839624127
  0.9909732392247312  0.5057517963884218  0.4941660514773001
  0.5031858390440908  0.4995534382900194  0.9971367214951289
  0.4999113438868951  0.5034793966990022  0.4972349073586481
  0.8174867066848193  0.6185524192381807  0.2487801100197522
  0.1847205543813292  0.3815346410100802  0.7488606211729303
  0.3816586144814946  0.1849387557219099  0.2488564923477087
  0.6183457648796931  0.8173971284787102  0.7488752722848514
  0.8255210784479373  0.1720977690052636  0.2552739982361971
  0.1721430063112551  0.8256186746487623  0.7552432852775514
 
  0.00000000E+00  0.00000000E+00  0.00000000E+00
  0.00000000E+00  0.00000000E+00  0.00000000E+00
  0.00000000E+00  0.00000000E+00  0.00000000E+00
  0.00000000E+00  0.00000000E+00  0.00000000E+00
  0.00000000E+00  0.00000000E+00  0.00000000E+00
  0.00000000E+00  0.00000000E+00  0.00000000E+00
  0.00000000E+00  0.00000000E+00  0.00000000E+00
  0.00000000E+00  0.00000000E+00  0.00000000E+00
  0.00000000E+00  0.00000000E+00  0.00000000E+00
  0.00000000E+00  0.00000000E+00  0.00000000E+00
  0.00000000E+00  0.00000000E+00  0.00000000E+00
  0.00000000E+00  0.00000000E+00  0.00000000E+00
  0.00000000E+00  0.00000000E+00  0.00000000E+00
  0.00000000E+00  0.00000000E+00  0.00000000E+00
  0.00000000E+00  0.00000000E+00  0.00000000E+00
  0.00000000E+00  0.00000000E+00  0.00000000E+00
